p cnf 42193 41735
-1110 0
-1113 0
-1116 0
-1119 0
-1122 0
-1125 0
-1128 0
-1131 0
-1577 0
-1065 0
-1068 0
-1071 0
-1074 0
-1077 0
-1080 0
-1083 0
-1014 0
-1017 0
-1020 0
-1023 0
-1026 0
-1029 0
-1032 0
-1576 0
-1839 0
-1594 0
-1885 0
-1580 0
-1598 0
-748 0
-491 0
-766 0
-820 0
-913 0
-793 0
-760 0
-784 0
963 912 0
-963 -912 0
1639 1577 0
-1639 -1577 0
1888 1580 0
-1888 -1580 0
1828 1839 0
-1828 -1839 0
937 886 0
-937 -886 0
1612 509 0
-1612 -509 0
1831 1594 0
-1831 -1594 0
1632 1885 0
-1632 -1885 0
1838 1588 0
-1838 -1588 0
1848 1598 0
-1848 -1598 0
1601 1605 0
-1601 -1605 0
1462 1578 0
-1462 -1578 0
1624 1827 0
-1624 -1827 0
1634 1830 0
-1634 -1830 0
2163 1846 0
-2163 -1846 0
2127 1857 0
-2127 -1857 0
2129 1860 0
-2129 -1860 0
2131 1863 0
-2131 -1863 0
2133 1866 0
-2133 -1866 0
2135 1869 0
-2135 -1869 0
2137 1872 0
-2137 -1872 0
2139 1875 0
-2139 -1875 0
2141 1878 0
-2141 -1878 0
1629 1881 0
-1629 -1881 0
1652 1887 0
-1652 -1887 0
555 1890 0
-555 -1890 0
2147 1625 0
-2147 -1625 0
1721 555 0
-1721 -555 0
561 555 0
-561 -555 0
988 1893 0
-988 -1893 0
565 1896 0
-565 -1896 0
1792 561 0
-1792 -561 0
1300 565 0
-1300 -565 0
607 565 0
-607 -565 0
1921 1902 0
-1921 -1902 0
1036 1905 0
-1036 -1905 0
1656 1908 0
-1656 -1908 0
615 1908 0
-615 -1908 0
1207 1474 0
-1207 -1474 0
1038 1474 0
-1038 -1474 0
1213 1477 0
-1213 -1477 0
1041 1477 0
-1041 -1477 0
1219 1480 0
-1219 -1480 0
1044 1480 0
-1044 -1480 0
1225 1483 0
-1225 -1483 0
1047 1483 0
-1047 -1483 0
1231 1486 0
-1231 -1486 0
1050 1486 0
-1050 -1486 0
1237 1489 0
-1237 -1489 0
1053 1489 0
-1053 -1489 0
1243 1492 0
-1243 -1492 0
1056 1492 0
-1056 -1492 0
1249 1495 0
-1249 -1495 0
1059 1495 0
-1059 -1495 0
1327 607 0
-1327 -607 0
2155 1911 0
-2155 -1911 0
1303 1656 0
-1303 -1656 0
1360 615 0
-1360 -615 0
633 615 0
-633 -615 0
1134 1475 0
-1134 -1475 0
1137 1478 0
-1137 -1478 0
1140 1481 0
-1140 -1481 0
1143 1484 0
-1143 -1484 0
1146 1487 0
-1146 -1487 0
1149 1490 0
-1149 -1490 0
1152 1493 0
-1152 -1493 0
1155 1496 0
-1155 -1496 0
1204 633 0
-1204 -633 0
1159 1204 0
-1159 -1204 0
1162 1204 0
-1162 -1204 0
1165 1204 0
-1165 -1204 0
1168 1204 0
-1168 -1204 0
1171 1204 0
-1171 -1204 0
1174 1204 0
-1174 -1204 0
1177 1204 0
-1177 -1204 0
1180 1204 0
-1180 -1204 0
2111 1924 0
-2111 -1924 0
2113 1928 0
-2113 -1928 0
2115 1932 0
-2115 -1932 0
2117 1936 0
-2117 -1936 0
2119 1940 0
-2119 -1940 0
2121 1944 0
-2121 -1944 0
2123 1948 0
-2123 -1948 0
1254 1497 0
-1254 -1497 0
1260 1500 0
-1260 -1500 0
1266 1503 0
-1266 -1503 0
1272 1506 0
-1272 -1506 0
1278 1509 0
-1278 -1509 0
1284 1512 0
-1284 -1512 0
1290 1515 0
-1290 -1515 0
1296 1518 0
-1296 -1518 0
1670 1257 0
-1670 -1257 0
1986 1269 0
-1986 -1269 0
1740 1287 0
-1740 -1287 0
1768 1293 0
-1768 -1293 0
1332 1655 0
-1332 -1655 0
2004 1524 0
-2004 -1524 0
1335 1524 0
-1335 -1524 0
1365 1694 0
-1365 -1694 0
2034 1665 0
-2034 -1665 0
1371 1665 0
-1371 -1665 0
1398 1672 0
-1398 -1672 0
1401 1705 0
-1401 -1705 0
1564 1539 0
-1564 -1539 0
1389 1539 0
-1389 -1539 0
1422 1542 0
-1422 -1542 0
2044 1657 0
-2044 -1657 0
1682 1663 0
-1682 -1663 0
1363 1668 0
-1363 -1668 0
2042 1671 0
-2042 -1671 0
1366 2006 0
-1366 -2006 0
1742 1686 0
-1742 -1686 0
1369 1366 0
-1369 -1366 0
1743 1689 0
-1743 -1689 0
1393 1725 0
-1393 -1725 0
1746 1731 0
-1746 -1731 0
1396 1739 0
-1396 -1739 0
1399 2036 0
-1399 -2036 0
1402 2040 0
-1402 -2040 0
1405 1399 0
-1405 -1399 0
2125 2048 0
-2125 -2048 0
1565 1744 0
-1565 -1744 0
1414 1402 0
-1414 -1402 0
1432 1766 0
-1432 -1766 0
-1912 912 0
-1912 748 0
1912 -912 -748 0
-1850 867 0
-1850 1083 0
1850 -867 -1083 0
-2060 891 0
-2060 1922 0
2060 -891 -1922 0
-1824 867 0
-1824 1577 0
1824 -867 -1577 0
-1909 912 0
-1909 760 0
1909 -912 -760 0
-1843 867 0
-1843 1074 0
1843 -867 -1074 0
-1894 912 0
-1894 766 0
1894 -912 -766 0
-1813 864 0
-1813 1032 0
1813 -864 -1032 0
-1851 864 0
-1851 1576 0
1851 -864 -1576 0
-1816 867 0
-1816 1071 0
1816 -867 -1071 0
-2072 903 0
-2072 1922 0
2072 -903 -1922 0
-1835 864 0
-1835 1029 0
1835 -864 -1029 0
-1891 912 0
-1891 784 0
1891 -912 -784 0
-1814 879 0
-1814 1128 0
1814 -879 -1128 0
-1845 879 0
-1845 1122 0
1845 -879 -1122 0
-1897 912 0
-1897 793 0
1897 -912 -793 0
-1812 867 0
-1812 1080 0
1812 -867 -1080 0
-2084 900 0
-2084 1922 0
2084 -900 -1922 0
-1855 864 0
-1855 1017 0
1855 -864 -1017 0
-1818 879 0
-1818 1119 0
1818 -879 -1119 0
-2066 894 0
-2066 1922 0
2066 -894 -1922 0
-1817 864 0
-1817 1023 0
1817 -864 -1023 0
-1836 879 0
-1836 1125 0
1836 -879 -1125 0
-1822 879 0
-1822 1116 0
1822 -879 -1116 0
-1906 912 0
-1906 820 0
1906 -912 -820 0
-2090 906 0
-2090 1922 0
2090 -906 -1922 0
-1826 879 0
-1826 1110 0
1826 -879 -1110 0
-1821 864 0
-1821 1020 0
1821 -864 -1020 0
-1862 891 0
-1862 886 0
1862 -891 -886 0
-1865 894 0
-1865 886 0
1865 -894 -886 0
-1871 900 0
-1871 886 0
1871 -900 -886 0
-1874 903 0
-1874 886 0
1874 -903 -886 0
-1877 906 0
-1877 886 0
1877 -906 -886 0
-1820 867 0
-1820 1068 0
1820 -867 -1068 0
-1825 864 0
-1825 1014 0
1825 -864 -1014 0
-1829 1594 0
-1829 1885 0
1829 -1594 -1885 0
-1919 909 0
-1919 1922 0
1919 -909 -1922 0
-1880 909 0
-1880 886 0
1880 -909 -886 0
-1834 867 0
-1834 1077 0
1834 -867 -1077 0
-1844 864 0
-1844 1026 0
1844 -864 -1026 0
-1854 867 0
-1854 1065 0
1854 -867 -1065 0
-2054 888 0
-2054 1922 0
2054 -888 -1922 0
-1859 888 0
-1859 886 0
1859 -888 -886 0
-1852 879 0
-1852 1131 0
1852 -879 -1131 0
-1856 879 0
-1856 1113 0
1856 -879 -1113 0
-2078 897 0
-2078 1922 0
2078 -897 -1922 0
-1868 897 0
-1868 886 0
1868 -897 -886 0
-1926 888 0
-1926 1915 0
1926 -888 -1915 0
-1930 891 0
-1930 1915 0
1930 -891 -1915 0
-1934 894 0
-1934 1915 0
1934 -894 -1915 0
-1938 897 0
-1938 1915 0
1938 -897 -1915 0
-1942 900 0
-1942 1915 0
1942 -900 -1915 0
-1946 903 0
-1946 1915 0
1946 -903 -1915 0
-1950 906 0
-1950 1915 0
1950 -906 -1915 0
-2050 909 0
-2050 1915 0
2050 -909 -1915 0
-1903 912 0
-1903 913 0
1903 -912 -913 0
-1858 1014 0
-1858 937 0
1858 -1014 -937 0
-1861 1017 0
-1861 937 0
1861 -1017 -937 0
-1864 1020 0
-1864 937 0
1864 -1020 -937 0
-1867 1023 0
-1867 937 0
1867 -1023 -937 0
-1870 1026 0
-1870 937 0
1870 -1026 -937 0
-1873 1029 0
-1873 937 0
1873 -1029 -937 0
-1876 1032 0
-1876 937 0
1876 -1032 -937 0
-1879 1576 0
-1879 937 0
1879 -1576 -937 0
-1889 1584 0
-1889 1608 0
1889 -1584 -1608 0
-1892 963 0
-1892 2167 0
1892 -963 -2167 0
-1895 963 0
-1895 2157 0
1895 -963 -2157 0
-1898 963 0
-1898 2163 0
1898 -963 -2163 0
-1901 1640 0
-1901 1638 0
1901 -1640 -1638 0
-1904 963 0
-1904 2161 0
1904 -963 -2161 0
-1907 963 0
-1907 2159 0
1907 -963 -2159 0
-1910 963 0
-1910 2165 0
1910 -963 -2165 0
-1913 963 0
-1913 2153 0
1913 -963 -2153 0
-1474 1110 0
-1474 988 0
1474 -1110 -988 0
-1477 1113 0
-1477 988 0
1477 -1113 -988 0
-1480 1116 0
-1480 988 0
1480 -1116 -988 0
-1483 1119 0
-1483 988 0
1483 -1119 -988 0
-1486 1122 0
-1486 988 0
1486 -1122 -988 0
-1489 1125 0
-1489 988 0
1489 -1125 -988 0
-1492 1128 0
-1492 988 0
1492 -1128 -988 0
-1495 1131 0
-1495 988 0
1495 -1131 -988 0
-1918 1649 0
-1918 1921 0
1918 -1649 -1921 0
-1925 1065 0
-1925 1921 0
1925 -1065 -1921 0
-1929 1068 0
-1929 1921 0
1929 -1068 -1921 0
-1933 1071 0
-1933 1921 0
1933 -1071 -1921 0
-1937 1074 0
-1937 1921 0
1937 -1074 -1921 0
-1941 1077 0
-1941 1921 0
1941 -1077 -1921 0
-1945 1080 0
-1945 1921 0
1945 -1080 -1921 0
-1949 1083 0
-1949 1921 0
1949 -1083 -1921 0
-1475 1014 0
-1475 1036 0
1475 -1014 -1036 0
-1478 1017 0
-1478 1036 0
1478 -1017 -1036 0
-1481 1020 0
-1481 1036 0
1481 -1020 -1036 0
-1484 1023 0
-1484 1036 0
1484 -1023 -1036 0
-1487 1026 0
-1487 1036 0
1487 -1026 -1036 0
-1490 1029 0
-1490 1036 0
1490 -1029 -1036 0
-1493 1032 0
-1493 1036 0
1493 -1032 -1036 0
-1496 1576 0
-1496 1036 0
1496 -1576 -1036 0
-1954 1038 0
-1954 1327 0
1954 -1038 -1327 0
-1957 1041 0
-1957 1327 0
1957 -1041 -1327 0
-1960 1044 0
-1960 1327 0
1960 -1044 -1327 0
-1963 1047 0
-1963 1327 0
1963 -1047 -1327 0
-1966 1050 0
-1966 1327 0
1966 -1050 -1327 0
-1969 1053 0
-1969 1327 0
1969 -1053 -1327 0
-1972 1056 0
-1972 1327 0
1972 -1056 -1327 0
-1975 1059 0
-1975 1327 0
1975 -1059 -1327 0
-1927 1577 0
-1927 1914 0
1927 -1577 -1914 0
-1931 1065 0
-1931 1914 0
1931 -1065 -1914 0
-1935 1068 0
-1935 1914 0
1935 -1068 -1914 0
-1939 1071 0
-1939 1914 0
1939 -1071 -1914 0
-1943 1074 0
-1943 1914 0
1943 -1074 -1914 0
-1947 1077 0
-1947 1914 0
1947 -1077 -1914 0
-1951 1080 0
-1951 1914 0
1951 -1080 -1914 0
-2051 1083 0
-2051 1914 0
2051 -1083 -1914 0
-1953 1473 0
-1953 1300 0
1953 -1473 -1300 0
-1956 1476 0
-1956 1300 0
1956 -1476 -1300 0
-1959 1479 0
-1959 1300 0
1959 -1479 -1300 0
-1962 1482 0
-1962 1300 0
1962 -1482 -1300 0
-1965 1485 0
-1965 1300 0
1965 -1485 -1300 0
-1968 1488 0
-1968 1300 0
1968 -1488 -1300 0
-1971 1491 0
-1971 1300 0
1971 -1491 -1300 0
-1974 1494 0
-1974 1300 0
1974 -1494 -1300 0
-2046 1110 0
-2046 1920 0
2046 -1110 -1920 0
-2056 1113 0
-2056 1920 0
2056 -1113 -1920 0
-2062 1116 0
-2062 1920 0
2062 -1116 -1920 0
-2068 1119 0
-2068 1920 0
2068 -1119 -1920 0
-2080 1122 0
-2080 1920 0
2080 -1122 -1920 0
-2086 1125 0
-2086 1920 0
2086 -1125 -1920 0
-2074 1128 0
-2074 1920 0
2074 -1128 -1920 0
-2092 1131 0
-2092 1920 0
2092 -1131 -1920 0
-1499 1134 0
-1499 1204 0
1499 -1134 -1204 0
-1502 1137 0
-1502 1204 0
1502 -1137 -1204 0
-1505 1140 0
-1505 1204 0
1505 -1140 -1204 0
-1508 1143 0
-1508 1204 0
1508 -1143 -1204 0
-1511 1146 0
-1511 1204 0
1511 -1146 -1204 0
-1514 1149 0
-1514 1204 0
1514 -1149 -1204 0
-1517 1152 0
-1517 1204 0
1517 -1152 -1204 0
-1520 1155 0
-1520 1204 0
1520 -1155 -1204 0
-1498 1475 0
-1498 1159 0
1498 -1475 -1159 0
-1501 1478 0
-1501 1162 0
1501 -1478 -1162 0
-1504 1481 0
-1504 1165 0
1504 -1481 -1165 0
-1507 1484 0
-1507 1168 0
1507 -1484 -1168 0
-1510 1487 0
-1510 1171 0
1510 -1487 -1171 0
-1513 1490 0
-1513 1174 0
1513 -1490 -1174 0
-1516 1493 0
-1516 1177 0
1516 -1493 -1177 0
-1519 1496 0
-1519 1180 0
1519 -1496 -1180 0
-2011 1952 0
-2011 1204 0
2011 -1952 -1204 0
-2014 1955 0
-2014 1204 0
2014 -1955 -1204 0
-2017 1958 0
-2017 1204 0
2017 -1958 -1204 0
-2020 1961 0
-2020 1204 0
2020 -1961 -1204 0
-2023 1964 0
-2023 1204 0
2023 -1964 -1204 0
-2026 1967 0
-2026 1204 0
2026 -1967 -1204 0
-2029 1970 0
-2029 1204 0
2029 -1970 -1204 0
-2032 1973 0
-2032 1204 0
2032 -1973 -1204 0
-1522 1497 0
-1522 1207 0
1522 -1497 -1207 0
-1257 1497 0
-1257 1474 0
1257 -1497 -1474 0
-1525 1500 0
-1525 1213 0
1525 -1500 -1213 0
-2007 1500 0
-2007 1477 0
2007 -1500 -1477 0
-1528 1503 0
-1528 1219 0
1528 -1503 -1219 0
-1269 1503 0
-1269 1480 0
1269 -1503 -1480 0
-1531 1506 0
-1531 1225 0
1531 -1506 -1225 0
-2037 1506 0
-2037 1483 0
2037 -1506 -1483 0
-1534 1509 0
-1534 1231 0
1534 -1509 -1231 0
-2043 1509 0
-2043 1486 0
2043 -1509 -1486 0
-1537 1512 0
-1537 1237 0
1537 -1512 -1237 0
-1287 1512 0
-1287 1489 0
1287 -1512 -1489 0
-1540 1515 0
-1540 1243 0
1540 -1515 -1243 0
-1293 1515 0
-1293 1492 0
1293 -1515 -1492 0
-1543 1518 0
-1543 1249 0
1543 -1518 -1249 0
-1299 1518 0
-1299 1495 0
1299 -1518 -1495 0
-1523 1254 0
-1523 1474 0
1523 -1254 -1474 0
-1977 1257 0
-1977 1300 0
1977 -1257 -1300 0
-1526 1260 0
-1526 1477 0
1526 -1260 -1477 0
-1980 2007 0
-1980 1300 0
1980 -2007 -1300 0
-1529 1266 0
-1529 1480 0
1529 -1266 -1480 0
-1983 1269 0
-1983 1300 0
1983 -1269 -1300 0
-1532 1272 0
-1532 1483 0
1532 -1272 -1483 0
-1989 2037 0
-1989 1300 0
1989 -2037 -1300 0
-1535 1278 0
-1535 1486 0
1535 -1278 -1486 0
-1992 2043 0
-1992 1300 0
1992 -2043 -1300 0
-1538 1284 0
-1538 1489 0
1538 -1284 -1489 0
-1995 1287 0
-1995 1300 0
1995 -1287 -1300 0
-1541 1290 0
-1541 1492 0
1541 -1290 -1492 0
-1998 1293 0
-1998 1300 0
1998 -1293 -1300 0
-1544 1296 0
-1544 1495 0
1544 -1296 -1495 0
-2001 1299 0
-2001 1300 0
2001 -1299 -1300 0
-1546 1655 0
-1546 1303 0
1546 -1655 -1303 0
-1978 1655 0
-1978 1327 0
1978 -1655 -1327 0
-1981 1524 0
-1981 1327 0
1981 -1524 -1327 0
-1984 1694 0
-1984 1327 0
1984 -1694 -1327 0
-1990 1665 0
-1990 1327 0
1990 -1665 -1327 0
-1993 1672 0
-1993 1327 0
1993 -1672 -1327 0
-1996 1705 0
-1996 1327 0
1996 -1705 -1327 0
-1999 1539 0
-1999 1327 0
1999 -1539 -1327 0
-2002 1542 0
-2002 1327 0
2002 -1542 -1327 0
-2005 1670 0
-2005 1669 0
2005 -1670 -1669 0
-1547 1332 0
-1547 1656 0
1547 -1332 -1656 0
-1553 1335 0
-1553 1668 0
1553 -1335 -1668 0
-2010 1976 0
-2010 1360 0
2010 -1976 -1360 0
-2013 1979 0
-2013 1360 0
2013 -1979 -1360 0
-2016 1982 0
-2016 1360 0
2016 -1982 -1360 0
-2019 1988 0
-2019 1360 0
2019 -1988 -1360 0
-2022 1991 0
-2022 1360 0
2022 -1991 -1360 0
-2025 1994 0
-2025 1360 0
2025 -1994 -1360 0
-2028 1997 0
-2028 1360 0
2028 -1997 -1360 0
-2031 2000 0
-2031 1360 0
2031 -2000 -1360 0
-1552 1524 0
-1552 1363 0
1552 -1524 -1363 0
-1556 1365 0
-1556 1366 0
1556 -1365 -1366 0
-1555 1694 0
-1555 1369 0
1555 -1694 -1369 0
-1559 1371 0
-1559 1725 0
1559 -1371 -1725 0
-2041 1672 0
-2041 2038 0
2041 -1672 -2038 0
-2047 1728 0
-2047 2155 0
2047 -1728 -2155 0
-2049 1728 0
-2049 1921 0
2049 -1728 -1921 0
-2053 1736 0
-2053 1921 0
2053 -1736 -1921 0
-2057 1736 0
-2057 2155 0
2057 -1736 -2155 0
-1562 1389 0
-1562 1739 0
1562 -1389 -1739 0
-1558 1665 0
-1558 1393 0
1558 -1665 -1393 0
-1561 1539 0
-1561 1396 0
1561 -1539 -1396 0
-1568 1398 0
-1568 1399 0
1568 -1398 -1399 0
-1571 1401 0
-1571 1402 0
1571 -1401 -1402 0
-1567 1672 0
-1567 1405 0
1567 -1672 -1405 0
-2059 1754 0
-2059 1921 0
2059 -1754 -1921 0
-2063 1754 0
-2063 2155 0
2063 -1754 -2155 0
-1570 1705 0
-1570 1414 0
1570 -1705 -1414 0
-2065 1763 0
-2065 1921 0
2065 -1763 -1921 0
-2069 1763 0
-2069 2155 0
2069 -1763 -2155 0
-1574 1422 0
-1574 1766 0
1574 -1422 -1766 0
-2071 1769 0
-2071 1921 0
2071 -1769 -1921 0
-2075 1769 0
-2075 2155 0
2075 -1769 -2155 0
-1573 1542 0
-1573 1432 0
1573 -1542 -1432 0
-2077 1781 0
-2077 1921 0
2077 -1781 -1921 0
-2081 1781 0
-2081 2155 0
2081 -1781 -2155 0
-2083 1787 0
-2083 1921 0
2083 -1787 -1921 0
-2087 1787 0
-2087 2155 0
2087 -1787 -2155 0
-2089 1796 0
-2089 1921 0
2089 -1796 -1921 0
-2093 1796 0
-2093 2155 0
2093 -1796 -2155 0
1603 -1576 0
1603 -1577 0
-1603 1576 1577 0
1607 -1594 0
1607 -1632 0
-1607 1594 1632 0
1643 -1612 0
1643 -1848 0
-1643 1612 1848 0
1614 -1601 0
1614 -1462 0
-1614 1601 1462 0
1623 -1831 0
1623 -1584 0
-1623 1831 1584 0
1626 -1881 0
1626 -1886 0
-1626 1881 1886 0
1642 -1634 0
1642 -1639 0
1642 -1598 0
-1642 1634 1639 1598 0
1473 -1474 0
1473 -1475 0
-1473 1474 1475 0
1476 -1477 0
1476 -1478 0
-1476 1477 1478 0
1479 -1480 0
1479 -1481 0
-1479 1480 1481 0
1482 -1483 0
1482 -1484 0
-1482 1483 1484 0
1485 -1486 0
1485 -1487 0
-1485 1486 1487 0
1488 -1489 0
1488 -1490 0
-1488 1489 1490 0
1491 -1492 0
1491 -1493 0
-1491 1492 1493 0
1494 -1495 0
1494 -1496 0
-1494 1495 1496 0
1497 -1498 0
1497 -1499 0
-1497 1498 1499 0
1500 -1501 0
1500 -1502 0
-1500 1501 1502 0
1503 -1504 0
1503 -1505 0
-1503 1504 1505 0
1506 -1507 0
1506 -1508 0
-1506 1507 1508 0
1509 -1510 0
1509 -1511 0
-1509 1510 1511 0
1512 -1513 0
1512 -1514 0
-1512 1513 1514 0
1515 -1516 0
1515 -1517 0
-1515 1516 1517 0
1518 -1519 0
1518 -1520 0
-1518 1519 1520 0
1655 -1522 0
1655 -1523 0
-1655 1522 1523 0
1524 -1525 0
1524 -1526 0
-1524 1525 1526 0
1694 -1528 0
1694 -1529 0
-1694 1528 1529 0
1665 -1531 0
1665 -1532 0
-1665 1531 1532 0
1672 -1534 0
1672 -1535 0
-1672 1534 1535 0
1705 -1537 0
1705 -1538 0
-1705 1537 1538 0
1539 -1540 0
1539 -1541 0
-1539 1540 1541 0
1542 -1543 0
1542 -1544 0
-1542 1543 1544 0
1684 -1546 0
1684 -1547 0
-1684 1546 1547 0
1693 -2007 0
1693 -2008 0
-1693 2007 2008 0
1723 -1552 0
1723 -1553 0
-1723 1552 1553 0
1749 -1555 0
1749 -1556 0
-1749 1555 1556 0
1758 -1558 0
1758 -1559 0
-1758 1558 1559 0
1761 -1561 0
1761 -1562 0
-1761 1561 1562 0
1767 -1564 0
1767 -1565 0
-1767 1564 1565 0
1773 -1567 0
1773 -1568 0
-1773 1567 1568 0
1779 -1570 0
1779 -1571 0
-1779 1570 1571 0
1791 -1573 0
1791 -1574 0
-1791 1573 1574 0
1605 1576 0
1605 1577 0
-1605 -1576 -1577 0
1578 1839 0
1578 1580 0
-1578 -1839 -1580 0
1832 1839 0
1832 1885 0
-1832 -1839 -1885 0
1584 1828 0
1584 1885 0
-1584 -1828 -1885 0
1883 1588 0
1883 1612 0
-1883 -1588 -1612 0
1886 1828 0
1886 1831 0
-1886 -1828 -1831 0
1608 1594 0
1608 1632 0
-1608 -1594 -1632 0
2167 1838 0
2167 1598 0
-2167 -1838 -1598 0
1650 1832 0
1650 1601 0
-1650 -1832 -1601 0
1653 1603 0
1653 1830 0
1653 1605 0
-1653 -1603 -1830 -1605 0
2145 1607 0
2145 1608 0
-2145 -1607 -1608 0
2157 1831 0
2157 1837 0
2157 1612 0
-2157 -1831 -1837 -1612 0
1651 1614 0
1651 1831 0
-1651 -1614 -1831 0
1640 1882 0
1640 1884 0
-1640 -1882 -1884 0
1638 1883 0
1638 1884 0
-1638 -1883 -1884 0
2143 1623 0
2143 1624 0
-2143 -1623 -1624 0
1625 1626 0
1625 1632 0
-1625 -1626 -1632 0
2161 1629 0
2161 1831 0
2161 1828 0
2161 1632 0
-2161 -1629 -1831 -1828 -1632 0
2151 1634 0
2151 1640 0
2151 1638 0
-2151 -1634 -1640 -1638 0
2159 1638 0
2159 1639 0
2159 1640 0
-2159 -1638 -1639 -1640 0
2165 1642 0
2165 1643 0
-2165 -1642 -1643 0
2149 1650 0
2149 1652 0
2149 1651 0
2149 1653 0
-2149 -1650 -1652 -1651 -1653 0
1649 1650 0
1649 1651 0
1649 1652 0
1649 1653 0
-1649 -1650 -1651 -1652 -1653 0
1669 1655 0
1669 1656 0
-1669 -1655 -1656 0
1657 2037 0
1657 1672 0
-1657 -2037 -1672 0
1745 2043 0
1745 1705 0
-1745 -2043 -1705 0
1663 1705 0
1663 1665 0
1663 1672 0
1663 1694 0
-1663 -1705 -1665 -1672 -1694 0
1668 1669 0
1668 1670 0
-1668 -1669 -1670 0
1671 1672 0
1671 2039 0
-1671 -1672 -2039 0
1735 1705 0
1735 2044 0
-1735 -1705 -2044 0
1734 2007 0
1734 1682 0
-1734 -2007 -1682 0
1747 2008 0
1747 1682 0
-1747 -2008 -1682 0
1729 1684 0
1729 1792 0
-1729 -1684 -1792 0
1686 1745 0
1686 1734 0
-1686 -1745 -1734 0
1689 1735 0
1689 1747 0
-1689 -1735 -1747 0
2035 1693 0
2035 1694 0
-2035 -1693 -1694 0
1730 2009 0
1730 1721 0
-1730 -2009 -1721 0
1738 2012 0
1738 1721 0
-1738 -2012 -1721 0
1756 2015 0
1756 1721 0
-1756 -2015 -1721 0
1741 1705 0
1741 2042 0
-1741 -1705 -2042 0
1765 2018 0
1765 1721 0
-1765 -2018 -1721 0
1783 2021 0
1783 1721 0
-1783 -2021 -1721 0
1789 2024 0
1789 1721 0
-1789 -2024 -1721 0
1771 2027 0
1771 1721 0
-1771 -2027 -1721 0
1798 2030 0
1798 1721 0
-1798 -2030 -1721 0
1737 1723 0
1737 1792 0
-1737 -1723 -1792 0
1725 1986 0
1725 2035 0
-1725 -1986 -2035 0
1728 1729 0
1728 1730 0
-1728 -1729 -1730 0
1731 1740 0
1731 1741 0
1731 1734 0
1731 1735 0
-1731 -1740 -1741 -1734 -1735 0
1736 1737 0
1736 1738 0
-1736 -1737 -1738 0
1739 1740 0
1739 1741 0
1739 1742 0
1739 1743 0
-1739 -1740 -1741 -1742 -1743 0
1744 1745 0
1744 1746 0
1744 1747 0
-1744 -1745 -1746 -1747 0
1755 1749 0
1755 1792 0
-1755 -1749 -1792 0
2095 2052 0
2095 2045 0
-2095 -2052 -2045 0
1754 1755 0
1754 1756 0
-1754 -1755 -1756 0
1764 1758 0
1764 1792 0
-1764 -1758 -1792 0
1770 1761 0
1770 1792 0
-1770 -1761 -1792 0
1763 1764 0
1763 1765 0
-1763 -1764 -1765 0
1766 1767 0
1766 1768 0
-1766 -1767 -1768 0
1769 1770 0
1769 1771 0
-1769 -1770 -1771 0
1782 1773 0
1782 1792 0
-1782 -1773 -1792 0
2097 2058 0
2097 2055 0
-2097 -2058 -2055 0
1788 1779 0
1788 1792 0
-1788 -1779 -1792 0
1781 1782 0
1781 1783 0
-1781 -1782 -1783 0
2099 2064 0
2099 2061 0
-2099 -2064 -2061 0
1787 1788 0
1787 1789 0
-1787 -1788 -1789 0
1797 1791 0
1797 1792 0
-1797 -1791 -1792 0
2101 2076 0
2101 2067 0
-2101 -2076 -2067 0
1796 1797 0
1796 1798 0
-1796 -1797 -1798 0
2103 2082 0
2103 2079 0
-2103 -2082 -2079 0
2105 2070 0
2105 2085 0
-2105 -2070 -2085 0
2107 2088 0
2107 2073 0
-2107 -2088 -2073 0
2109 1917 0
2109 2091 0
-2109 -1917 -2091 0
-1811 -1812 0
-1811 -1813 0
-1811 -1814 0
1811 1812 1813 1814 0
-1815 -1816 0
-1815 -1817 0
-1815 -1818 0
1815 1816 1817 1818 0
-1819 -1820 0
-1819 -1821 0
-1819 -1822 0
1819 1820 1821 1822 0
-1823 -1824 0
-1823 -1825 0
-1823 -1826 0
1823 1824 1825 1826 0
-1827 -1828 0
-1827 -1829 0
1827 1828 1829 0
-1830 -1831 0
-1830 -1832 0
1830 1831 1832 0
-1833 -1834 0
-1833 -1835 0
-1833 -1836 0
1833 1834 1835 1836 0
-1837 -1838 0
-1837 -1839 0
-1837 -1882 0
-1837 -1885 0
1837 1838 1839 1882 1885 0
-1842 -1843 0
-1842 -1844 0
-1842 -1845 0
1842 1843 1844 1845 0
-1846 -1882 0
-1846 -1848 0
1846 1882 1848 0
-1849 -1850 0
-1849 -1851 0
-1849 -1852 0
1849 1850 1851 1852 0
-1853 -1854 0
-1853 -1855 0
-1853 -1856 0
1853 1854 1855 1856 0
-1857 -1858 0
-1857 -1859 0
1857 1858 1859 0
-1860 -1861 0
-1860 -1862 0
1860 1861 1862 0
-1863 -1864 0
-1863 -1865 0
1863 1864 1865 0
-1866 -1867 0
-1866 -1868 0
1866 1867 1868 0
-1869 -1870 0
-1869 -1871 0
1869 1870 1871 0
-1872 -1873 0
-1872 -1874 0
1872 1873 1874 0
-1875 -1876 0
-1875 -1877 0
1875 1876 1877 0
-1878 -1879 0
-1878 -1880 0
1878 1879 1880 0
-1881 -1882 0
-1881 -1883 0
1881 1882 1883 0
-1884 -1885 0
-1884 -1886 0
1884 1885 1886 0
-1887 -1888 0
-1887 -1889 0
1887 1888 1889 0
-1890 -1891 0
-1890 -1892 0
1890 1891 1892 0
-1893 -1894 0
-1893 -1895 0
1893 1894 1895 0
-1896 -1897 0
-1896 -1898 0
1896 1897 1898 0
-2153 -1922 0
-2153 -1901 0
2153 1922 1901 0
-1902 -1903 0
-1902 -1904 0
1902 1903 1904 0
-1905 -1906 0
-1905 -1907 0
1905 1906 1907 0
-1908 -1909 0
-1908 -1910 0
1908 1909 1910 0
-1911 -1912 0
-1911 -1913 0
1911 1912 1913 0
-1914 -1915 0
-1914 -1921 0
1914 1915 1921 0
-1917 -1918 0
-1917 -1919 0
1917 1918 1919 0
-1920 -1921 0
-1920 -1922 0
-1920 -2155 0
1920 1921 1922 2155 0
-1924 -1925 0
-1924 -1926 0
-1924 -1927 0
1924 1925 1926 1927 0
-1928 -1929 0
-1928 -1930 0
-1928 -1931 0
1928 1929 1930 1931 0
-1932 -1933 0
-1932 -1934 0
-1932 -1935 0
1932 1933 1934 1935 0
-1936 -1937 0
-1936 -1938 0
-1936 -1939 0
1936 1937 1938 1939 0
-1940 -1941 0
-1940 -1942 0
-1940 -1943 0
1940 1941 1942 1943 0
-1944 -1945 0
-1944 -1946 0
-1944 -1947 0
1944 1945 1946 1947 0
-1948 -1949 0
-1948 -1950 0
-1948 -1951 0
1948 1949 1950 1951 0
-1952 -1953 0
-1952 -1954 0
1952 1953 1954 0
-1955 -1956 0
-1955 -1957 0
1955 1956 1957 0
-1958 -1959 0
-1958 -1960 0
1958 1959 1960 0
-1961 -1962 0
-1961 -1963 0
1961 1962 1963 0
-1964 -1965 0
-1964 -1966 0
1964 1965 1966 0
-1967 -1968 0
-1967 -1969 0
1967 1968 1969 0
-1970 -1971 0
-1970 -1972 0
1970 1971 1972 0
-1973 -1974 0
-1973 -1975 0
1973 1974 1975 0
-1976 -1977 0
-1976 -1978 0
1976 1977 1978 0
-1979 -1980 0
-1979 -1981 0
1979 1980 1981 0
-1982 -1983 0
-1982 -1984 0
1982 1983 1984 0
-2039 -1986 0
-2039 -2034 0
2039 1986 2034 0
-1988 -1989 0
-1988 -1990 0
1988 1989 1990 0
-1991 -1992 0
-1991 -1993 0
1991 1992 1993 0
-1994 -1995 0
-1994 -1996 0
1994 1995 1996 0
-1997 -1998 0
-1997 -1999 0
1997 1998 1999 0
-2000 -2001 0
-2000 -2002 0
2000 2001 2002 0
-2008 -2004 0
-2008 -2005 0
2008 2004 2005 0
-2006 -2007 0
-2006 -2008 0
2006 2007 2008 0
-2009 -2010 0
-2009 -2011 0
2009 2010 2011 0
-2012 -2013 0
-2012 -2014 0
2012 2013 2014 0
-2015 -2016 0
-2015 -2017 0
2015 2016 2017 0
-2018 -2019 0
-2018 -2020 0
2018 2019 2020 0
-2021 -2022 0
-2021 -2023 0
2021 2022 2023 0
-2024 -2025 0
-2024 -2026 0
2024 2025 2026 0
-2027 -2028 0
-2027 -2029 0
2027 2028 2029 0
-2030 -2031 0
-2030 -2032 0
2030 2031 2032 0
-2038 -2034 0
-2038 -2035 0
2038 2034 2035 0
-2036 -2037 0
-2036 -2038 0
-2036 -2039 0
2036 2037 2038 2039 0
-2040 -2041 0
-2040 -2042 0
-2040 -2043 0
-2040 -2044 0
2040 2041 2042 2043 2044 0
-2045 -2046 0
-2045 -2047 0
2045 2046 2047 0
-2048 -2049 0
-2048 -2050 0
-2048 -2051 0
2048 2049 2050 2051 0
-2052 -2053 0
-2052 -2054 0
2052 2053 2054 0
-2055 -2056 0
-2055 -2057 0
2055 2056 2057 0
-2058 -2059 0
-2058 -2060 0
2058 2059 2060 0
-2061 -2062 0
-2061 -2063 0
2061 2062 2063 0
-2064 -2065 0
-2064 -2066 0
2064 2065 2066 0
-2067 -2068 0
-2067 -2069 0
2067 2068 2069 0
-2070 -2071 0
-2070 -2072 0
2070 2071 2072 0
-2073 -2074 0
-2073 -2075 0
2073 2074 2075 0
-2076 -2077 0
-2076 -2078 0
2076 2077 2078 0
-2079 -2080 0
-2079 -2081 0
2079 2080 2081 0
-2082 -2083 0
-2082 -2084 0
2082 2083 2084 0
-2085 -2086 0
-2085 -2087 0
2085 2086 2087 0
-2088 -2089 0
-2088 -2090 0
2088 2089 2090 0
-2091 -2092 0
-2091 -2093 0
2091 2092 2093 0
-2095 2780 0
2095 -2780 0
-2097 2783 0
2097 -2783 0
-2099 2786 0
2099 -2786 0
-2101 2789 0
2101 -2789 0
-2103 2792 0
2103 -2792 0
-2105 2795 0
2105 -2795 0
-2107 2798 0
2107 -2798 0
-2109 2801 0
2109 -2801 0
-2111 3247 0
2111 -3247 0
-2113 2735 0
2113 -2735 0
-2115 2738 0
2115 -2738 0
-2117 2741 0
2117 -2741 0
-2119 2744 0
2119 -2744 0
-2121 2747 0
2121 -2747 0
-2123 2750 0
2123 -2750 0
-2125 2753 0
2125 -2753 0
-2127 2684 0
2127 -2684 0
-2129 2687 0
2129 -2687 0
-2131 2690 0
2131 -2690 0
-2133 2693 0
2133 -2693 0
-2135 2696 0
2135 -2696 0
-2137 2699 0
2137 -2699 0
-2139 2702 0
2139 -2702 0
-2141 3246 0
2141 -3246 0
-2143 3509 0
2143 -3509 0
-2145 3264 0
2145 -3264 0
-2147 3555 0
2147 -3555 0
-2149 3250 0
2149 -3250 0
-2151 3268 0
2151 -3268 0
-2153 2418 0
2153 -2418 0
-2155 2154 0
2155 -2154 0
-2157 2436 0
2157 -2436 0
-2159 2490 0
2159 -2490 0
-2161 2583 0
2161 -2583 0
-2163 2463 0
2163 -2463 0
-2165 2430 0
2165 -2430 0
-2167 2454 0
2167 -2454 0
2633 2582 0
-2633 -2582 0
3309 3247 0
-3309 -3247 0
3558 3250 0
-3558 -3250 0
3498 3509 0
-3498 -3509 0
2607 2556 0
-2607 -2556 0
3282 2179 0
-3282 -2179 0
3501 3264 0
-3501 -3264 0
3302 3555 0
-3302 -3555 0
3508 3258 0
-3508 -3258 0
3518 3268 0
-3518 -3268 0
3271 3275 0
-3271 -3275 0
3132 3248 0
-3132 -3248 0
3294 3497 0
-3294 -3497 0
3304 3500 0
-3304 -3500 0
3833 3516 0
-3833 -3516 0
3797 3527 0
-3797 -3527 0
3799 3530 0
-3799 -3530 0
3801 3533 0
-3801 -3533 0
3803 3536 0
-3803 -3536 0
3805 3539 0
-3805 -3539 0
3807 3542 0
-3807 -3542 0
3809 3545 0
-3809 -3545 0
3811 3548 0
-3811 -3548 0
3299 3551 0
-3299 -3551 0
3322 3557 0
-3322 -3557 0
2225 3560 0
-2225 -3560 0
3817 3295 0
-3817 -3295 0
3391 2225 0
-3391 -2225 0
2231 2225 0
-2231 -2225 0
2658 3563 0
-2658 -3563 0
2235 3566 0
-2235 -3566 0
3462 2231 0
-3462 -2231 0
2970 2235 0
-2970 -2235 0
2277 2235 0
-2277 -2235 0
3591 3572 0
-3591 -3572 0
2706 3575 0
-2706 -3575 0
3326 3578 0
-3326 -3578 0
2285 3578 0
-2285 -3578 0
2877 3144 0
-2877 -3144 0
2708 3144 0
-2708 -3144 0
2883 3147 0
-2883 -3147 0
2711 3147 0
-2711 -3147 0
2889 3150 0
-2889 -3150 0
2714 3150 0
-2714 -3150 0
2895 3153 0
-2895 -3153 0
2717 3153 0
-2717 -3153 0
2901 3156 0
-2901 -3156 0
2720 3156 0
-2720 -3156 0
2907 3159 0
-2907 -3159 0
2723 3159 0
-2723 -3159 0
2913 3162 0
-2913 -3162 0
2726 3162 0
-2726 -3162 0
2919 3165 0
-2919 -3165 0
2729 3165 0
-2729 -3165 0
2997 2277 0
-2997 -2277 0
3825 3581 0
-3825 -3581 0
2973 3326 0
-2973 -3326 0
3030 2285 0
-3030 -2285 0
2303 2285 0
-2303 -2285 0
2804 3145 0
-2804 -3145 0
2807 3148 0
-2807 -3148 0
2810 3151 0
-2810 -3151 0
2813 3154 0
-2813 -3154 0
2816 3157 0
-2816 -3157 0
2819 3160 0
-2819 -3160 0
2822 3163 0
-2822 -3163 0
2825 3166 0
-2825 -3166 0
2874 2303 0
-2874 -2303 0
2829 2874 0
-2829 -2874 0
2832 2874 0
-2832 -2874 0
2835 2874 0
-2835 -2874 0
2838 2874 0
-2838 -2874 0
2841 2874 0
-2841 -2874 0
2844 2874 0
-2844 -2874 0
2847 2874 0
-2847 -2874 0
2850 2874 0
-2850 -2874 0
3781 3594 0
-3781 -3594 0
3783 3598 0
-3783 -3598 0
3785 3602 0
-3785 -3602 0
3787 3606 0
-3787 -3606 0
3789 3610 0
-3789 -3610 0
3791 3614 0
-3791 -3614 0
3793 3618 0
-3793 -3618 0
2924 3167 0
-2924 -3167 0
2930 3170 0
-2930 -3170 0
2936 3173 0
-2936 -3173 0
2942 3176 0
-2942 -3176 0
2948 3179 0
-2948 -3179 0
2954 3182 0
-2954 -3182 0
2960 3185 0
-2960 -3185 0
2966 3188 0
-2966 -3188 0
3340 2927 0
-3340 -2927 0
3656 2939 0
-3656 -2939 0
3410 2957 0
-3410 -2957 0
3438 2963 0
-3438 -2963 0
3002 3325 0
-3002 -3325 0
3674 3194 0
-3674 -3194 0
3005 3194 0
-3005 -3194 0
3035 3364 0
-3035 -3364 0
3704 3335 0
-3704 -3335 0
3041 3335 0
-3041 -3335 0
3068 3342 0
-3068 -3342 0
3071 3375 0
-3071 -3375 0
3234 3209 0
-3234 -3209 0
3059 3209 0
-3059 -3209 0
3092 3212 0
-3092 -3212 0
3714 3327 0
-3714 -3327 0
3352 3333 0
-3352 -3333 0
3033 3338 0
-3033 -3338 0
3712 3341 0
-3712 -3341 0
3036 3676 0
-3036 -3676 0
3412 3356 0
-3412 -3356 0
3039 3036 0
-3039 -3036 0
3413 3359 0
-3413 -3359 0
3063 3395 0
-3063 -3395 0
3416 3401 0
-3416 -3401 0
3066 3409 0
-3066 -3409 0
3069 3706 0
-3069 -3706 0
3072 3710 0
-3072 -3710 0
3075 3069 0
-3075 -3069 0
3795 3718 0
-3795 -3718 0
3235 3414 0
-3235 -3414 0
3084 3072 0
-3084 -3072 0
3102 3436 0
-3102 -3436 0
-3582 2582 0
-3582 2418 0
3582 -2582 -2418 0
-3520 2537 0
-3520 2753 0
3520 -2537 -2753 0
-3730 2561 0
-3730 3592 0
3730 -2561 -3592 0
-3494 2537 0
-3494 3247 0
3494 -2537 -3247 0
-3579 2582 0
-3579 2430 0
3579 -2582 -2430 0
-3513 2537 0
-3513 2744 0
3513 -2537 -2744 0
-3564 2582 0
-3564 2436 0
3564 -2582 -2436 0
-3483 2534 0
-3483 2702 0
3483 -2534 -2702 0
-3521 2534 0
-3521 3246 0
3521 -2534 -3246 0
-3486 2537 0
-3486 2741 0
3486 -2537 -2741 0
-3742 2573 0
-3742 3592 0
3742 -2573 -3592 0
-3505 2534 0
-3505 2699 0
3505 -2534 -2699 0
-3561 2582 0
-3561 2454 0
3561 -2582 -2454 0
-3484 2549 0
-3484 2798 0
3484 -2549 -2798 0
-3515 2549 0
-3515 2792 0
3515 -2549 -2792 0
-3567 2582 0
-3567 2463 0
3567 -2582 -2463 0
-3482 2537 0
-3482 2750 0
3482 -2537 -2750 0
-3754 2570 0
-3754 3592 0
3754 -2570 -3592 0
-3525 2534 0
-3525 2687 0
3525 -2534 -2687 0
-3488 2549 0
-3488 2789 0
3488 -2549 -2789 0
-3736 2564 0
-3736 3592 0
3736 -2564 -3592 0
-3487 2534 0
-3487 2693 0
3487 -2534 -2693 0
-3506 2549 0
-3506 2795 0
3506 -2549 -2795 0
-3492 2549 0
-3492 2786 0
3492 -2549 -2786 0
-3576 2582 0
-3576 2490 0
3576 -2582 -2490 0
-3760 2576 0
-3760 3592 0
3760 -2576 -3592 0
-3496 2549 0
-3496 2780 0
3496 -2549 -2780 0
-3491 2534 0
-3491 2690 0
3491 -2534 -2690 0
-3532 2561 0
-3532 2556 0
3532 -2561 -2556 0
-3535 2564 0
-3535 2556 0
3535 -2564 -2556 0
-3541 2570 0
-3541 2556 0
3541 -2570 -2556 0
-3544 2573 0
-3544 2556 0
3544 -2573 -2556 0
-3547 2576 0
-3547 2556 0
3547 -2576 -2556 0
-3490 2537 0
-3490 2738 0
3490 -2537 -2738 0
-3495 2534 0
-3495 2684 0
3495 -2534 -2684 0
-3499 3264 0
-3499 3555 0
3499 -3264 -3555 0
-3589 2579 0
-3589 3592 0
3589 -2579 -3592 0
-3550 2579 0
-3550 2556 0
3550 -2579 -2556 0
-3504 2537 0
-3504 2747 0
3504 -2537 -2747 0
-3514 2534 0
-3514 2696 0
3514 -2534 -2696 0
-3524 2537 0
-3524 2735 0
3524 -2537 -2735 0
-3724 2558 0
-3724 3592 0
3724 -2558 -3592 0
-3529 2558 0
-3529 2556 0
3529 -2558 -2556 0
-3522 2549 0
-3522 2801 0
3522 -2549 -2801 0
-3526 2549 0
-3526 2783 0
3526 -2549 -2783 0
-3748 2567 0
-3748 3592 0
3748 -2567 -3592 0
-3538 2567 0
-3538 2556 0
3538 -2567 -2556 0
-3596 2558 0
-3596 3585 0
3596 -2558 -3585 0
-3600 2561 0
-3600 3585 0
3600 -2561 -3585 0
-3604 2564 0
-3604 3585 0
3604 -2564 -3585 0
-3608 2567 0
-3608 3585 0
3608 -2567 -3585 0
-3612 2570 0
-3612 3585 0
3612 -2570 -3585 0
-3616 2573 0
-3616 3585 0
3616 -2573 -3585 0
-3620 2576 0
-3620 3585 0
3620 -2576 -3585 0
-3720 2579 0
-3720 3585 0
3720 -2579 -3585 0
-3573 2582 0
-3573 2583 0
3573 -2582 -2583 0
-3528 2684 0
-3528 2607 0
3528 -2684 -2607 0
-3531 2687 0
-3531 2607 0
3531 -2687 -2607 0
-3534 2690 0
-3534 2607 0
3534 -2690 -2607 0
-3537 2693 0
-3537 2607 0
3537 -2693 -2607 0
-3540 2696 0
-3540 2607 0
3540 -2696 -2607 0
-3543 2699 0
-3543 2607 0
3543 -2699 -2607 0
-3546 2702 0
-3546 2607 0
3546 -2702 -2607 0
-3549 3246 0
-3549 2607 0
3549 -3246 -2607 0
-3559 3254 0
-3559 3278 0
3559 -3254 -3278 0
-3562 2633 0
-3562 3837 0
3562 -2633 -3837 0
-3565 2633 0
-3565 3827 0
3565 -2633 -3827 0
-3568 2633 0
-3568 3833 0
3568 -2633 -3833 0
-3571 3310 0
-3571 3308 0
3571 -3310 -3308 0
-3574 2633 0
-3574 3831 0
3574 -2633 -3831 0
-3577 2633 0
-3577 3829 0
3577 -2633 -3829 0
-3580 2633 0
-3580 3835 0
3580 -2633 -3835 0
-3583 2633 0
-3583 3823 0
3583 -2633 -3823 0
-3144 2780 0
-3144 2658 0
3144 -2780 -2658 0
-3147 2783 0
-3147 2658 0
3147 -2783 -2658 0
-3150 2786 0
-3150 2658 0
3150 -2786 -2658 0
-3153 2789 0
-3153 2658 0
3153 -2789 -2658 0
-3156 2792 0
-3156 2658 0
3156 -2792 -2658 0
-3159 2795 0
-3159 2658 0
3159 -2795 -2658 0
-3162 2798 0
-3162 2658 0
3162 -2798 -2658 0
-3165 2801 0
-3165 2658 0
3165 -2801 -2658 0
-3588 3319 0
-3588 3591 0
3588 -3319 -3591 0
-3595 2735 0
-3595 3591 0
3595 -2735 -3591 0
-3599 2738 0
-3599 3591 0
3599 -2738 -3591 0
-3603 2741 0
-3603 3591 0
3603 -2741 -3591 0
-3607 2744 0
-3607 3591 0
3607 -2744 -3591 0
-3611 2747 0
-3611 3591 0
3611 -2747 -3591 0
-3615 2750 0
-3615 3591 0
3615 -2750 -3591 0
-3619 2753 0
-3619 3591 0
3619 -2753 -3591 0
-3145 2684 0
-3145 2706 0
3145 -2684 -2706 0
-3148 2687 0
-3148 2706 0
3148 -2687 -2706 0
-3151 2690 0
-3151 2706 0
3151 -2690 -2706 0
-3154 2693 0
-3154 2706 0
3154 -2693 -2706 0
-3157 2696 0
-3157 2706 0
3157 -2696 -2706 0
-3160 2699 0
-3160 2706 0
3160 -2699 -2706 0
-3163 2702 0
-3163 2706 0
3163 -2702 -2706 0
-3166 3246 0
-3166 2706 0
3166 -3246 -2706 0
-3624 2708 0
-3624 2997 0
3624 -2708 -2997 0
-3627 2711 0
-3627 2997 0
3627 -2711 -2997 0
-3630 2714 0
-3630 2997 0
3630 -2714 -2997 0
-3633 2717 0
-3633 2997 0
3633 -2717 -2997 0
-3636 2720 0
-3636 2997 0
3636 -2720 -2997 0
-3639 2723 0
-3639 2997 0
3639 -2723 -2997 0
-3642 2726 0
-3642 2997 0
3642 -2726 -2997 0
-3645 2729 0
-3645 2997 0
3645 -2729 -2997 0
-3597 3247 0
-3597 3584 0
3597 -3247 -3584 0
-3601 2735 0
-3601 3584 0
3601 -2735 -3584 0
-3605 2738 0
-3605 3584 0
3605 -2738 -3584 0
-3609 2741 0
-3609 3584 0
3609 -2741 -3584 0
-3613 2744 0
-3613 3584 0
3613 -2744 -3584 0
-3617 2747 0
-3617 3584 0
3617 -2747 -3584 0
-3621 2750 0
-3621 3584 0
3621 -2750 -3584 0
-3721 2753 0
-3721 3584 0
3721 -2753 -3584 0
-3623 3143 0
-3623 2970 0
3623 -3143 -2970 0
-3626 3146 0
-3626 2970 0
3626 -3146 -2970 0
-3629 3149 0
-3629 2970 0
3629 -3149 -2970 0
-3632 3152 0
-3632 2970 0
3632 -3152 -2970 0
-3635 3155 0
-3635 2970 0
3635 -3155 -2970 0
-3638 3158 0
-3638 2970 0
3638 -3158 -2970 0
-3641 3161 0
-3641 2970 0
3641 -3161 -2970 0
-3644 3164 0
-3644 2970 0
3644 -3164 -2970 0
-3716 2780 0
-3716 3590 0
3716 -2780 -3590 0
-3726 2783 0
-3726 3590 0
3726 -2783 -3590 0
-3732 2786 0
-3732 3590 0
3732 -2786 -3590 0
-3738 2789 0
-3738 3590 0
3738 -2789 -3590 0
-3750 2792 0
-3750 3590 0
3750 -2792 -3590 0
-3756 2795 0
-3756 3590 0
3756 -2795 -3590 0
-3744 2798 0
-3744 3590 0
3744 -2798 -3590 0
-3762 2801 0
-3762 3590 0
3762 -2801 -3590 0
-3169 2804 0
-3169 2874 0
3169 -2804 -2874 0
-3172 2807 0
-3172 2874 0
3172 -2807 -2874 0
-3175 2810 0
-3175 2874 0
3175 -2810 -2874 0
-3178 2813 0
-3178 2874 0
3178 -2813 -2874 0
-3181 2816 0
-3181 2874 0
3181 -2816 -2874 0
-3184 2819 0
-3184 2874 0
3184 -2819 -2874 0
-3187 2822 0
-3187 2874 0
3187 -2822 -2874 0
-3190 2825 0
-3190 2874 0
3190 -2825 -2874 0
-3168 3145 0
-3168 2829 0
3168 -3145 -2829 0
-3171 3148 0
-3171 2832 0
3171 -3148 -2832 0
-3174 3151 0
-3174 2835 0
3174 -3151 -2835 0
-3177 3154 0
-3177 2838 0
3177 -3154 -2838 0
-3180 3157 0
-3180 2841 0
3180 -3157 -2841 0
-3183 3160 0
-3183 2844 0
3183 -3160 -2844 0
-3186 3163 0
-3186 2847 0
3186 -3163 -2847 0
-3189 3166 0
-3189 2850 0
3189 -3166 -2850 0
-3681 3622 0
-3681 2874 0
3681 -3622 -2874 0
-3684 3625 0
-3684 2874 0
3684 -3625 -2874 0
-3687 3628 0
-3687 2874 0
3687 -3628 -2874 0
-3690 3631 0
-3690 2874 0
3690 -3631 -2874 0
-3693 3634 0
-3693 2874 0
3693 -3634 -2874 0
-3696 3637 0
-3696 2874 0
3696 -3637 -2874 0
-3699 3640 0
-3699 2874 0
3699 -3640 -2874 0
-3702 3643 0
-3702 2874 0
3702 -3643 -2874 0
-3192 3167 0
-3192 2877 0
3192 -3167 -2877 0
-2927 3167 0
-2927 3144 0
2927 -3167 -3144 0
-3195 3170 0
-3195 2883 0
3195 -3170 -2883 0
-3677 3170 0
-3677 3147 0
3677 -3170 -3147 0
-3198 3173 0
-3198 2889 0
3198 -3173 -2889 0
-2939 3173 0
-2939 3150 0
2939 -3173 -3150 0
-3201 3176 0
-3201 2895 0
3201 -3176 -2895 0
-3707 3176 0
-3707 3153 0
3707 -3176 -3153 0
-3204 3179 0
-3204 2901 0
3204 -3179 -2901 0
-3713 3179 0
-3713 3156 0
3713 -3179 -3156 0
-3207 3182 0
-3207 2907 0
3207 -3182 -2907 0
-2957 3182 0
-2957 3159 0
2957 -3182 -3159 0
-3210 3185 0
-3210 2913 0
3210 -3185 -2913 0
-2963 3185 0
-2963 3162 0
2963 -3185 -3162 0
-3213 3188 0
-3213 2919 0
3213 -3188 -2919 0
-2969 3188 0
-2969 3165 0
2969 -3188 -3165 0
-3193 2924 0
-3193 3144 0
3193 -2924 -3144 0
-3647 2927 0
-3647 2970 0
3647 -2927 -2970 0
-3196 2930 0
-3196 3147 0
3196 -2930 -3147 0
-3650 3677 0
-3650 2970 0
3650 -3677 -2970 0
-3199 2936 0
-3199 3150 0
3199 -2936 -3150 0
-3653 2939 0
-3653 2970 0
3653 -2939 -2970 0
-3202 2942 0
-3202 3153 0
3202 -2942 -3153 0
-3659 3707 0
-3659 2970 0
3659 -3707 -2970 0
-3205 2948 0
-3205 3156 0
3205 -2948 -3156 0
-3662 3713 0
-3662 2970 0
3662 -3713 -2970 0
-3208 2954 0
-3208 3159 0
3208 -2954 -3159 0
-3665 2957 0
-3665 2970 0
3665 -2957 -2970 0
-3211 2960 0
-3211 3162 0
3211 -2960 -3162 0
-3668 2963 0
-3668 2970 0
3668 -2963 -2970 0
-3214 2966 0
-3214 3165 0
3214 -2966 -3165 0
-3671 2969 0
-3671 2970 0
3671 -2969 -2970 0
-3216 3325 0
-3216 2973 0
3216 -3325 -2973 0
-3648 3325 0
-3648 2997 0
3648 -3325 -2997 0
-3651 3194 0
-3651 2997 0
3651 -3194 -2997 0
-3654 3364 0
-3654 2997 0
3654 -3364 -2997 0
-3660 3335 0
-3660 2997 0
3660 -3335 -2997 0
-3663 3342 0
-3663 2997 0
3663 -3342 -2997 0
-3666 3375 0
-3666 2997 0
3666 -3375 -2997 0
-3669 3209 0
-3669 2997 0
3669 -3209 -2997 0
-3672 3212 0
-3672 2997 0
3672 -3212 -2997 0
-3675 3340 0
-3675 3339 0
3675 -3340 -3339 0
-3217 3002 0
-3217 3326 0
3217 -3002 -3326 0
-3223 3005 0
-3223 3338 0
3223 -3005 -3338 0
-3680 3646 0
-3680 3030 0
3680 -3646 -3030 0
-3683 3649 0
-3683 3030 0
3683 -3649 -3030 0
-3686 3652 0
-3686 3030 0
3686 -3652 -3030 0
-3689 3658 0
-3689 3030 0
3689 -3658 -3030 0
-3692 3661 0
-3692 3030 0
3692 -3661 -3030 0
-3695 3664 0
-3695 3030 0
3695 -3664 -3030 0
-3698 3667 0
-3698 3030 0
3698 -3667 -3030 0
-3701 3670 0
-3701 3030 0
3701 -3670 -3030 0
-3222 3194 0
-3222 3033 0
3222 -3194 -3033 0
-3226 3035 0
-3226 3036 0
3226 -3035 -3036 0
-3225 3364 0
-3225 3039 0
3225 -3364 -3039 0
-3229 3041 0
-3229 3395 0
3229 -3041 -3395 0
-3711 3342 0
-3711 3708 0
3711 -3342 -3708 0
-3717 3398 0
-3717 3825 0
3717 -3398 -3825 0
-3719 3398 0
-3719 3591 0
3719 -3398 -3591 0
-3723 3406 0
-3723 3591 0
3723 -3406 -3591 0
-3727 3406 0
-3727 3825 0
3727 -3406 -3825 0
-3232 3059 0
-3232 3409 0
3232 -3059 -3409 0
-3228 3335 0
-3228 3063 0
3228 -3335 -3063 0
-3231 3209 0
-3231 3066 0
3231 -3209 -3066 0
-3238 3068 0
-3238 3069 0
3238 -3068 -3069 0
-3241 3071 0
-3241 3072 0
3241 -3071 -3072 0
-3237 3342 0
-3237 3075 0
3237 -3342 -3075 0
-3729 3424 0
-3729 3591 0
3729 -3424 -3591 0
-3733 3424 0
-3733 3825 0
3733 -3424 -3825 0
-3240 3375 0
-3240 3084 0
3240 -3375 -3084 0
-3735 3433 0
-3735 3591 0
3735 -3433 -3591 0
-3739 3433 0
-3739 3825 0
3739 -3433 -3825 0
-3244 3092 0
-3244 3436 0
3244 -3092 -3436 0
-3741 3439 0
-3741 3591 0
3741 -3439 -3591 0
-3745 3439 0
-3745 3825 0
3745 -3439 -3825 0
-3243 3212 0
-3243 3102 0
3243 -3212 -3102 0
-3747 3451 0
-3747 3591 0
3747 -3451 -3591 0
-3751 3451 0
-3751 3825 0
3751 -3451 -3825 0
-3753 3457 0
-3753 3591 0
3753 -3457 -3591 0
-3757 3457 0
-3757 3825 0
3757 -3457 -3825 0
-3759 3466 0
-3759 3591 0
3759 -3466 -3591 0
-3763 3466 0
-3763 3825 0
3763 -3466 -3825 0
3273 -3246 0
3273 -3247 0
-3273 3246 3247 0
3277 -3264 0
3277 -3302 0
-3277 3264 3302 0
3313 -3282 0
3313 -3518 0
-3313 3282 3518 0
3284 -3271 0
3284 -3132 0
-3284 3271 3132 0
3293 -3501 0
3293 -3254 0
-3293 3501 3254 0
3296 -3551 0
3296 -3556 0
-3296 3551 3556 0
3312 -3304 0
3312 -3309 0
3312 -3268 0
-3312 3304 3309 3268 0
3143 -3144 0
3143 -3145 0
-3143 3144 3145 0
3146 -3147 0
3146 -3148 0
-3146 3147 3148 0
3149 -3150 0
3149 -3151 0
-3149 3150 3151 0
3152 -3153 0
3152 -3154 0
-3152 3153 3154 0
3155 -3156 0
3155 -3157 0
-3155 3156 3157 0
3158 -3159 0
3158 -3160 0
-3158 3159 3160 0
3161 -3162 0
3161 -3163 0
-3161 3162 3163 0
3164 -3165 0
3164 -3166 0
-3164 3165 3166 0
3167 -3168 0
3167 -3169 0
-3167 3168 3169 0
3170 -3171 0
3170 -3172 0
-3170 3171 3172 0
3173 -3174 0
3173 -3175 0
-3173 3174 3175 0
3176 -3177 0
3176 -3178 0
-3176 3177 3178 0
3179 -3180 0
3179 -3181 0
-3179 3180 3181 0
3182 -3183 0
3182 -3184 0
-3182 3183 3184 0
3185 -3186 0
3185 -3187 0
-3185 3186 3187 0
3188 -3189 0
3188 -3190 0
-3188 3189 3190 0
3325 -3192 0
3325 -3193 0
-3325 3192 3193 0
3194 -3195 0
3194 -3196 0
-3194 3195 3196 0
3364 -3198 0
3364 -3199 0
-3364 3198 3199 0
3335 -3201 0
3335 -3202 0
-3335 3201 3202 0
3342 -3204 0
3342 -3205 0
-3342 3204 3205 0
3375 -3207 0
3375 -3208 0
-3375 3207 3208 0
3209 -3210 0
3209 -3211 0
-3209 3210 3211 0
3212 -3213 0
3212 -3214 0
-3212 3213 3214 0
3354 -3216 0
3354 -3217 0
-3354 3216 3217 0
3363 -3677 0
3363 -3678 0
-3363 3677 3678 0
3393 -3222 0
3393 -3223 0
-3393 3222 3223 0
3419 -3225 0
3419 -3226 0
-3419 3225 3226 0
3428 -3228 0
3428 -3229 0
-3428 3228 3229 0
3431 -3231 0
3431 -3232 0
-3431 3231 3232 0
3437 -3234 0
3437 -3235 0
-3437 3234 3235 0
3443 -3237 0
3443 -3238 0
-3443 3237 3238 0
3449 -3240 0
3449 -3241 0
-3449 3240 3241 0
3461 -3243 0
3461 -3244 0
-3461 3243 3244 0
3275 3246 0
3275 3247 0
-3275 -3246 -3247 0
3248 3509 0
3248 3250 0
-3248 -3509 -3250 0
3502 3509 0
3502 3555 0
-3502 -3509 -3555 0
3254 3498 0
3254 3555 0
-3254 -3498 -3555 0
3553 3258 0
3553 3282 0
-3553 -3258 -3282 0
3556 3498 0
3556 3501 0
-3556 -3498 -3501 0
3278 3264 0
3278 3302 0
-3278 -3264 -3302 0
3837 3508 0
3837 3268 0
-3837 -3508 -3268 0
3320 3502 0
3320 3271 0
-3320 -3502 -3271 0
3323 3273 0
3323 3500 0
3323 3275 0
-3323 -3273 -3500 -3275 0
3815 3277 0
3815 3278 0
-3815 -3277 -3278 0
3827 3501 0
3827 3507 0
3827 3282 0
-3827 -3501 -3507 -3282 0
3321 3284 0
3321 3501 0
-3321 -3284 -3501 0
3310 3552 0
3310 3554 0
-3310 -3552 -3554 0
3308 3553 0
3308 3554 0
-3308 -3553 -3554 0
3813 3293 0
3813 3294 0
-3813 -3293 -3294 0
3295 3296 0
3295 3302 0
-3295 -3296 -3302 0
3831 3299 0
3831 3501 0
3831 3498 0
3831 3302 0
-3831 -3299 -3501 -3498 -3302 0
3821 3304 0
3821 3310 0
3821 3308 0
-3821 -3304 -3310 -3308 0
3829 3308 0
3829 3309 0
3829 3310 0
-3829 -3308 -3309 -3310 0
3835 3312 0
3835 3313 0
-3835 -3312 -3313 0
3819 3320 0
3819 3322 0
3819 3321 0
3819 3323 0
-3819 -3320 -3322 -3321 -3323 0
3319 3320 0
3319 3321 0
3319 3322 0
3319 3323 0
-3319 -3320 -3321 -3322 -3323 0
3339 3325 0
3339 3326 0
-3339 -3325 -3326 0
3327 3707 0
3327 3342 0
-3327 -3707 -3342 0
3415 3713 0
3415 3375 0
-3415 -3713 -3375 0
3333 3375 0
3333 3335 0
3333 3342 0
3333 3364 0
-3333 -3375 -3335 -3342 -3364 0
3338 3339 0
3338 3340 0
-3338 -3339 -3340 0
3341 3342 0
3341 3709 0
-3341 -3342 -3709 0
3405 3375 0
3405 3714 0
-3405 -3375 -3714 0
3404 3677 0
3404 3352 0
-3404 -3677 -3352 0
3417 3678 0
3417 3352 0
-3417 -3678 -3352 0
3399 3354 0
3399 3462 0
-3399 -3354 -3462 0
3356 3415 0
3356 3404 0
-3356 -3415 -3404 0
3359 3405 0
3359 3417 0
-3359 -3405 -3417 0
3705 3363 0
3705 3364 0
-3705 -3363 -3364 0
3400 3679 0
3400 3391 0
-3400 -3679 -3391 0
3408 3682 0
3408 3391 0
-3408 -3682 -3391 0
3426 3685 0
3426 3391 0
-3426 -3685 -3391 0
3411 3375 0
3411 3712 0
-3411 -3375 -3712 0
3435 3688 0
3435 3391 0
-3435 -3688 -3391 0
3453 3691 0
3453 3391 0
-3453 -3691 -3391 0
3459 3694 0
3459 3391 0
-3459 -3694 -3391 0
3441 3697 0
3441 3391 0
-3441 -3697 -3391 0
3468 3700 0
3468 3391 0
-3468 -3700 -3391 0
3407 3393 0
3407 3462 0
-3407 -3393 -3462 0
3395 3656 0
3395 3705 0
-3395 -3656 -3705 0
3398 3399 0
3398 3400 0
-3398 -3399 -3400 0
3401 3410 0
3401 3411 0
3401 3404 0
3401 3405 0
-3401 -3410 -3411 -3404 -3405 0
3406 3407 0
3406 3408 0
-3406 -3407 -3408 0
3409 3410 0
3409 3411 0
3409 3412 0
3409 3413 0
-3409 -3410 -3411 -3412 -3413 0
3414 3415 0
3414 3416 0
3414 3417 0
-3414 -3415 -3416 -3417 0
3425 3419 0
3425 3462 0
-3425 -3419 -3462 0
3765 3722 0
3765 3715 0
-3765 -3722 -3715 0
3424 3425 0
3424 3426 0
-3424 -3425 -3426 0
3434 3428 0
3434 3462 0
-3434 -3428 -3462 0
3440 3431 0
3440 3462 0
-3440 -3431 -3462 0
3433 3434 0
3433 3435 0
-3433 -3434 -3435 0
3436 3437 0
3436 3438 0
-3436 -3437 -3438 0
3439 3440 0
3439 3441 0
-3439 -3440 -3441 0
3452 3443 0
3452 3462 0
-3452 -3443 -3462 0
3767 3728 0
3767 3725 0
-3767 -3728 -3725 0
3458 3449 0
3458 3462 0
-3458 -3449 -3462 0
3451 3452 0
3451 3453 0
-3451 -3452 -3453 0
3769 3734 0
3769 3731 0
-3769 -3734 -3731 0
3457 3458 0
3457 3459 0
-3457 -3458 -3459 0
3467 3461 0
3467 3462 0
-3467 -3461 -3462 0
3771 3746 0
3771 3737 0
-3771 -3746 -3737 0
3466 3467 0
3466 3468 0
-3466 -3467 -3468 0
3773 3752 0
3773 3749 0
-3773 -3752 -3749 0
3775 3740 0
3775 3755 0
-3775 -3740 -3755 0
3777 3758 0
3777 3743 0
-3777 -3758 -3743 0
3779 3587 0
3779 3761 0
-3779 -3587 -3761 0
-3481 -3482 0
-3481 -3483 0
-3481 -3484 0
3481 3482 3483 3484 0
-3485 -3486 0
-3485 -3487 0
-3485 -3488 0
3485 3486 3487 3488 0
-3489 -3490 0
-3489 -3491 0
-3489 -3492 0
3489 3490 3491 3492 0
-3493 -3494 0
-3493 -3495 0
-3493 -3496 0
3493 3494 3495 3496 0
-3497 -3498 0
-3497 -3499 0
3497 3498 3499 0
-3500 -3501 0
-3500 -3502 0
3500 3501 3502 0
-3503 -3504 0
-3503 -3505 0
-3503 -3506 0
3503 3504 3505 3506 0
-3507 -3508 0
-3507 -3509 0
-3507 -3552 0
-3507 -3555 0
3507 3508 3509 3552 3555 0
-3512 -3513 0
-3512 -3514 0
-3512 -3515 0
3512 3513 3514 3515 0
-3516 -3552 0
-3516 -3518 0
3516 3552 3518 0
-3519 -3520 0
-3519 -3521 0
-3519 -3522 0
3519 3520 3521 3522 0
-3523 -3524 0
-3523 -3525 0
-3523 -3526 0
3523 3524 3525 3526 0
-3527 -3528 0
-3527 -3529 0
3527 3528 3529 0
-3530 -3531 0
-3530 -3532 0
3530 3531 3532 0
-3533 -3534 0
-3533 -3535 0
3533 3534 3535 0
-3536 -3537 0
-3536 -3538 0
3536 3537 3538 0
-3539 -3540 0
-3539 -3541 0
3539 3540 3541 0
-3542 -3543 0
-3542 -3544 0
3542 3543 3544 0
-3545 -3546 0
-3545 -3547 0
3545 3546 3547 0
-3548 -3549 0
-3548 -3550 0
3548 3549 3550 0
-3551 -3552 0
-3551 -3553 0
3551 3552 3553 0
-3554 -3555 0
-3554 -3556 0
3554 3555 3556 0
-3557 -3558 0
-3557 -3559 0
3557 3558 3559 0
-3560 -3561 0
-3560 -3562 0
3560 3561 3562 0
-3563 -3564 0
-3563 -3565 0
3563 3564 3565 0
-3566 -3567 0
-3566 -3568 0
3566 3567 3568 0
-3823 -3592 0
-3823 -3571 0
3823 3592 3571 0
-3572 -3573 0
-3572 -3574 0
3572 3573 3574 0
-3575 -3576 0
-3575 -3577 0
3575 3576 3577 0
-3578 -3579 0
-3578 -3580 0
3578 3579 3580 0
-3581 -3582 0
-3581 -3583 0
3581 3582 3583 0
-3584 -3585 0
-3584 -3591 0
3584 3585 3591 0
-3587 -3588 0
-3587 -3589 0
3587 3588 3589 0
-3590 -3591 0
-3590 -3592 0
-3590 -3825 0
3590 3591 3592 3825 0
-3594 -3595 0
-3594 -3596 0
-3594 -3597 0
3594 3595 3596 3597 0
-3598 -3599 0
-3598 -3600 0
-3598 -3601 0
3598 3599 3600 3601 0
-3602 -3603 0
-3602 -3604 0
-3602 -3605 0
3602 3603 3604 3605 0
-3606 -3607 0
-3606 -3608 0
-3606 -3609 0
3606 3607 3608 3609 0
-3610 -3611 0
-3610 -3612 0
-3610 -3613 0
3610 3611 3612 3613 0
-3614 -3615 0
-3614 -3616 0
-3614 -3617 0
3614 3615 3616 3617 0
-3618 -3619 0
-3618 -3620 0
-3618 -3621 0
3618 3619 3620 3621 0
-3622 -3623 0
-3622 -3624 0
3622 3623 3624 0
-3625 -3626 0
-3625 -3627 0
3625 3626 3627 0
-3628 -3629 0
-3628 -3630 0
3628 3629 3630 0
-3631 -3632 0
-3631 -3633 0
3631 3632 3633 0
-3634 -3635 0
-3634 -3636 0
3634 3635 3636 0
-3637 -3638 0
-3637 -3639 0
3637 3638 3639 0
-3640 -3641 0
-3640 -3642 0
3640 3641 3642 0
-3643 -3644 0
-3643 -3645 0
3643 3644 3645 0
-3646 -3647 0
-3646 -3648 0
3646 3647 3648 0
-3649 -3650 0
-3649 -3651 0
3649 3650 3651 0
-3652 -3653 0
-3652 -3654 0
3652 3653 3654 0
-3709 -3656 0
-3709 -3704 0
3709 3656 3704 0
-3658 -3659 0
-3658 -3660 0
3658 3659 3660 0
-3661 -3662 0
-3661 -3663 0
3661 3662 3663 0
-3664 -3665 0
-3664 -3666 0
3664 3665 3666 0
-3667 -3668 0
-3667 -3669 0
3667 3668 3669 0
-3670 -3671 0
-3670 -3672 0
3670 3671 3672 0
-3678 -3674 0
-3678 -3675 0
3678 3674 3675 0
-3676 -3677 0
-3676 -3678 0
3676 3677 3678 0
-3679 -3680 0
-3679 -3681 0
3679 3680 3681 0
-3682 -3683 0
-3682 -3684 0
3682 3683 3684 0
-3685 -3686 0
-3685 -3687 0
3685 3686 3687 0
-3688 -3689 0
-3688 -3690 0
3688 3689 3690 0
-3691 -3692 0
-3691 -3693 0
3691 3692 3693 0
-3694 -3695 0
-3694 -3696 0
3694 3695 3696 0
-3697 -3698 0
-3697 -3699 0
3697 3698 3699 0
-3700 -3701 0
-3700 -3702 0
3700 3701 3702 0
-3708 -3704 0
-3708 -3705 0
3708 3704 3705 0
-3706 -3707 0
-3706 -3708 0
-3706 -3709 0
3706 3707 3708 3709 0
-3710 -3711 0
-3710 -3712 0
-3710 -3713 0
-3710 -3714 0
3710 3711 3712 3713 3714 0
-3715 -3716 0
-3715 -3717 0
3715 3716 3717 0
-3718 -3719 0
-3718 -3720 0
-3718 -3721 0
3718 3719 3720 3721 0
-3722 -3723 0
-3722 -3724 0
3722 3723 3724 0
-3725 -3726 0
-3725 -3727 0
3725 3726 3727 0
-3728 -3729 0
-3728 -3730 0
3728 3729 3730 0
-3731 -3732 0
-3731 -3733 0
3731 3732 3733 0
-3734 -3735 0
-3734 -3736 0
3734 3735 3736 0
-3737 -3738 0
-3737 -3739 0
3737 3738 3739 0
-3740 -3741 0
-3740 -3742 0
3740 3741 3742 0
-3743 -3744 0
-3743 -3745 0
3743 3744 3745 0
-3746 -3747 0
-3746 -3748 0
3746 3747 3748 0
-3749 -3750 0
-3749 -3751 0
3749 3750 3751 0
-3752 -3753 0
-3752 -3754 0
3752 3753 3754 0
-3755 -3756 0
-3755 -3757 0
3755 3756 3757 0
-3758 -3759 0
-3758 -3760 0
3758 3759 3760 0
-3761 -3762 0
-3761 -3763 0
3761 3762 3763 0
-3765 4450 0
3765 -4450 0
-3767 4453 0
3767 -4453 0
-3769 4456 0
3769 -4456 0
-3771 4459 0
3771 -4459 0
-3773 4462 0
3773 -4462 0
-3775 4465 0
3775 -4465 0
-3777 4468 0
3777 -4468 0
-3779 4471 0
3779 -4471 0
-3781 4917 0
3781 -4917 0
-3783 4405 0
3783 -4405 0
-3785 4408 0
3785 -4408 0
-3787 4411 0
3787 -4411 0
-3789 4414 0
3789 -4414 0
-3791 4417 0
3791 -4417 0
-3793 4420 0
3793 -4420 0
-3795 4423 0
3795 -4423 0
-3797 4354 0
3797 -4354 0
-3799 4357 0
3799 -4357 0
-3801 4360 0
3801 -4360 0
-3803 4363 0
3803 -4363 0
-3805 4366 0
3805 -4366 0
-3807 4369 0
3807 -4369 0
-3809 4372 0
3809 -4372 0
-3811 4916 0
3811 -4916 0
-3813 5179 0
3813 -5179 0
-3815 4934 0
3815 -4934 0
-3817 5225 0
3817 -5225 0
-3819 4920 0
3819 -4920 0
-3821 4938 0
3821 -4938 0
-3823 4088 0
3823 -4088 0
-3825 3824 0
3825 -3824 0
-3827 4106 0
3827 -4106 0
-3829 4160 0
3829 -4160 0
-3831 4253 0
3831 -4253 0
-3833 4133 0
3833 -4133 0
-3835 4100 0
3835 -4100 0
-3837 4124 0
3837 -4124 0
4303 4252 0
-4303 -4252 0
4979 4917 0
-4979 -4917 0
5228 4920 0
-5228 -4920 0
5168 5179 0
-5168 -5179 0
4277 4226 0
-4277 -4226 0
4952 3849 0
-4952 -3849 0
5171 4934 0
-5171 -4934 0
4972 5225 0
-4972 -5225 0
5178 4928 0
-5178 -4928 0
5188 4938 0
-5188 -4938 0
4941 4945 0
-4941 -4945 0
4802 4918 0
-4802 -4918 0
4964 5167 0
-4964 -5167 0
4974 5170 0
-4974 -5170 0
5503 5186 0
-5503 -5186 0
5467 5197 0
-5467 -5197 0
5469 5200 0
-5469 -5200 0
5471 5203 0
-5471 -5203 0
5473 5206 0
-5473 -5206 0
5475 5209 0
-5475 -5209 0
5477 5212 0
-5477 -5212 0
5479 5215 0
-5479 -5215 0
5481 5218 0
-5481 -5218 0
4969 5221 0
-4969 -5221 0
4992 5227 0
-4992 -5227 0
3895 5230 0
-3895 -5230 0
5487 4965 0
-5487 -4965 0
5061 3895 0
-5061 -3895 0
3901 3895 0
-3901 -3895 0
4328 5233 0
-4328 -5233 0
3905 5236 0
-3905 -5236 0
5132 3901 0
-5132 -3901 0
4640 3905 0
-4640 -3905 0
3947 3905 0
-3947 -3905 0
5261 5242 0
-5261 -5242 0
4376 5245 0
-4376 -5245 0
4996 5248 0
-4996 -5248 0
3955 5248 0
-3955 -5248 0
4547 4814 0
-4547 -4814 0
4378 4814 0
-4378 -4814 0
4553 4817 0
-4553 -4817 0
4381 4817 0
-4381 -4817 0
4559 4820 0
-4559 -4820 0
4384 4820 0
-4384 -4820 0
4565 4823 0
-4565 -4823 0
4387 4823 0
-4387 -4823 0
4571 4826 0
-4571 -4826 0
4390 4826 0
-4390 -4826 0
4577 4829 0
-4577 -4829 0
4393 4829 0
-4393 -4829 0
4583 4832 0
-4583 -4832 0
4396 4832 0
-4396 -4832 0
4589 4835 0
-4589 -4835 0
4399 4835 0
-4399 -4835 0
4667 3947 0
-4667 -3947 0
5495 5251 0
-5495 -5251 0
4643 4996 0
-4643 -4996 0
4700 3955 0
-4700 -3955 0
3973 3955 0
-3973 -3955 0
4474 4815 0
-4474 -4815 0
4477 4818 0
-4477 -4818 0
4480 4821 0
-4480 -4821 0
4483 4824 0
-4483 -4824 0
4486 4827 0
-4486 -4827 0
4489 4830 0
-4489 -4830 0
4492 4833 0
-4492 -4833 0
4495 4836 0
-4495 -4836 0
4544 3973 0
-4544 -3973 0
4499 4544 0
-4499 -4544 0
4502 4544 0
-4502 -4544 0
4505 4544 0
-4505 -4544 0
4508 4544 0
-4508 -4544 0
4511 4544 0
-4511 -4544 0
4514 4544 0
-4514 -4544 0
4517 4544 0
-4517 -4544 0
4520 4544 0
-4520 -4544 0
5451 5264 0
-5451 -5264 0
5453 5268 0
-5453 -5268 0
5455 5272 0
-5455 -5272 0
5457 5276 0
-5457 -5276 0
5459 5280 0
-5459 -5280 0
5461 5284 0
-5461 -5284 0
5463 5288 0
-5463 -5288 0
4594 4837 0
-4594 -4837 0
4600 4840 0
-4600 -4840 0
4606 4843 0
-4606 -4843 0
4612 4846 0
-4612 -4846 0
4618 4849 0
-4618 -4849 0
4624 4852 0
-4624 -4852 0
4630 4855 0
-4630 -4855 0
4636 4858 0
-4636 -4858 0
5010 4597 0
-5010 -4597 0
5326 4609 0
-5326 -4609 0
5080 4627 0
-5080 -4627 0
5108 4633 0
-5108 -4633 0
4672 4995 0
-4672 -4995 0
5344 4864 0
-5344 -4864 0
4675 4864 0
-4675 -4864 0
4705 5034 0
-4705 -5034 0
5374 5005 0
-5374 -5005 0
4711 5005 0
-4711 -5005 0
4738 5012 0
-4738 -5012 0
4741 5045 0
-4741 -5045 0
4904 4879 0
-4904 -4879 0
4729 4879 0
-4729 -4879 0
4762 4882 0
-4762 -4882 0
5384 4997 0
-5384 -4997 0
5022 5003 0
-5022 -5003 0
4703 5008 0
-4703 -5008 0
5382 5011 0
-5382 -5011 0
4706 5346 0
-4706 -5346 0
5082 5026 0
-5082 -5026 0
4709 4706 0
-4709 -4706 0
5083 5029 0
-5083 -5029 0
4733 5065 0
-4733 -5065 0
5086 5071 0
-5086 -5071 0
4736 5079 0
-4736 -5079 0
4739 5376 0
-4739 -5376 0
4742 5380 0
-4742 -5380 0
4745 4739 0
-4745 -4739 0
5465 5388 0
-5465 -5388 0
4905 5084 0
-4905 -5084 0
4754 4742 0
-4754 -4742 0
4772 5106 0
-4772 -5106 0
-5252 4252 0
-5252 4088 0
5252 -4252 -4088 0
-5190 4207 0
-5190 4423 0
5190 -4207 -4423 0
-5400 4231 0
-5400 5262 0
5400 -4231 -5262 0
-5164 4207 0
-5164 4917 0
5164 -4207 -4917 0
-5249 4252 0
-5249 4100 0
5249 -4252 -4100 0
-5183 4207 0
-5183 4414 0
5183 -4207 -4414 0
-5234 4252 0
-5234 4106 0
5234 -4252 -4106 0
-5153 4204 0
-5153 4372 0
5153 -4204 -4372 0
-5191 4204 0
-5191 4916 0
5191 -4204 -4916 0
-5156 4207 0
-5156 4411 0
5156 -4207 -4411 0
-5412 4243 0
-5412 5262 0
5412 -4243 -5262 0
-5175 4204 0
-5175 4369 0
5175 -4204 -4369 0
-5231 4252 0
-5231 4124 0
5231 -4252 -4124 0
-5154 4219 0
-5154 4468 0
5154 -4219 -4468 0
-5185 4219 0
-5185 4462 0
5185 -4219 -4462 0
-5237 4252 0
-5237 4133 0
5237 -4252 -4133 0
-5152 4207 0
-5152 4420 0
5152 -4207 -4420 0
-5424 4240 0
-5424 5262 0
5424 -4240 -5262 0
-5195 4204 0
-5195 4357 0
5195 -4204 -4357 0
-5158 4219 0
-5158 4459 0
5158 -4219 -4459 0
-5406 4234 0
-5406 5262 0
5406 -4234 -5262 0
-5157 4204 0
-5157 4363 0
5157 -4204 -4363 0
-5176 4219 0
-5176 4465 0
5176 -4219 -4465 0
-5162 4219 0
-5162 4456 0
5162 -4219 -4456 0
-5246 4252 0
-5246 4160 0
5246 -4252 -4160 0
-5430 4246 0
-5430 5262 0
5430 -4246 -5262 0
-5166 4219 0
-5166 4450 0
5166 -4219 -4450 0
-5161 4204 0
-5161 4360 0
5161 -4204 -4360 0
-5202 4231 0
-5202 4226 0
5202 -4231 -4226 0
-5205 4234 0
-5205 4226 0
5205 -4234 -4226 0
-5211 4240 0
-5211 4226 0
5211 -4240 -4226 0
-5214 4243 0
-5214 4226 0
5214 -4243 -4226 0
-5217 4246 0
-5217 4226 0
5217 -4246 -4226 0
-5160 4207 0
-5160 4408 0
5160 -4207 -4408 0
-5165 4204 0
-5165 4354 0
5165 -4204 -4354 0
-5169 4934 0
-5169 5225 0
5169 -4934 -5225 0
-5259 4249 0
-5259 5262 0
5259 -4249 -5262 0
-5220 4249 0
-5220 4226 0
5220 -4249 -4226 0
-5174 4207 0
-5174 4417 0
5174 -4207 -4417 0
-5184 4204 0
-5184 4366 0
5184 -4204 -4366 0
-5194 4207 0
-5194 4405 0
5194 -4207 -4405 0
-5394 4228 0
-5394 5262 0
5394 -4228 -5262 0
-5199 4228 0
-5199 4226 0
5199 -4228 -4226 0
-5192 4219 0
-5192 4471 0
5192 -4219 -4471 0
-5196 4219 0
-5196 4453 0
5196 -4219 -4453 0
-5418 4237 0
-5418 5262 0
5418 -4237 -5262 0
-5208 4237 0
-5208 4226 0
5208 -4237 -4226 0
-5266 4228 0
-5266 5255 0
5266 -4228 -5255 0
-5270 4231 0
-5270 5255 0
5270 -4231 -5255 0
-5274 4234 0
-5274 5255 0
5274 -4234 -5255 0
-5278 4237 0
-5278 5255 0
5278 -4237 -5255 0
-5282 4240 0
-5282 5255 0
5282 -4240 -5255 0
-5286 4243 0
-5286 5255 0
5286 -4243 -5255 0
-5290 4246 0
-5290 5255 0
5290 -4246 -5255 0
-5390 4249 0
-5390 5255 0
5390 -4249 -5255 0
-5243 4252 0
-5243 4253 0
5243 -4252 -4253 0
-5198 4354 0
-5198 4277 0
5198 -4354 -4277 0
-5201 4357 0
-5201 4277 0
5201 -4357 -4277 0
-5204 4360 0
-5204 4277 0
5204 -4360 -4277 0
-5207 4363 0
-5207 4277 0
5207 -4363 -4277 0
-5210 4366 0
-5210 4277 0
5210 -4366 -4277 0
-5213 4369 0
-5213 4277 0
5213 -4369 -4277 0
-5216 4372 0
-5216 4277 0
5216 -4372 -4277 0
-5219 4916 0
-5219 4277 0
5219 -4916 -4277 0
-5229 4924 0
-5229 4948 0
5229 -4924 -4948 0
-5232 4303 0
-5232 5507 0
5232 -4303 -5507 0
-5235 4303 0
-5235 5497 0
5235 -4303 -5497 0
-5238 4303 0
-5238 5503 0
5238 -4303 -5503 0
-5241 4980 0
-5241 4978 0
5241 -4980 -4978 0
-5244 4303 0
-5244 5501 0
5244 -4303 -5501 0
-5247 4303 0
-5247 5499 0
5247 -4303 -5499 0
-5250 4303 0
-5250 5505 0
5250 -4303 -5505 0
-5253 4303 0
-5253 5493 0
5253 -4303 -5493 0
-4814 4450 0
-4814 4328 0
4814 -4450 -4328 0
-4817 4453 0
-4817 4328 0
4817 -4453 -4328 0
-4820 4456 0
-4820 4328 0
4820 -4456 -4328 0
-4823 4459 0
-4823 4328 0
4823 -4459 -4328 0
-4826 4462 0
-4826 4328 0
4826 -4462 -4328 0
-4829 4465 0
-4829 4328 0
4829 -4465 -4328 0
-4832 4468 0
-4832 4328 0
4832 -4468 -4328 0
-4835 4471 0
-4835 4328 0
4835 -4471 -4328 0
-5258 4989 0
-5258 5261 0
5258 -4989 -5261 0
-5265 4405 0
-5265 5261 0
5265 -4405 -5261 0
-5269 4408 0
-5269 5261 0
5269 -4408 -5261 0
-5273 4411 0
-5273 5261 0
5273 -4411 -5261 0
-5277 4414 0
-5277 5261 0
5277 -4414 -5261 0
-5281 4417 0
-5281 5261 0
5281 -4417 -5261 0
-5285 4420 0
-5285 5261 0
5285 -4420 -5261 0
-5289 4423 0
-5289 5261 0
5289 -4423 -5261 0
-4815 4354 0
-4815 4376 0
4815 -4354 -4376 0
-4818 4357 0
-4818 4376 0
4818 -4357 -4376 0
-4821 4360 0
-4821 4376 0
4821 -4360 -4376 0
-4824 4363 0
-4824 4376 0
4824 -4363 -4376 0
-4827 4366 0
-4827 4376 0
4827 -4366 -4376 0
-4830 4369 0
-4830 4376 0
4830 -4369 -4376 0
-4833 4372 0
-4833 4376 0
4833 -4372 -4376 0
-4836 4916 0
-4836 4376 0
4836 -4916 -4376 0
-5294 4378 0
-5294 4667 0
5294 -4378 -4667 0
-5297 4381 0
-5297 4667 0
5297 -4381 -4667 0
-5300 4384 0
-5300 4667 0
5300 -4384 -4667 0
-5303 4387 0
-5303 4667 0
5303 -4387 -4667 0
-5306 4390 0
-5306 4667 0
5306 -4390 -4667 0
-5309 4393 0
-5309 4667 0
5309 -4393 -4667 0
-5312 4396 0
-5312 4667 0
5312 -4396 -4667 0
-5315 4399 0
-5315 4667 0
5315 -4399 -4667 0
-5267 4917 0
-5267 5254 0
5267 -4917 -5254 0
-5271 4405 0
-5271 5254 0
5271 -4405 -5254 0
-5275 4408 0
-5275 5254 0
5275 -4408 -5254 0
-5279 4411 0
-5279 5254 0
5279 -4411 -5254 0
-5283 4414 0
-5283 5254 0
5283 -4414 -5254 0
-5287 4417 0
-5287 5254 0
5287 -4417 -5254 0
-5291 4420 0
-5291 5254 0
5291 -4420 -5254 0
-5391 4423 0
-5391 5254 0
5391 -4423 -5254 0
-5293 4813 0
-5293 4640 0
5293 -4813 -4640 0
-5296 4816 0
-5296 4640 0
5296 -4816 -4640 0
-5299 4819 0
-5299 4640 0
5299 -4819 -4640 0
-5302 4822 0
-5302 4640 0
5302 -4822 -4640 0
-5305 4825 0
-5305 4640 0
5305 -4825 -4640 0
-5308 4828 0
-5308 4640 0
5308 -4828 -4640 0
-5311 4831 0
-5311 4640 0
5311 -4831 -4640 0
-5314 4834 0
-5314 4640 0
5314 -4834 -4640 0
-5386 4450 0
-5386 5260 0
5386 -4450 -5260 0
-5396 4453 0
-5396 5260 0
5396 -4453 -5260 0
-5402 4456 0
-5402 5260 0
5402 -4456 -5260 0
-5408 4459 0
-5408 5260 0
5408 -4459 -5260 0
-5420 4462 0
-5420 5260 0
5420 -4462 -5260 0
-5426 4465 0
-5426 5260 0
5426 -4465 -5260 0
-5414 4468 0
-5414 5260 0
5414 -4468 -5260 0
-5432 4471 0
-5432 5260 0
5432 -4471 -5260 0
-4839 4474 0
-4839 4544 0
4839 -4474 -4544 0
-4842 4477 0
-4842 4544 0
4842 -4477 -4544 0
-4845 4480 0
-4845 4544 0
4845 -4480 -4544 0
-4848 4483 0
-4848 4544 0
4848 -4483 -4544 0
-4851 4486 0
-4851 4544 0
4851 -4486 -4544 0
-4854 4489 0
-4854 4544 0
4854 -4489 -4544 0
-4857 4492 0
-4857 4544 0
4857 -4492 -4544 0
-4860 4495 0
-4860 4544 0
4860 -4495 -4544 0
-4838 4815 0
-4838 4499 0
4838 -4815 -4499 0
-4841 4818 0
-4841 4502 0
4841 -4818 -4502 0
-4844 4821 0
-4844 4505 0
4844 -4821 -4505 0
-4847 4824 0
-4847 4508 0
4847 -4824 -4508 0
-4850 4827 0
-4850 4511 0
4850 -4827 -4511 0
-4853 4830 0
-4853 4514 0
4853 -4830 -4514 0
-4856 4833 0
-4856 4517 0
4856 -4833 -4517 0
-4859 4836 0
-4859 4520 0
4859 -4836 -4520 0
-5351 5292 0
-5351 4544 0
5351 -5292 -4544 0
-5354 5295 0
-5354 4544 0
5354 -5295 -4544 0
-5357 5298 0
-5357 4544 0
5357 -5298 -4544 0
-5360 5301 0
-5360 4544 0
5360 -5301 -4544 0
-5363 5304 0
-5363 4544 0
5363 -5304 -4544 0
-5366 5307 0
-5366 4544 0
5366 -5307 -4544 0
-5369 5310 0
-5369 4544 0
5369 -5310 -4544 0
-5372 5313 0
-5372 4544 0
5372 -5313 -4544 0
-4862 4837 0
-4862 4547 0
4862 -4837 -4547 0
-4597 4837 0
-4597 4814 0
4597 -4837 -4814 0
-4865 4840 0
-4865 4553 0
4865 -4840 -4553 0
-5347 4840 0
-5347 4817 0
5347 -4840 -4817 0
-4868 4843 0
-4868 4559 0
4868 -4843 -4559 0
-4609 4843 0
-4609 4820 0
4609 -4843 -4820 0
-4871 4846 0
-4871 4565 0
4871 -4846 -4565 0
-5377 4846 0
-5377 4823 0
5377 -4846 -4823 0
-4874 4849 0
-4874 4571 0
4874 -4849 -4571 0
-5383 4849 0
-5383 4826 0
5383 -4849 -4826 0
-4877 4852 0
-4877 4577 0
4877 -4852 -4577 0
-4627 4852 0
-4627 4829 0
4627 -4852 -4829 0
-4880 4855 0
-4880 4583 0
4880 -4855 -4583 0
-4633 4855 0
-4633 4832 0
4633 -4855 -4832 0
-4883 4858 0
-4883 4589 0
4883 -4858 -4589 0
-4639 4858 0
-4639 4835 0
4639 -4858 -4835 0
-4863 4594 0
-4863 4814 0
4863 -4594 -4814 0
-5317 4597 0
-5317 4640 0
5317 -4597 -4640 0
-4866 4600 0
-4866 4817 0
4866 -4600 -4817 0
-5320 5347 0
-5320 4640 0
5320 -5347 -4640 0
-4869 4606 0
-4869 4820 0
4869 -4606 -4820 0
-5323 4609 0
-5323 4640 0
5323 -4609 -4640 0
-4872 4612 0
-4872 4823 0
4872 -4612 -4823 0
-5329 5377 0
-5329 4640 0
5329 -5377 -4640 0
-4875 4618 0
-4875 4826 0
4875 -4618 -4826 0
-5332 5383 0
-5332 4640 0
5332 -5383 -4640 0
-4878 4624 0
-4878 4829 0
4878 -4624 -4829 0
-5335 4627 0
-5335 4640 0
5335 -4627 -4640 0
-4881 4630 0
-4881 4832 0
4881 -4630 -4832 0
-5338 4633 0
-5338 4640 0
5338 -4633 -4640 0
-4884 4636 0
-4884 4835 0
4884 -4636 -4835 0
-5341 4639 0
-5341 4640 0
5341 -4639 -4640 0
-4886 4995 0
-4886 4643 0
4886 -4995 -4643 0
-5318 4995 0
-5318 4667 0
5318 -4995 -4667 0
-5321 4864 0
-5321 4667 0
5321 -4864 -4667 0
-5324 5034 0
-5324 4667 0
5324 -5034 -4667 0
-5330 5005 0
-5330 4667 0
5330 -5005 -4667 0
-5333 5012 0
-5333 4667 0
5333 -5012 -4667 0
-5336 5045 0
-5336 4667 0
5336 -5045 -4667 0
-5339 4879 0
-5339 4667 0
5339 -4879 -4667 0
-5342 4882 0
-5342 4667 0
5342 -4882 -4667 0
-5345 5010 0
-5345 5009 0
5345 -5010 -5009 0
-4887 4672 0
-4887 4996 0
4887 -4672 -4996 0
-4893 4675 0
-4893 5008 0
4893 -4675 -5008 0
-5350 5316 0
-5350 4700 0
5350 -5316 -4700 0
-5353 5319 0
-5353 4700 0
5353 -5319 -4700 0
-5356 5322 0
-5356 4700 0
5356 -5322 -4700 0
-5359 5328 0
-5359 4700 0
5359 -5328 -4700 0
-5362 5331 0
-5362 4700 0
5362 -5331 -4700 0
-5365 5334 0
-5365 4700 0
5365 -5334 -4700 0
-5368 5337 0
-5368 4700 0
5368 -5337 -4700 0
-5371 5340 0
-5371 4700 0
5371 -5340 -4700 0
-4892 4864 0
-4892 4703 0
4892 -4864 -4703 0
-4896 4705 0
-4896 4706 0
4896 -4705 -4706 0
-4895 5034 0
-4895 4709 0
4895 -5034 -4709 0
-4899 4711 0
-4899 5065 0
4899 -4711 -5065 0
-5381 5012 0
-5381 5378 0
5381 -5012 -5378 0
-5387 5068 0
-5387 5495 0
5387 -5068 -5495 0
-5389 5068 0
-5389 5261 0
5389 -5068 -5261 0
-5393 5076 0
-5393 5261 0
5393 -5076 -5261 0
-5397 5076 0
-5397 5495 0
5397 -5076 -5495 0
-4902 4729 0
-4902 5079 0
4902 -4729 -5079 0
-4898 5005 0
-4898 4733 0
4898 -5005 -4733 0
-4901 4879 0
-4901 4736 0
4901 -4879 -4736 0
-4908 4738 0
-4908 4739 0
4908 -4738 -4739 0
-4911 4741 0
-4911 4742 0
4911 -4741 -4742 0
-4907 5012 0
-4907 4745 0
4907 -5012 -4745 0
-5399 5094 0
-5399 5261 0
5399 -5094 -5261 0
-5403 5094 0
-5403 5495 0
5403 -5094 -5495 0
-4910 5045 0
-4910 4754 0
4910 -5045 -4754 0
-5405 5103 0
-5405 5261 0
5405 -5103 -5261 0
-5409 5103 0
-5409 5495 0
5409 -5103 -5495 0
-4914 4762 0
-4914 5106 0
4914 -4762 -5106 0
-5411 5109 0
-5411 5261 0
5411 -5109 -5261 0
-5415 5109 0
-5415 5495 0
5415 -5109 -5495 0
-4913 4882 0
-4913 4772 0
4913 -4882 -4772 0
-5417 5121 0
-5417 5261 0
5417 -5121 -5261 0
-5421 5121 0
-5421 5495 0
5421 -5121 -5495 0
-5423 5127 0
-5423 5261 0
5423 -5127 -5261 0
-5427 5127 0
-5427 5495 0
5427 -5127 -5495 0
-5429 5136 0
-5429 5261 0
5429 -5136 -5261 0
-5433 5136 0
-5433 5495 0
5433 -5136 -5495 0
4943 -4916 0
4943 -4917 0
-4943 4916 4917 0
4947 -4934 0
4947 -4972 0
-4947 4934 4972 0
4983 -4952 0
4983 -5188 0
-4983 4952 5188 0
4954 -4941 0
4954 -4802 0
-4954 4941 4802 0
4963 -5171 0
4963 -4924 0
-4963 5171 4924 0
4966 -5221 0
4966 -5226 0
-4966 5221 5226 0
4982 -4974 0
4982 -4979 0
4982 -4938 0
-4982 4974 4979 4938 0
4813 -4814 0
4813 -4815 0
-4813 4814 4815 0
4816 -4817 0
4816 -4818 0
-4816 4817 4818 0
4819 -4820 0
4819 -4821 0
-4819 4820 4821 0
4822 -4823 0
4822 -4824 0
-4822 4823 4824 0
4825 -4826 0
4825 -4827 0
-4825 4826 4827 0
4828 -4829 0
4828 -4830 0
-4828 4829 4830 0
4831 -4832 0
4831 -4833 0
-4831 4832 4833 0
4834 -4835 0
4834 -4836 0
-4834 4835 4836 0
4837 -4838 0
4837 -4839 0
-4837 4838 4839 0
4840 -4841 0
4840 -4842 0
-4840 4841 4842 0
4843 -4844 0
4843 -4845 0
-4843 4844 4845 0
4846 -4847 0
4846 -4848 0
-4846 4847 4848 0
4849 -4850 0
4849 -4851 0
-4849 4850 4851 0
4852 -4853 0
4852 -4854 0
-4852 4853 4854 0
4855 -4856 0
4855 -4857 0
-4855 4856 4857 0
4858 -4859 0
4858 -4860 0
-4858 4859 4860 0
4995 -4862 0
4995 -4863 0
-4995 4862 4863 0
4864 -4865 0
4864 -4866 0
-4864 4865 4866 0
5034 -4868 0
5034 -4869 0
-5034 4868 4869 0
5005 -4871 0
5005 -4872 0
-5005 4871 4872 0
5012 -4874 0
5012 -4875 0
-5012 4874 4875 0
5045 -4877 0
5045 -4878 0
-5045 4877 4878 0
4879 -4880 0
4879 -4881 0
-4879 4880 4881 0
4882 -4883 0
4882 -4884 0
-4882 4883 4884 0
5024 -4886 0
5024 -4887 0
-5024 4886 4887 0
5033 -5347 0
5033 -5348 0
-5033 5347 5348 0
5063 -4892 0
5063 -4893 0
-5063 4892 4893 0
5089 -4895 0
5089 -4896 0
-5089 4895 4896 0
5098 -4898 0
5098 -4899 0
-5098 4898 4899 0
5101 -4901 0
5101 -4902 0
-5101 4901 4902 0
5107 -4904 0
5107 -4905 0
-5107 4904 4905 0
5113 -4907 0
5113 -4908 0
-5113 4907 4908 0
5119 -4910 0
5119 -4911 0
-5119 4910 4911 0
5131 -4913 0
5131 -4914 0
-5131 4913 4914 0
4945 4916 0
4945 4917 0
-4945 -4916 -4917 0
4918 5179 0
4918 4920 0
-4918 -5179 -4920 0
5172 5179 0
5172 5225 0
-5172 -5179 -5225 0
4924 5168 0
4924 5225 0
-4924 -5168 -5225 0
5223 4928 0
5223 4952 0
-5223 -4928 -4952 0
5226 5168 0
5226 5171 0
-5226 -5168 -5171 0
4948 4934 0
4948 4972 0
-4948 -4934 -4972 0
5507 5178 0
5507 4938 0
-5507 -5178 -4938 0
4990 5172 0
4990 4941 0
-4990 -5172 -4941 0
4993 4943 0
4993 5170 0
4993 4945 0
-4993 -4943 -5170 -4945 0
5485 4947 0
5485 4948 0
-5485 -4947 -4948 0
5497 5171 0
5497 5177 0
5497 4952 0
-5497 -5171 -5177 -4952 0
4991 4954 0
4991 5171 0
-4991 -4954 -5171 0
4980 5222 0
4980 5224 0
-4980 -5222 -5224 0
4978 5223 0
4978 5224 0
-4978 -5223 -5224 0
5483 4963 0
5483 4964 0
-5483 -4963 -4964 0
4965 4966 0
4965 4972 0
-4965 -4966 -4972 0
5501 4969 0
5501 5171 0
5501 5168 0
5501 4972 0
-5501 -4969 -5171 -5168 -4972 0
5491 4974 0
5491 4980 0
5491 4978 0
-5491 -4974 -4980 -4978 0
5499 4978 0
5499 4979 0
5499 4980 0
-5499 -4978 -4979 -4980 0
5505 4982 0
5505 4983 0
-5505 -4982 -4983 0
5489 4990 0
5489 4992 0
5489 4991 0
5489 4993 0
-5489 -4990 -4992 -4991 -4993 0
4989 4990 0
4989 4991 0
4989 4992 0
4989 4993 0
-4989 -4990 -4991 -4992 -4993 0
5009 4995 0
5009 4996 0
-5009 -4995 -4996 0
4997 5377 0
4997 5012 0
-4997 -5377 -5012 0
5085 5383 0
5085 5045 0
-5085 -5383 -5045 0
5003 5045 0
5003 5005 0
5003 5012 0
5003 5034 0
-5003 -5045 -5005 -5012 -5034 0
5008 5009 0
5008 5010 0
-5008 -5009 -5010 0
5011 5012 0
5011 5379 0
-5011 -5012 -5379 0
5075 5045 0
5075 5384 0
-5075 -5045 -5384 0
5074 5347 0
5074 5022 0
-5074 -5347 -5022 0
5087 5348 0
5087 5022 0
-5087 -5348 -5022 0
5069 5024 0
5069 5132 0
-5069 -5024 -5132 0
5026 5085 0
5026 5074 0
-5026 -5085 -5074 0
5029 5075 0
5029 5087 0
-5029 -5075 -5087 0
5375 5033 0
5375 5034 0
-5375 -5033 -5034 0
5070 5349 0
5070 5061 0
-5070 -5349 -5061 0
5078 5352 0
5078 5061 0
-5078 -5352 -5061 0
5096 5355 0
5096 5061 0
-5096 -5355 -5061 0
5081 5045 0
5081 5382 0
-5081 -5045 -5382 0
5105 5358 0
5105 5061 0
-5105 -5358 -5061 0
5123 5361 0
5123 5061 0
-5123 -5361 -5061 0
5129 5364 0
5129 5061 0
-5129 -5364 -5061 0
5111 5367 0
5111 5061 0
-5111 -5367 -5061 0
5138 5370 0
5138 5061 0
-5138 -5370 -5061 0
5077 5063 0
5077 5132 0
-5077 -5063 -5132 0
5065 5326 0
5065 5375 0
-5065 -5326 -5375 0
5068 5069 0
5068 5070 0
-5068 -5069 -5070 0
5071 5080 0
5071 5081 0
5071 5074 0
5071 5075 0
-5071 -5080 -5081 -5074 -5075 0
5076 5077 0
5076 5078 0
-5076 -5077 -5078 0
5079 5080 0
5079 5081 0
5079 5082 0
5079 5083 0
-5079 -5080 -5081 -5082 -5083 0
5084 5085 0
5084 5086 0
5084 5087 0
-5084 -5085 -5086 -5087 0
5095 5089 0
5095 5132 0
-5095 -5089 -5132 0
5435 5392 0
5435 5385 0
-5435 -5392 -5385 0
5094 5095 0
5094 5096 0
-5094 -5095 -5096 0
5104 5098 0
5104 5132 0
-5104 -5098 -5132 0
5110 5101 0
5110 5132 0
-5110 -5101 -5132 0
5103 5104 0
5103 5105 0
-5103 -5104 -5105 0
5106 5107 0
5106 5108 0
-5106 -5107 -5108 0
5109 5110 0
5109 5111 0
-5109 -5110 -5111 0
5122 5113 0
5122 5132 0
-5122 -5113 -5132 0
5437 5398 0
5437 5395 0
-5437 -5398 -5395 0
5128 5119 0
5128 5132 0
-5128 -5119 -5132 0
5121 5122 0
5121 5123 0
-5121 -5122 -5123 0
5439 5404 0
5439 5401 0
-5439 -5404 -5401 0
5127 5128 0
5127 5129 0
-5127 -5128 -5129 0
5137 5131 0
5137 5132 0
-5137 -5131 -5132 0
5441 5416 0
5441 5407 0
-5441 -5416 -5407 0
5136 5137 0
5136 5138 0
-5136 -5137 -5138 0
5443 5422 0
5443 5419 0
-5443 -5422 -5419 0
5445 5410 0
5445 5425 0
-5445 -5410 -5425 0
5447 5428 0
5447 5413 0
-5447 -5428 -5413 0
5449 5257 0
5449 5431 0
-5449 -5257 -5431 0
-5151 -5152 0
-5151 -5153 0
-5151 -5154 0
5151 5152 5153 5154 0
-5155 -5156 0
-5155 -5157 0
-5155 -5158 0
5155 5156 5157 5158 0
-5159 -5160 0
-5159 -5161 0
-5159 -5162 0
5159 5160 5161 5162 0
-5163 -5164 0
-5163 -5165 0
-5163 -5166 0
5163 5164 5165 5166 0
-5167 -5168 0
-5167 -5169 0
5167 5168 5169 0
-5170 -5171 0
-5170 -5172 0
5170 5171 5172 0
-5173 -5174 0
-5173 -5175 0
-5173 -5176 0
5173 5174 5175 5176 0
-5177 -5178 0
-5177 -5179 0
-5177 -5222 0
-5177 -5225 0
5177 5178 5179 5222 5225 0
-5182 -5183 0
-5182 -5184 0
-5182 -5185 0
5182 5183 5184 5185 0
-5186 -5222 0
-5186 -5188 0
5186 5222 5188 0
-5189 -5190 0
-5189 -5191 0
-5189 -5192 0
5189 5190 5191 5192 0
-5193 -5194 0
-5193 -5195 0
-5193 -5196 0
5193 5194 5195 5196 0
-5197 -5198 0
-5197 -5199 0
5197 5198 5199 0
-5200 -5201 0
-5200 -5202 0
5200 5201 5202 0
-5203 -5204 0
-5203 -5205 0
5203 5204 5205 0
-5206 -5207 0
-5206 -5208 0
5206 5207 5208 0
-5209 -5210 0
-5209 -5211 0
5209 5210 5211 0
-5212 -5213 0
-5212 -5214 0
5212 5213 5214 0
-5215 -5216 0
-5215 -5217 0
5215 5216 5217 0
-5218 -5219 0
-5218 -5220 0
5218 5219 5220 0
-5221 -5222 0
-5221 -5223 0
5221 5222 5223 0
-5224 -5225 0
-5224 -5226 0
5224 5225 5226 0
-5227 -5228 0
-5227 -5229 0
5227 5228 5229 0
-5230 -5231 0
-5230 -5232 0
5230 5231 5232 0
-5233 -5234 0
-5233 -5235 0
5233 5234 5235 0
-5236 -5237 0
-5236 -5238 0
5236 5237 5238 0
-5493 -5262 0
-5493 -5241 0
5493 5262 5241 0
-5242 -5243 0
-5242 -5244 0
5242 5243 5244 0
-5245 -5246 0
-5245 -5247 0
5245 5246 5247 0
-5248 -5249 0
-5248 -5250 0
5248 5249 5250 0
-5251 -5252 0
-5251 -5253 0
5251 5252 5253 0
-5254 -5255 0
-5254 -5261 0
5254 5255 5261 0
-5257 -5258 0
-5257 -5259 0
5257 5258 5259 0
-5260 -5261 0
-5260 -5262 0
-5260 -5495 0
5260 5261 5262 5495 0
-5264 -5265 0
-5264 -5266 0
-5264 -5267 0
5264 5265 5266 5267 0
-5268 -5269 0
-5268 -5270 0
-5268 -5271 0
5268 5269 5270 5271 0
-5272 -5273 0
-5272 -5274 0
-5272 -5275 0
5272 5273 5274 5275 0
-5276 -5277 0
-5276 -5278 0
-5276 -5279 0
5276 5277 5278 5279 0
-5280 -5281 0
-5280 -5282 0
-5280 -5283 0
5280 5281 5282 5283 0
-5284 -5285 0
-5284 -5286 0
-5284 -5287 0
5284 5285 5286 5287 0
-5288 -5289 0
-5288 -5290 0
-5288 -5291 0
5288 5289 5290 5291 0
-5292 -5293 0
-5292 -5294 0
5292 5293 5294 0
-5295 -5296 0
-5295 -5297 0
5295 5296 5297 0
-5298 -5299 0
-5298 -5300 0
5298 5299 5300 0
-5301 -5302 0
-5301 -5303 0
5301 5302 5303 0
-5304 -5305 0
-5304 -5306 0
5304 5305 5306 0
-5307 -5308 0
-5307 -5309 0
5307 5308 5309 0
-5310 -5311 0
-5310 -5312 0
5310 5311 5312 0
-5313 -5314 0
-5313 -5315 0
5313 5314 5315 0
-5316 -5317 0
-5316 -5318 0
5316 5317 5318 0
-5319 -5320 0
-5319 -5321 0
5319 5320 5321 0
-5322 -5323 0
-5322 -5324 0
5322 5323 5324 0
-5379 -5326 0
-5379 -5374 0
5379 5326 5374 0
-5328 -5329 0
-5328 -5330 0
5328 5329 5330 0
-5331 -5332 0
-5331 -5333 0
5331 5332 5333 0
-5334 -5335 0
-5334 -5336 0
5334 5335 5336 0
-5337 -5338 0
-5337 -5339 0
5337 5338 5339 0
-5340 -5341 0
-5340 -5342 0
5340 5341 5342 0
-5348 -5344 0
-5348 -5345 0
5348 5344 5345 0
-5346 -5347 0
-5346 -5348 0
5346 5347 5348 0
-5349 -5350 0
-5349 -5351 0
5349 5350 5351 0
-5352 -5353 0
-5352 -5354 0
5352 5353 5354 0
-5355 -5356 0
-5355 -5357 0
5355 5356 5357 0
-5358 -5359 0
-5358 -5360 0
5358 5359 5360 0
-5361 -5362 0
-5361 -5363 0
5361 5362 5363 0
-5364 -5365 0
-5364 -5366 0
5364 5365 5366 0
-5367 -5368 0
-5367 -5369 0
5367 5368 5369 0
-5370 -5371 0
-5370 -5372 0
5370 5371 5372 0
-5378 -5374 0
-5378 -5375 0
5378 5374 5375 0
-5376 -5377 0
-5376 -5378 0
-5376 -5379 0
5376 5377 5378 5379 0
-5380 -5381 0
-5380 -5382 0
-5380 -5383 0
-5380 -5384 0
5380 5381 5382 5383 5384 0
-5385 -5386 0
-5385 -5387 0
5385 5386 5387 0
-5388 -5389 0
-5388 -5390 0
-5388 -5391 0
5388 5389 5390 5391 0
-5392 -5393 0
-5392 -5394 0
5392 5393 5394 0
-5395 -5396 0
-5395 -5397 0
5395 5396 5397 0
-5398 -5399 0
-5398 -5400 0
5398 5399 5400 0
-5401 -5402 0
-5401 -5403 0
5401 5402 5403 0
-5404 -5405 0
-5404 -5406 0
5404 5405 5406 0
-5407 -5408 0
-5407 -5409 0
5407 5408 5409 0
-5410 -5411 0
-5410 -5412 0
5410 5411 5412 0
-5413 -5414 0
-5413 -5415 0
5413 5414 5415 0
-5416 -5417 0
-5416 -5418 0
5416 5417 5418 0
-5419 -5420 0
-5419 -5421 0
5419 5420 5421 0
-5422 -5423 0
-5422 -5424 0
5422 5423 5424 0
-5425 -5426 0
-5425 -5427 0
5425 5426 5427 0
-5428 -5429 0
-5428 -5430 0
5428 5429 5430 0
-5431 -5432 0
-5431 -5433 0
5431 5432 5433 0
-5435 6120 0
5435 -6120 0
-5437 6123 0
5437 -6123 0
-5439 6126 0
5439 -6126 0
-5441 6129 0
5441 -6129 0
-5443 6132 0
5443 -6132 0
-5445 6135 0
5445 -6135 0
-5447 6138 0
5447 -6138 0
-5449 6141 0
5449 -6141 0
-5451 6587 0
5451 -6587 0
-5453 6075 0
5453 -6075 0
-5455 6078 0
5455 -6078 0
-5457 6081 0
5457 -6081 0
-5459 6084 0
5459 -6084 0
-5461 6087 0
5461 -6087 0
-5463 6090 0
5463 -6090 0
-5465 6093 0
5465 -6093 0
-5467 6024 0
5467 -6024 0
-5469 6027 0
5469 -6027 0
-5471 6030 0
5471 -6030 0
-5473 6033 0
5473 -6033 0
-5475 6036 0
5475 -6036 0
-5477 6039 0
5477 -6039 0
-5479 6042 0
5479 -6042 0
-5481 6586 0
5481 -6586 0
-5483 6849 0
5483 -6849 0
-5485 6604 0
5485 -6604 0
-5487 6895 0
5487 -6895 0
-5489 6590 0
5489 -6590 0
-5491 6608 0
5491 -6608 0
-5493 5758 0
5493 -5758 0
-5495 5494 0
5495 -5494 0
-5497 5776 0
5497 -5776 0
-5499 5830 0
5499 -5830 0
-5501 5923 0
5501 -5923 0
-5503 5803 0
5503 -5803 0
-5505 5770 0
5505 -5770 0
-5507 5794 0
5507 -5794 0
5973 5922 0
-5973 -5922 0
6649 6587 0
-6649 -6587 0
6898 6590 0
-6898 -6590 0
6838 6849 0
-6838 -6849 0
5947 5896 0
-5947 -5896 0
6622 5519 0
-6622 -5519 0
6841 6604 0
-6841 -6604 0
6642 6895 0
-6642 -6895 0
6848 6598 0
-6848 -6598 0
6858 6608 0
-6858 -6608 0
6611 6615 0
-6611 -6615 0
6472 6588 0
-6472 -6588 0
6634 6837 0
-6634 -6837 0
6644 6840 0
-6644 -6840 0
7173 6856 0
-7173 -6856 0
7137 6867 0
-7137 -6867 0
7139 6870 0
-7139 -6870 0
7141 6873 0
-7141 -6873 0
7143 6876 0
-7143 -6876 0
7145 6879 0
-7145 -6879 0
7147 6882 0
-7147 -6882 0
7149 6885 0
-7149 -6885 0
7151 6888 0
-7151 -6888 0
6639 6891 0
-6639 -6891 0
6662 6897 0
-6662 -6897 0
5565 6900 0
-5565 -6900 0
7157 6635 0
-7157 -6635 0
6731 5565 0
-6731 -5565 0
5571 5565 0
-5571 -5565 0
5998 6903 0
-5998 -6903 0
5575 6906 0
-5575 -6906 0
6802 5571 0
-6802 -5571 0
6310 5575 0
-6310 -5575 0
5617 5575 0
-5617 -5575 0
6931 6912 0
-6931 -6912 0
6046 6915 0
-6046 -6915 0
6666 6918 0
-6666 -6918 0
5625 6918 0
-5625 -6918 0
6217 6484 0
-6217 -6484 0
6048 6484 0
-6048 -6484 0
6223 6487 0
-6223 -6487 0
6051 6487 0
-6051 -6487 0
6229 6490 0
-6229 -6490 0
6054 6490 0
-6054 -6490 0
6235 6493 0
-6235 -6493 0
6057 6493 0
-6057 -6493 0
6241 6496 0
-6241 -6496 0
6060 6496 0
-6060 -6496 0
6247 6499 0
-6247 -6499 0
6063 6499 0
-6063 -6499 0
6253 6502 0
-6253 -6502 0
6066 6502 0
-6066 -6502 0
6259 6505 0
-6259 -6505 0
6069 6505 0
-6069 -6505 0
6337 5617 0
-6337 -5617 0
7165 6921 0
-7165 -6921 0
6313 6666 0
-6313 -6666 0
6370 5625 0
-6370 -5625 0
5643 5625 0
-5643 -5625 0
6144 6485 0
-6144 -6485 0
6147 6488 0
-6147 -6488 0
6150 6491 0
-6150 -6491 0
6153 6494 0
-6153 -6494 0
6156 6497 0
-6156 -6497 0
6159 6500 0
-6159 -6500 0
6162 6503 0
-6162 -6503 0
6165 6506 0
-6165 -6506 0
6214 5643 0
-6214 -5643 0
6169 6214 0
-6169 -6214 0
6172 6214 0
-6172 -6214 0
6175 6214 0
-6175 -6214 0
6178 6214 0
-6178 -6214 0
6181 6214 0
-6181 -6214 0
6184 6214 0
-6184 -6214 0
6187 6214 0
-6187 -6214 0
6190 6214 0
-6190 -6214 0
7121 6934 0
-7121 -6934 0
7123 6938 0
-7123 -6938 0
7125 6942 0
-7125 -6942 0
7127 6946 0
-7127 -6946 0
7129 6950 0
-7129 -6950 0
7131 6954 0
-7131 -6954 0
7133 6958 0
-7133 -6958 0
6264 6507 0
-6264 -6507 0
6270 6510 0
-6270 -6510 0
6276 6513 0
-6276 -6513 0
6282 6516 0
-6282 -6516 0
6288 6519 0
-6288 -6519 0
6294 6522 0
-6294 -6522 0
6300 6525 0
-6300 -6525 0
6306 6528 0
-6306 -6528 0
6680 6267 0
-6680 -6267 0
6996 6279 0
-6996 -6279 0
6750 6297 0
-6750 -6297 0
6778 6303 0
-6778 -6303 0
6342 6665 0
-6342 -6665 0
7014 6534 0
-7014 -6534 0
6345 6534 0
-6345 -6534 0
6375 6704 0
-6375 -6704 0
7044 6675 0
-7044 -6675 0
6381 6675 0
-6381 -6675 0
6408 6682 0
-6408 -6682 0
6411 6715 0
-6411 -6715 0
6574 6549 0
-6574 -6549 0
6399 6549 0
-6399 -6549 0
6432 6552 0
-6432 -6552 0
7054 6667 0
-7054 -6667 0
6692 6673 0
-6692 -6673 0
6373 6678 0
-6373 -6678 0
7052 6681 0
-7052 -6681 0
6376 7016 0
-6376 -7016 0
6752 6696 0
-6752 -6696 0
6379 6376 0
-6379 -6376 0
6753 6699 0
-6753 -6699 0
6403 6735 0
-6403 -6735 0
6756 6741 0
-6756 -6741 0
6406 6749 0
-6406 -6749 0
6409 7046 0
-6409 -7046 0
6412 7050 0
-6412 -7050 0
6415 6409 0
-6415 -6409 0
7135 7058 0
-7135 -7058 0
6575 6754 0
-6575 -6754 0
6424 6412 0
-6424 -6412 0
6442 6776 0
-6442 -6776 0
-6922 5922 0
-6922 5758 0
6922 -5922 -5758 0
-6860 5877 0
-6860 6093 0
6860 -5877 -6093 0
-7070 5901 0
-7070 6932 0
7070 -5901 -6932 0
-6834 5877 0
-6834 6587 0
6834 -5877 -6587 0
-6919 5922 0
-6919 5770 0
6919 -5922 -5770 0
-6853 5877 0
-6853 6084 0
6853 -5877 -6084 0
-6904 5922 0
-6904 5776 0
6904 -5922 -5776 0
-6823 5874 0
-6823 6042 0
6823 -5874 -6042 0
-6861 5874 0
-6861 6586 0
6861 -5874 -6586 0
-6826 5877 0
-6826 6081 0
6826 -5877 -6081 0
-7082 5913 0
-7082 6932 0
7082 -5913 -6932 0
-6845 5874 0
-6845 6039 0
6845 -5874 -6039 0
-6901 5922 0
-6901 5794 0
6901 -5922 -5794 0
-6824 5889 0
-6824 6138 0
6824 -5889 -6138 0
-6855 5889 0
-6855 6132 0
6855 -5889 -6132 0
-6907 5922 0
-6907 5803 0
6907 -5922 -5803 0
-6822 5877 0
-6822 6090 0
6822 -5877 -6090 0
-7094 5910 0
-7094 6932 0
7094 -5910 -6932 0
-6865 5874 0
-6865 6027 0
6865 -5874 -6027 0
-6828 5889 0
-6828 6129 0
6828 -5889 -6129 0
-7076 5904 0
-7076 6932 0
7076 -5904 -6932 0
-6827 5874 0
-6827 6033 0
6827 -5874 -6033 0
-6846 5889 0
-6846 6135 0
6846 -5889 -6135 0
-6832 5889 0
-6832 6126 0
6832 -5889 -6126 0
-6916 5922 0
-6916 5830 0
6916 -5922 -5830 0
-7100 5916 0
-7100 6932 0
7100 -5916 -6932 0
-6836 5889 0
-6836 6120 0
6836 -5889 -6120 0
-6831 5874 0
-6831 6030 0
6831 -5874 -6030 0
-6872 5901 0
-6872 5896 0
6872 -5901 -5896 0
-6875 5904 0
-6875 5896 0
6875 -5904 -5896 0
-6881 5910 0
-6881 5896 0
6881 -5910 -5896 0
-6884 5913 0
-6884 5896 0
6884 -5913 -5896 0
-6887 5916 0
-6887 5896 0
6887 -5916 -5896 0
-6830 5877 0
-6830 6078 0
6830 -5877 -6078 0
-6835 5874 0
-6835 6024 0
6835 -5874 -6024 0
-6839 6604 0
-6839 6895 0
6839 -6604 -6895 0
-6929 5919 0
-6929 6932 0
6929 -5919 -6932 0
-6890 5919 0
-6890 5896 0
6890 -5919 -5896 0
-6844 5877 0
-6844 6087 0
6844 -5877 -6087 0
-6854 5874 0
-6854 6036 0
6854 -5874 -6036 0
-6864 5877 0
-6864 6075 0
6864 -5877 -6075 0
-7064 5898 0
-7064 6932 0
7064 -5898 -6932 0
-6869 5898 0
-6869 5896 0
6869 -5898 -5896 0
-6862 5889 0
-6862 6141 0
6862 -5889 -6141 0
-6866 5889 0
-6866 6123 0
6866 -5889 -6123 0
-7088 5907 0
-7088 6932 0
7088 -5907 -6932 0
-6878 5907 0
-6878 5896 0
6878 -5907 -5896 0
-6936 5898 0
-6936 6925 0
6936 -5898 -6925 0
-6940 5901 0
-6940 6925 0
6940 -5901 -6925 0
-6944 5904 0
-6944 6925 0
6944 -5904 -6925 0
-6948 5907 0
-6948 6925 0
6948 -5907 -6925 0
-6952 5910 0
-6952 6925 0
6952 -5910 -6925 0
-6956 5913 0
-6956 6925 0
6956 -5913 -6925 0
-6960 5916 0
-6960 6925 0
6960 -5916 -6925 0
-7060 5919 0
-7060 6925 0
7060 -5919 -6925 0
-6913 5922 0
-6913 5923 0
6913 -5922 -5923 0
-6868 6024 0
-6868 5947 0
6868 -6024 -5947 0
-6871 6027 0
-6871 5947 0
6871 -6027 -5947 0
-6874 6030 0
-6874 5947 0
6874 -6030 -5947 0
-6877 6033 0
-6877 5947 0
6877 -6033 -5947 0
-6880 6036 0
-6880 5947 0
6880 -6036 -5947 0
-6883 6039 0
-6883 5947 0
6883 -6039 -5947 0
-6886 6042 0
-6886 5947 0
6886 -6042 -5947 0
-6889 6586 0
-6889 5947 0
6889 -6586 -5947 0
-6899 6594 0
-6899 6618 0
6899 -6594 -6618 0
-6902 5973 0
-6902 7177 0
6902 -5973 -7177 0
-6905 5973 0
-6905 7167 0
6905 -5973 -7167 0
-6908 5973 0
-6908 7173 0
6908 -5973 -7173 0
-6911 6650 0
-6911 6648 0
6911 -6650 -6648 0
-6914 5973 0
-6914 7171 0
6914 -5973 -7171 0
-6917 5973 0
-6917 7169 0
6917 -5973 -7169 0
-6920 5973 0
-6920 7175 0
6920 -5973 -7175 0
-6923 5973 0
-6923 7163 0
6923 -5973 -7163 0
-6484 6120 0
-6484 5998 0
6484 -6120 -5998 0
-6487 6123 0
-6487 5998 0
6487 -6123 -5998 0
-6490 6126 0
-6490 5998 0
6490 -6126 -5998 0
-6493 6129 0
-6493 5998 0
6493 -6129 -5998 0
-6496 6132 0
-6496 5998 0
6496 -6132 -5998 0
-6499 6135 0
-6499 5998 0
6499 -6135 -5998 0
-6502 6138 0
-6502 5998 0
6502 -6138 -5998 0
-6505 6141 0
-6505 5998 0
6505 -6141 -5998 0
-6928 6659 0
-6928 6931 0
6928 -6659 -6931 0
-6935 6075 0
-6935 6931 0
6935 -6075 -6931 0
-6939 6078 0
-6939 6931 0
6939 -6078 -6931 0
-6943 6081 0
-6943 6931 0
6943 -6081 -6931 0
-6947 6084 0
-6947 6931 0
6947 -6084 -6931 0
-6951 6087 0
-6951 6931 0
6951 -6087 -6931 0
-6955 6090 0
-6955 6931 0
6955 -6090 -6931 0
-6959 6093 0
-6959 6931 0
6959 -6093 -6931 0
-6485 6024 0
-6485 6046 0
6485 -6024 -6046 0
-6488 6027 0
-6488 6046 0
6488 -6027 -6046 0
-6491 6030 0
-6491 6046 0
6491 -6030 -6046 0
-6494 6033 0
-6494 6046 0
6494 -6033 -6046 0
-6497 6036 0
-6497 6046 0
6497 -6036 -6046 0
-6500 6039 0
-6500 6046 0
6500 -6039 -6046 0
-6503 6042 0
-6503 6046 0
6503 -6042 -6046 0
-6506 6586 0
-6506 6046 0
6506 -6586 -6046 0
-6964 6048 0
-6964 6337 0
6964 -6048 -6337 0
-6967 6051 0
-6967 6337 0
6967 -6051 -6337 0
-6970 6054 0
-6970 6337 0
6970 -6054 -6337 0
-6973 6057 0
-6973 6337 0
6973 -6057 -6337 0
-6976 6060 0
-6976 6337 0
6976 -6060 -6337 0
-6979 6063 0
-6979 6337 0
6979 -6063 -6337 0
-6982 6066 0
-6982 6337 0
6982 -6066 -6337 0
-6985 6069 0
-6985 6337 0
6985 -6069 -6337 0
-6937 6587 0
-6937 6924 0
6937 -6587 -6924 0
-6941 6075 0
-6941 6924 0
6941 -6075 -6924 0
-6945 6078 0
-6945 6924 0
6945 -6078 -6924 0
-6949 6081 0
-6949 6924 0
6949 -6081 -6924 0
-6953 6084 0
-6953 6924 0
6953 -6084 -6924 0
-6957 6087 0
-6957 6924 0
6957 -6087 -6924 0
-6961 6090 0
-6961 6924 0
6961 -6090 -6924 0
-7061 6093 0
-7061 6924 0
7061 -6093 -6924 0
-6963 6483 0
-6963 6310 0
6963 -6483 -6310 0
-6966 6486 0
-6966 6310 0
6966 -6486 -6310 0
-6969 6489 0
-6969 6310 0
6969 -6489 -6310 0
-6972 6492 0
-6972 6310 0
6972 -6492 -6310 0
-6975 6495 0
-6975 6310 0
6975 -6495 -6310 0
-6978 6498 0
-6978 6310 0
6978 -6498 -6310 0
-6981 6501 0
-6981 6310 0
6981 -6501 -6310 0
-6984 6504 0
-6984 6310 0
6984 -6504 -6310 0
-7056 6120 0
-7056 6930 0
7056 -6120 -6930 0
-7066 6123 0
-7066 6930 0
7066 -6123 -6930 0
-7072 6126 0
-7072 6930 0
7072 -6126 -6930 0
-7078 6129 0
-7078 6930 0
7078 -6129 -6930 0
-7090 6132 0
-7090 6930 0
7090 -6132 -6930 0
-7096 6135 0
-7096 6930 0
7096 -6135 -6930 0
-7084 6138 0
-7084 6930 0
7084 -6138 -6930 0
-7102 6141 0
-7102 6930 0
7102 -6141 -6930 0
-6509 6144 0
-6509 6214 0
6509 -6144 -6214 0
-6512 6147 0
-6512 6214 0
6512 -6147 -6214 0
-6515 6150 0
-6515 6214 0
6515 -6150 -6214 0
-6518 6153 0
-6518 6214 0
6518 -6153 -6214 0
-6521 6156 0
-6521 6214 0
6521 -6156 -6214 0
-6524 6159 0
-6524 6214 0
6524 -6159 -6214 0
-6527 6162 0
-6527 6214 0
6527 -6162 -6214 0
-6530 6165 0
-6530 6214 0
6530 -6165 -6214 0
-6508 6485 0
-6508 6169 0
6508 -6485 -6169 0
-6511 6488 0
-6511 6172 0
6511 -6488 -6172 0
-6514 6491 0
-6514 6175 0
6514 -6491 -6175 0
-6517 6494 0
-6517 6178 0
6517 -6494 -6178 0
-6520 6497 0
-6520 6181 0
6520 -6497 -6181 0
-6523 6500 0
-6523 6184 0
6523 -6500 -6184 0
-6526 6503 0
-6526 6187 0
6526 -6503 -6187 0
-6529 6506 0
-6529 6190 0
6529 -6506 -6190 0
-7021 6962 0
-7021 6214 0
7021 -6962 -6214 0
-7024 6965 0
-7024 6214 0
7024 -6965 -6214 0
-7027 6968 0
-7027 6214 0
7027 -6968 -6214 0
-7030 6971 0
-7030 6214 0
7030 -6971 -6214 0
-7033 6974 0
-7033 6214 0
7033 -6974 -6214 0
-7036 6977 0
-7036 6214 0
7036 -6977 -6214 0
-7039 6980 0
-7039 6214 0
7039 -6980 -6214 0
-7042 6983 0
-7042 6214 0
7042 -6983 -6214 0
-6532 6507 0
-6532 6217 0
6532 -6507 -6217 0
-6267 6507 0
-6267 6484 0
6267 -6507 -6484 0
-6535 6510 0
-6535 6223 0
6535 -6510 -6223 0
-7017 6510 0
-7017 6487 0
7017 -6510 -6487 0
-6538 6513 0
-6538 6229 0
6538 -6513 -6229 0
-6279 6513 0
-6279 6490 0
6279 -6513 -6490 0
-6541 6516 0
-6541 6235 0
6541 -6516 -6235 0
-7047 6516 0
-7047 6493 0
7047 -6516 -6493 0
-6544 6519 0
-6544 6241 0
6544 -6519 -6241 0
-7053 6519 0
-7053 6496 0
7053 -6519 -6496 0
-6547 6522 0
-6547 6247 0
6547 -6522 -6247 0
-6297 6522 0
-6297 6499 0
6297 -6522 -6499 0
-6550 6525 0
-6550 6253 0
6550 -6525 -6253 0
-6303 6525 0
-6303 6502 0
6303 -6525 -6502 0
-6553 6528 0
-6553 6259 0
6553 -6528 -6259 0
-6309 6528 0
-6309 6505 0
6309 -6528 -6505 0
-6533 6264 0
-6533 6484 0
6533 -6264 -6484 0
-6987 6267 0
-6987 6310 0
6987 -6267 -6310 0
-6536 6270 0
-6536 6487 0
6536 -6270 -6487 0
-6990 7017 0
-6990 6310 0
6990 -7017 -6310 0
-6539 6276 0
-6539 6490 0
6539 -6276 -6490 0
-6993 6279 0
-6993 6310 0
6993 -6279 -6310 0
-6542 6282 0
-6542 6493 0
6542 -6282 -6493 0
-6999 7047 0
-6999 6310 0
6999 -7047 -6310 0
-6545 6288 0
-6545 6496 0
6545 -6288 -6496 0
-7002 7053 0
-7002 6310 0
7002 -7053 -6310 0
-6548 6294 0
-6548 6499 0
6548 -6294 -6499 0
-7005 6297 0
-7005 6310 0
7005 -6297 -6310 0
-6551 6300 0
-6551 6502 0
6551 -6300 -6502 0
-7008 6303 0
-7008 6310 0
7008 -6303 -6310 0
-6554 6306 0
-6554 6505 0
6554 -6306 -6505 0
-7011 6309 0
-7011 6310 0
7011 -6309 -6310 0
-6556 6665 0
-6556 6313 0
6556 -6665 -6313 0
-6988 6665 0
-6988 6337 0
6988 -6665 -6337 0
-6991 6534 0
-6991 6337 0
6991 -6534 -6337 0
-6994 6704 0
-6994 6337 0
6994 -6704 -6337 0
-7000 6675 0
-7000 6337 0
7000 -6675 -6337 0
-7003 6682 0
-7003 6337 0
7003 -6682 -6337 0
-7006 6715 0
-7006 6337 0
7006 -6715 -6337 0
-7009 6549 0
-7009 6337 0
7009 -6549 -6337 0
-7012 6552 0
-7012 6337 0
7012 -6552 -6337 0
-7015 6680 0
-7015 6679 0
7015 -6680 -6679 0
-6557 6342 0
-6557 6666 0
6557 -6342 -6666 0
-6563 6345 0
-6563 6678 0
6563 -6345 -6678 0
-7020 6986 0
-7020 6370 0
7020 -6986 -6370 0
-7023 6989 0
-7023 6370 0
7023 -6989 -6370 0
-7026 6992 0
-7026 6370 0
7026 -6992 -6370 0
-7029 6998 0
-7029 6370 0
7029 -6998 -6370 0
-7032 7001 0
-7032 6370 0
7032 -7001 -6370 0
-7035 7004 0
-7035 6370 0
7035 -7004 -6370 0
-7038 7007 0
-7038 6370 0
7038 -7007 -6370 0
-7041 7010 0
-7041 6370 0
7041 -7010 -6370 0
-6562 6534 0
-6562 6373 0
6562 -6534 -6373 0
-6566 6375 0
-6566 6376 0
6566 -6375 -6376 0
-6565 6704 0
-6565 6379 0
6565 -6704 -6379 0
-6569 6381 0
-6569 6735 0
6569 -6381 -6735 0
-7051 6682 0
-7051 7048 0
7051 -6682 -7048 0
-7057 6738 0
-7057 7165 0
7057 -6738 -7165 0
-7059 6738 0
-7059 6931 0
7059 -6738 -6931 0
-7063 6746 0
-7063 6931 0
7063 -6746 -6931 0
-7067 6746 0
-7067 7165 0
7067 -6746 -7165 0
-6572 6399 0
-6572 6749 0
6572 -6399 -6749 0
-6568 6675 0
-6568 6403 0
6568 -6675 -6403 0
-6571 6549 0
-6571 6406 0
6571 -6549 -6406 0
-6578 6408 0
-6578 6409 0
6578 -6408 -6409 0
-6581 6411 0
-6581 6412 0
6581 -6411 -6412 0
-6577 6682 0
-6577 6415 0
6577 -6682 -6415 0
-7069 6764 0
-7069 6931 0
7069 -6764 -6931 0
-7073 6764 0
-7073 7165 0
7073 -6764 -7165 0
-6580 6715 0
-6580 6424 0
6580 -6715 -6424 0
-7075 6773 0
-7075 6931 0
7075 -6773 -6931 0
-7079 6773 0
-7079 7165 0
7079 -6773 -7165 0
-6584 6432 0
-6584 6776 0
6584 -6432 -6776 0
-7081 6779 0
-7081 6931 0
7081 -6779 -6931 0
-7085 6779 0
-7085 7165 0
7085 -6779 -7165 0
-6583 6552 0
-6583 6442 0
6583 -6552 -6442 0
-7087 6791 0
-7087 6931 0
7087 -6791 -6931 0
-7091 6791 0
-7091 7165 0
7091 -6791 -7165 0
-7093 6797 0
-7093 6931 0
7093 -6797 -6931 0
-7097 6797 0
-7097 7165 0
7097 -6797 -7165 0
-7099 6806 0
-7099 6931 0
7099 -6806 -6931 0
-7103 6806 0
-7103 7165 0
7103 -6806 -7165 0
6613 -6586 0
6613 -6587 0
-6613 6586 6587 0
6617 -6604 0
6617 -6642 0
-6617 6604 6642 0
6653 -6622 0
6653 -6858 0
-6653 6622 6858 0
6624 -6611 0
6624 -6472 0
-6624 6611 6472 0
6633 -6841 0
6633 -6594 0
-6633 6841 6594 0
6636 -6891 0
6636 -6896 0
-6636 6891 6896 0
6652 -6644 0
6652 -6649 0
6652 -6608 0
-6652 6644 6649 6608 0
6483 -6484 0
6483 -6485 0
-6483 6484 6485 0
6486 -6487 0
6486 -6488 0
-6486 6487 6488 0
6489 -6490 0
6489 -6491 0
-6489 6490 6491 0
6492 -6493 0
6492 -6494 0
-6492 6493 6494 0
6495 -6496 0
6495 -6497 0
-6495 6496 6497 0
6498 -6499 0
6498 -6500 0
-6498 6499 6500 0
6501 -6502 0
6501 -6503 0
-6501 6502 6503 0
6504 -6505 0
6504 -6506 0
-6504 6505 6506 0
6507 -6508 0
6507 -6509 0
-6507 6508 6509 0
6510 -6511 0
6510 -6512 0
-6510 6511 6512 0
6513 -6514 0
6513 -6515 0
-6513 6514 6515 0
6516 -6517 0
6516 -6518 0
-6516 6517 6518 0
6519 -6520 0
6519 -6521 0
-6519 6520 6521 0
6522 -6523 0
6522 -6524 0
-6522 6523 6524 0
6525 -6526 0
6525 -6527 0
-6525 6526 6527 0
6528 -6529 0
6528 -6530 0
-6528 6529 6530 0
6665 -6532 0
6665 -6533 0
-6665 6532 6533 0
6534 -6535 0
6534 -6536 0
-6534 6535 6536 0
6704 -6538 0
6704 -6539 0
-6704 6538 6539 0
6675 -6541 0
6675 -6542 0
-6675 6541 6542 0
6682 -6544 0
6682 -6545 0
-6682 6544 6545 0
6715 -6547 0
6715 -6548 0
-6715 6547 6548 0
6549 -6550 0
6549 -6551 0
-6549 6550 6551 0
6552 -6553 0
6552 -6554 0
-6552 6553 6554 0
6694 -6556 0
6694 -6557 0
-6694 6556 6557 0
6703 -7017 0
6703 -7018 0
-6703 7017 7018 0
6733 -6562 0
6733 -6563 0
-6733 6562 6563 0
6759 -6565 0
6759 -6566 0
-6759 6565 6566 0
6768 -6568 0
6768 -6569 0
-6768 6568 6569 0
6771 -6571 0
6771 -6572 0
-6771 6571 6572 0
6777 -6574 0
6777 -6575 0
-6777 6574 6575 0
6783 -6577 0
6783 -6578 0
-6783 6577 6578 0
6789 -6580 0
6789 -6581 0
-6789 6580 6581 0
6801 -6583 0
6801 -6584 0
-6801 6583 6584 0
6615 6586 0
6615 6587 0
-6615 -6586 -6587 0
6588 6849 0
6588 6590 0
-6588 -6849 -6590 0
6842 6849 0
6842 6895 0
-6842 -6849 -6895 0
6594 6838 0
6594 6895 0
-6594 -6838 -6895 0
6893 6598 0
6893 6622 0
-6893 -6598 -6622 0
6896 6838 0
6896 6841 0
-6896 -6838 -6841 0
6618 6604 0
6618 6642 0
-6618 -6604 -6642 0
7177 6848 0
7177 6608 0
-7177 -6848 -6608 0
6660 6842 0
6660 6611 0
-6660 -6842 -6611 0
6663 6613 0
6663 6840 0
6663 6615 0
-6663 -6613 -6840 -6615 0
7155 6617 0
7155 6618 0
-7155 -6617 -6618 0
7167 6841 0
7167 6847 0
7167 6622 0
-7167 -6841 -6847 -6622 0
6661 6624 0
6661 6841 0
-6661 -6624 -6841 0
6650 6892 0
6650 6894 0
-6650 -6892 -6894 0
6648 6893 0
6648 6894 0
-6648 -6893 -6894 0
7153 6633 0
7153 6634 0
-7153 -6633 -6634 0
6635 6636 0
6635 6642 0
-6635 -6636 -6642 0
7171 6639 0
7171 6841 0
7171 6838 0
7171 6642 0
-7171 -6639 -6841 -6838 -6642 0
7161 6644 0
7161 6650 0
7161 6648 0
-7161 -6644 -6650 -6648 0
7169 6648 0
7169 6649 0
7169 6650 0
-7169 -6648 -6649 -6650 0
7175 6652 0
7175 6653 0
-7175 -6652 -6653 0
7159 6660 0
7159 6662 0
7159 6661 0
7159 6663 0
-7159 -6660 -6662 -6661 -6663 0
6659 6660 0
6659 6661 0
6659 6662 0
6659 6663 0
-6659 -6660 -6661 -6662 -6663 0
6679 6665 0
6679 6666 0
-6679 -6665 -6666 0
6667 7047 0
6667 6682 0
-6667 -7047 -6682 0
6755 7053 0
6755 6715 0
-6755 -7053 -6715 0
6673 6715 0
6673 6675 0
6673 6682 0
6673 6704 0
-6673 -6715 -6675 -6682 -6704 0
6678 6679 0
6678 6680 0
-6678 -6679 -6680 0
6681 6682 0
6681 7049 0
-6681 -6682 -7049 0
6745 6715 0
6745 7054 0
-6745 -6715 -7054 0
6744 7017 0
6744 6692 0
-6744 -7017 -6692 0
6757 7018 0
6757 6692 0
-6757 -7018 -6692 0
6739 6694 0
6739 6802 0
-6739 -6694 -6802 0
6696 6755 0
6696 6744 0
-6696 -6755 -6744 0
6699 6745 0
6699 6757 0
-6699 -6745 -6757 0
7045 6703 0
7045 6704 0
-7045 -6703 -6704 0
6740 7019 0
6740 6731 0
-6740 -7019 -6731 0
6748 7022 0
6748 6731 0
-6748 -7022 -6731 0
6766 7025 0
6766 6731 0
-6766 -7025 -6731 0
6751 6715 0
6751 7052 0
-6751 -6715 -7052 0
6775 7028 0
6775 6731 0
-6775 -7028 -6731 0
6793 7031 0
6793 6731 0
-6793 -7031 -6731 0
6799 7034 0
6799 6731 0
-6799 -7034 -6731 0
6781 7037 0
6781 6731 0
-6781 -7037 -6731 0
6808 7040 0
6808 6731 0
-6808 -7040 -6731 0
6747 6733 0
6747 6802 0
-6747 -6733 -6802 0
6735 6996 0
6735 7045 0
-6735 -6996 -7045 0
6738 6739 0
6738 6740 0
-6738 -6739 -6740 0
6741 6750 0
6741 6751 0
6741 6744 0
6741 6745 0
-6741 -6750 -6751 -6744 -6745 0
6746 6747 0
6746 6748 0
-6746 -6747 -6748 0
6749 6750 0
6749 6751 0
6749 6752 0
6749 6753 0
-6749 -6750 -6751 -6752 -6753 0
6754 6755 0
6754 6756 0
6754 6757 0
-6754 -6755 -6756 -6757 0
6765 6759 0
6765 6802 0
-6765 -6759 -6802 0
7105 7062 0
7105 7055 0
-7105 -7062 -7055 0
6764 6765 0
6764 6766 0
-6764 -6765 -6766 0
6774 6768 0
6774 6802 0
-6774 -6768 -6802 0
6780 6771 0
6780 6802 0
-6780 -6771 -6802 0
6773 6774 0
6773 6775 0
-6773 -6774 -6775 0
6776 6777 0
6776 6778 0
-6776 -6777 -6778 0
6779 6780 0
6779 6781 0
-6779 -6780 -6781 0
6792 6783 0
6792 6802 0
-6792 -6783 -6802 0
7107 7068 0
7107 7065 0
-7107 -7068 -7065 0
6798 6789 0
6798 6802 0
-6798 -6789 -6802 0
6791 6792 0
6791 6793 0
-6791 -6792 -6793 0
7109 7074 0
7109 7071 0
-7109 -7074 -7071 0
6797 6798 0
6797 6799 0
-6797 -6798 -6799 0
6807 6801 0
6807 6802 0
-6807 -6801 -6802 0
7111 7086 0
7111 7077 0
-7111 -7086 -7077 0
6806 6807 0
6806 6808 0
-6806 -6807 -6808 0
7113 7092 0
7113 7089 0
-7113 -7092 -7089 0
7115 7080 0
7115 7095 0
-7115 -7080 -7095 0
7117 7098 0
7117 7083 0
-7117 -7098 -7083 0
7119 6927 0
7119 7101 0
-7119 -6927 -7101 0
-6821 -6822 0
-6821 -6823 0
-6821 -6824 0
6821 6822 6823 6824 0
-6825 -6826 0
-6825 -6827 0
-6825 -6828 0
6825 6826 6827 6828 0
-6829 -6830 0
-6829 -6831 0
-6829 -6832 0
6829 6830 6831 6832 0
-6833 -6834 0
-6833 -6835 0
-6833 -6836 0
6833 6834 6835 6836 0
-6837 -6838 0
-6837 -6839 0
6837 6838 6839 0
-6840 -6841 0
-6840 -6842 0
6840 6841 6842 0
-6843 -6844 0
-6843 -6845 0
-6843 -6846 0
6843 6844 6845 6846 0
-6847 -6848 0
-6847 -6849 0
-6847 -6892 0
-6847 -6895 0
6847 6848 6849 6892 6895 0
-6852 -6853 0
-6852 -6854 0
-6852 -6855 0
6852 6853 6854 6855 0
-6856 -6892 0
-6856 -6858 0
6856 6892 6858 0
-6859 -6860 0
-6859 -6861 0
-6859 -6862 0
6859 6860 6861 6862 0
-6863 -6864 0
-6863 -6865 0
-6863 -6866 0
6863 6864 6865 6866 0
-6867 -6868 0
-6867 -6869 0
6867 6868 6869 0
-6870 -6871 0
-6870 -6872 0
6870 6871 6872 0
-6873 -6874 0
-6873 -6875 0
6873 6874 6875 0
-6876 -6877 0
-6876 -6878 0
6876 6877 6878 0
-6879 -6880 0
-6879 -6881 0
6879 6880 6881 0
-6882 -6883 0
-6882 -6884 0
6882 6883 6884 0
-6885 -6886 0
-6885 -6887 0
6885 6886 6887 0
-6888 -6889 0
-6888 -6890 0
6888 6889 6890 0
-6891 -6892 0
-6891 -6893 0
6891 6892 6893 0
-6894 -6895 0
-6894 -6896 0
6894 6895 6896 0
-6897 -6898 0
-6897 -6899 0
6897 6898 6899 0
-6900 -6901 0
-6900 -6902 0
6900 6901 6902 0
-6903 -6904 0
-6903 -6905 0
6903 6904 6905 0
-6906 -6907 0
-6906 -6908 0
6906 6907 6908 0
-7163 -6932 0
-7163 -6911 0
7163 6932 6911 0
-6912 -6913 0
-6912 -6914 0
6912 6913 6914 0
-6915 -6916 0
-6915 -6917 0
6915 6916 6917 0
-6918 -6919 0
-6918 -6920 0
6918 6919 6920 0
-6921 -6922 0
-6921 -6923 0
6921 6922 6923 0
-6924 -6925 0
-6924 -6931 0
6924 6925 6931 0
-6927 -6928 0
-6927 -6929 0
6927 6928 6929 0
-6930 -6931 0
-6930 -6932 0
-6930 -7165 0
6930 6931 6932 7165 0
-6934 -6935 0
-6934 -6936 0
-6934 -6937 0
6934 6935 6936 6937 0
-6938 -6939 0
-6938 -6940 0
-6938 -6941 0
6938 6939 6940 6941 0
-6942 -6943 0
-6942 -6944 0
-6942 -6945 0
6942 6943 6944 6945 0
-6946 -6947 0
-6946 -6948 0
-6946 -6949 0
6946 6947 6948 6949 0
-6950 -6951 0
-6950 -6952 0
-6950 -6953 0
6950 6951 6952 6953 0
-6954 -6955 0
-6954 -6956 0
-6954 -6957 0
6954 6955 6956 6957 0
-6958 -6959 0
-6958 -6960 0
-6958 -6961 0
6958 6959 6960 6961 0
-6962 -6963 0
-6962 -6964 0
6962 6963 6964 0
-6965 -6966 0
-6965 -6967 0
6965 6966 6967 0
-6968 -6969 0
-6968 -6970 0
6968 6969 6970 0
-6971 -6972 0
-6971 -6973 0
6971 6972 6973 0
-6974 -6975 0
-6974 -6976 0
6974 6975 6976 0
-6977 -6978 0
-6977 -6979 0
6977 6978 6979 0
-6980 -6981 0
-6980 -6982 0
6980 6981 6982 0
-6983 -6984 0
-6983 -6985 0
6983 6984 6985 0
-6986 -6987 0
-6986 -6988 0
6986 6987 6988 0
-6989 -6990 0
-6989 -6991 0
6989 6990 6991 0
-6992 -6993 0
-6992 -6994 0
6992 6993 6994 0
-7049 -6996 0
-7049 -7044 0
7049 6996 7044 0
-6998 -6999 0
-6998 -7000 0
6998 6999 7000 0
-7001 -7002 0
-7001 -7003 0
7001 7002 7003 0
-7004 -7005 0
-7004 -7006 0
7004 7005 7006 0
-7007 -7008 0
-7007 -7009 0
7007 7008 7009 0
-7010 -7011 0
-7010 -7012 0
7010 7011 7012 0
-7018 -7014 0
-7018 -7015 0
7018 7014 7015 0
-7016 -7017 0
-7016 -7018 0
7016 7017 7018 0
-7019 -7020 0
-7019 -7021 0
7019 7020 7021 0
-7022 -7023 0
-7022 -7024 0
7022 7023 7024 0
-7025 -7026 0
-7025 -7027 0
7025 7026 7027 0
-7028 -7029 0
-7028 -7030 0
7028 7029 7030 0
-7031 -7032 0
-7031 -7033 0
7031 7032 7033 0
-7034 -7035 0
-7034 -7036 0
7034 7035 7036 0
-7037 -7038 0
-7037 -7039 0
7037 7038 7039 0
-7040 -7041 0
-7040 -7042 0
7040 7041 7042 0
-7048 -7044 0
-7048 -7045 0
7048 7044 7045 0
-7046 -7047 0
-7046 -7048 0
-7046 -7049 0
7046 7047 7048 7049 0
-7050 -7051 0
-7050 -7052 0
-7050 -7053 0
-7050 -7054 0
7050 7051 7052 7053 7054 0
-7055 -7056 0
-7055 -7057 0
7055 7056 7057 0
-7058 -7059 0
-7058 -7060 0
-7058 -7061 0
7058 7059 7060 7061 0
-7062 -7063 0
-7062 -7064 0
7062 7063 7064 0
-7065 -7066 0
-7065 -7067 0
7065 7066 7067 0
-7068 -7069 0
-7068 -7070 0
7068 7069 7070 0
-7071 -7072 0
-7071 -7073 0
7071 7072 7073 0
-7074 -7075 0
-7074 -7076 0
7074 7075 7076 0
-7077 -7078 0
-7077 -7079 0
7077 7078 7079 0
-7080 -7081 0
-7080 -7082 0
7080 7081 7082 0
-7083 -7084 0
-7083 -7085 0
7083 7084 7085 0
-7086 -7087 0
-7086 -7088 0
7086 7087 7088 0
-7089 -7090 0
-7089 -7091 0
7089 7090 7091 0
-7092 -7093 0
-7092 -7094 0
7092 7093 7094 0
-7095 -7096 0
-7095 -7097 0
7095 7096 7097 0
-7098 -7099 0
-7098 -7100 0
7098 7099 7100 0
-7101 -7102 0
-7101 -7103 0
7101 7102 7103 0
-7105 7790 0
7105 -7790 0
-7107 7793 0
7107 -7793 0
-7109 7796 0
7109 -7796 0
-7111 7799 0
7111 -7799 0
-7113 7802 0
7113 -7802 0
-7115 7805 0
7115 -7805 0
-7117 7808 0
7117 -7808 0
-7119 7811 0
7119 -7811 0
-7121 8257 0
7121 -8257 0
-7123 7745 0
7123 -7745 0
-7125 7748 0
7125 -7748 0
-7127 7751 0
7127 -7751 0
-7129 7754 0
7129 -7754 0
-7131 7757 0
7131 -7757 0
-7133 7760 0
7133 -7760 0
-7135 7763 0
7135 -7763 0
-7137 7694 0
7137 -7694 0
-7139 7697 0
7139 -7697 0
-7141 7700 0
7141 -7700 0
-7143 7703 0
7143 -7703 0
-7145 7706 0
7145 -7706 0
-7147 7709 0
7147 -7709 0
-7149 7712 0
7149 -7712 0
-7151 8256 0
7151 -8256 0
-7153 8519 0
7153 -8519 0
-7155 8274 0
7155 -8274 0
-7157 8565 0
7157 -8565 0
-7159 8260 0
7159 -8260 0
-7161 8278 0
7161 -8278 0
-7163 7428 0
7163 -7428 0
-7165 7164 0
7165 -7164 0
-7167 7446 0
7167 -7446 0
-7169 7500 0
7169 -7500 0
-7171 7593 0
7171 -7593 0
-7173 7473 0
7173 -7473 0
-7175 7440 0
7175 -7440 0
-7177 7464 0
7177 -7464 0
7643 7592 0
-7643 -7592 0
8319 8257 0
-8319 -8257 0
8568 8260 0
-8568 -8260 0
8508 8519 0
-8508 -8519 0
7617 7566 0
-7617 -7566 0
8292 7189 0
-8292 -7189 0
8511 8274 0
-8511 -8274 0
8312 8565 0
-8312 -8565 0
8518 8268 0
-8518 -8268 0
8528 8278 0
-8528 -8278 0
8281 8285 0
-8281 -8285 0
8142 8258 0
-8142 -8258 0
8304 8507 0
-8304 -8507 0
8314 8510 0
-8314 -8510 0
8843 8526 0
-8843 -8526 0
8807 8537 0
-8807 -8537 0
8809 8540 0
-8809 -8540 0
8811 8543 0
-8811 -8543 0
8813 8546 0
-8813 -8546 0
8815 8549 0
-8815 -8549 0
8817 8552 0
-8817 -8552 0
8819 8555 0
-8819 -8555 0
8821 8558 0
-8821 -8558 0
8309 8561 0
-8309 -8561 0
8332 8567 0
-8332 -8567 0
7235 8570 0
-7235 -8570 0
8827 8305 0
-8827 -8305 0
8401 7235 0
-8401 -7235 0
7241 7235 0
-7241 -7235 0
7668 8573 0
-7668 -8573 0
7245 8576 0
-7245 -8576 0
8472 7241 0
-8472 -7241 0
7980 7245 0
-7980 -7245 0
7287 7245 0
-7287 -7245 0
8601 8582 0
-8601 -8582 0
7716 8585 0
-7716 -8585 0
8336 8588 0
-8336 -8588 0
7295 8588 0
-7295 -8588 0
7887 8154 0
-7887 -8154 0
7718 8154 0
-7718 -8154 0
7893 8157 0
-7893 -8157 0
7721 8157 0
-7721 -8157 0
7899 8160 0
-7899 -8160 0
7724 8160 0
-7724 -8160 0
7905 8163 0
-7905 -8163 0
7727 8163 0
-7727 -8163 0
7911 8166 0
-7911 -8166 0
7730 8166 0
-7730 -8166 0
7917 8169 0
-7917 -8169 0
7733 8169 0
-7733 -8169 0
7923 8172 0
-7923 -8172 0
7736 8172 0
-7736 -8172 0
7929 8175 0
-7929 -8175 0
7739 8175 0
-7739 -8175 0
8007 7287 0
-8007 -7287 0
8835 8591 0
-8835 -8591 0
7983 8336 0
-7983 -8336 0
8040 7295 0
-8040 -7295 0
7313 7295 0
-7313 -7295 0
7814 8155 0
-7814 -8155 0
7817 8158 0
-7817 -8158 0
7820 8161 0
-7820 -8161 0
7823 8164 0
-7823 -8164 0
7826 8167 0
-7826 -8167 0
7829 8170 0
-7829 -8170 0
7832 8173 0
-7832 -8173 0
7835 8176 0
-7835 -8176 0
7884 7313 0
-7884 -7313 0
7839 7884 0
-7839 -7884 0
7842 7884 0
-7842 -7884 0
7845 7884 0
-7845 -7884 0
7848 7884 0
-7848 -7884 0
7851 7884 0
-7851 -7884 0
7854 7884 0
-7854 -7884 0
7857 7884 0
-7857 -7884 0
7860 7884 0
-7860 -7884 0
8791 8604 0
-8791 -8604 0
8793 8608 0
-8793 -8608 0
8795 8612 0
-8795 -8612 0
8797 8616 0
-8797 -8616 0
8799 8620 0
-8799 -8620 0
8801 8624 0
-8801 -8624 0
8803 8628 0
-8803 -8628 0
7934 8177 0
-7934 -8177 0
7940 8180 0
-7940 -8180 0
7946 8183 0
-7946 -8183 0
7952 8186 0
-7952 -8186 0
7958 8189 0
-7958 -8189 0
7964 8192 0
-7964 -8192 0
7970 8195 0
-7970 -8195 0
7976 8198 0
-7976 -8198 0
8350 7937 0
-8350 -7937 0
8666 7949 0
-8666 -7949 0
8420 7967 0
-8420 -7967 0
8448 7973 0
-8448 -7973 0
8012 8335 0
-8012 -8335 0
8684 8204 0
-8684 -8204 0
8015 8204 0
-8015 -8204 0
8045 8374 0
-8045 -8374 0
8714 8345 0
-8714 -8345 0
8051 8345 0
-8051 -8345 0
8078 8352 0
-8078 -8352 0
8081 8385 0
-8081 -8385 0
8244 8219 0
-8244 -8219 0
8069 8219 0
-8069 -8219 0
8102 8222 0
-8102 -8222 0
8724 8337 0
-8724 -8337 0
8362 8343 0
-8362 -8343 0
8043 8348 0
-8043 -8348 0
8722 8351 0
-8722 -8351 0
8046 8686 0
-8046 -8686 0
8422 8366 0
-8422 -8366 0
8049 8046 0
-8049 -8046 0
8423 8369 0
-8423 -8369 0
8073 8405 0
-8073 -8405 0
8426 8411 0
-8426 -8411 0
8076 8419 0
-8076 -8419 0
8079 8716 0
-8079 -8716 0
8082 8720 0
-8082 -8720 0
8085 8079 0
-8085 -8079 0
8805 8728 0
-8805 -8728 0
8245 8424 0
-8245 -8424 0
8094 8082 0
-8094 -8082 0
8112 8446 0
-8112 -8446 0
-8592 7592 0
-8592 7428 0
8592 -7592 -7428 0
-8530 7547 0
-8530 7763 0
8530 -7547 -7763 0
-8740 7571 0
-8740 8602 0
8740 -7571 -8602 0
-8504 7547 0
-8504 8257 0
8504 -7547 -8257 0
-8589 7592 0
-8589 7440 0
8589 -7592 -7440 0
-8523 7547 0
-8523 7754 0
8523 -7547 -7754 0
-8574 7592 0
-8574 7446 0
8574 -7592 -7446 0
-8493 7544 0
-8493 7712 0
8493 -7544 -7712 0
-8531 7544 0
-8531 8256 0
8531 -7544 -8256 0
-8496 7547 0
-8496 7751 0
8496 -7547 -7751 0
-8752 7583 0
-8752 8602 0
8752 -7583 -8602 0
-8515 7544 0
-8515 7709 0
8515 -7544 -7709 0
-8571 7592 0
-8571 7464 0
8571 -7592 -7464 0
-8494 7559 0
-8494 7808 0
8494 -7559 -7808 0
-8525 7559 0
-8525 7802 0
8525 -7559 -7802 0
-8577 7592 0
-8577 7473 0
8577 -7592 -7473 0
-8492 7547 0
-8492 7760 0
8492 -7547 -7760 0
-8764 7580 0
-8764 8602 0
8764 -7580 -8602 0
-8535 7544 0
-8535 7697 0
8535 -7544 -7697 0
-8498 7559 0
-8498 7799 0
8498 -7559 -7799 0
-8746 7574 0
-8746 8602 0
8746 -7574 -8602 0
-8497 7544 0
-8497 7703 0
8497 -7544 -7703 0
-8516 7559 0
-8516 7805 0
8516 -7559 -7805 0
-8502 7559 0
-8502 7796 0
8502 -7559 -7796 0
-8586 7592 0
-8586 7500 0
8586 -7592 -7500 0
-8770 7586 0
-8770 8602 0
8770 -7586 -8602 0
-8506 7559 0
-8506 7790 0
8506 -7559 -7790 0
-8501 7544 0
-8501 7700 0
8501 -7544 -7700 0
-8542 7571 0
-8542 7566 0
8542 -7571 -7566 0
-8545 7574 0
-8545 7566 0
8545 -7574 -7566 0
-8551 7580 0
-8551 7566 0
8551 -7580 -7566 0
-8554 7583 0
-8554 7566 0
8554 -7583 -7566 0
-8557 7586 0
-8557 7566 0
8557 -7586 -7566 0
-8500 7547 0
-8500 7748 0
8500 -7547 -7748 0
-8505 7544 0
-8505 7694 0
8505 -7544 -7694 0
-8509 8274 0
-8509 8565 0
8509 -8274 -8565 0
-8599 7589 0
-8599 8602 0
8599 -7589 -8602 0
-8560 7589 0
-8560 7566 0
8560 -7589 -7566 0
-8514 7547 0
-8514 7757 0
8514 -7547 -7757 0
-8524 7544 0
-8524 7706 0
8524 -7544 -7706 0
-8534 7547 0
-8534 7745 0
8534 -7547 -7745 0
-8734 7568 0
-8734 8602 0
8734 -7568 -8602 0
-8539 7568 0
-8539 7566 0
8539 -7568 -7566 0
-8532 7559 0
-8532 7811 0
8532 -7559 -7811 0
-8536 7559 0
-8536 7793 0
8536 -7559 -7793 0
-8758 7577 0
-8758 8602 0
8758 -7577 -8602 0
-8548 7577 0
-8548 7566 0
8548 -7577 -7566 0
-8606 7568 0
-8606 8595 0
8606 -7568 -8595 0
-8610 7571 0
-8610 8595 0
8610 -7571 -8595 0
-8614 7574 0
-8614 8595 0
8614 -7574 -8595 0
-8618 7577 0
-8618 8595 0
8618 -7577 -8595 0
-8622 7580 0
-8622 8595 0
8622 -7580 -8595 0
-8626 7583 0
-8626 8595 0
8626 -7583 -8595 0
-8630 7586 0
-8630 8595 0
8630 -7586 -8595 0
-8730 7589 0
-8730 8595 0
8730 -7589 -8595 0
-8583 7592 0
-8583 7593 0
8583 -7592 -7593 0
-8538 7694 0
-8538 7617 0
8538 -7694 -7617 0
-8541 7697 0
-8541 7617 0
8541 -7697 -7617 0
-8544 7700 0
-8544 7617 0
8544 -7700 -7617 0
-8547 7703 0
-8547 7617 0
8547 -7703 -7617 0
-8550 7706 0
-8550 7617 0
8550 -7706 -7617 0
-8553 7709 0
-8553 7617 0
8553 -7709 -7617 0
-8556 7712 0
-8556 7617 0
8556 -7712 -7617 0
-8559 8256 0
-8559 7617 0
8559 -8256 -7617 0
-8569 8264 0
-8569 8288 0
8569 -8264 -8288 0
-8572 7643 0
-8572 8847 0
8572 -7643 -8847 0
-8575 7643 0
-8575 8837 0
8575 -7643 -8837 0
-8578 7643 0
-8578 8843 0
8578 -7643 -8843 0
-8581 8320 0
-8581 8318 0
8581 -8320 -8318 0
-8584 7643 0
-8584 8841 0
8584 -7643 -8841 0
-8587 7643 0
-8587 8839 0
8587 -7643 -8839 0
-8590 7643 0
-8590 8845 0
8590 -7643 -8845 0
-8593 7643 0
-8593 8833 0
8593 -7643 -8833 0
-8154 7790 0
-8154 7668 0
8154 -7790 -7668 0
-8157 7793 0
-8157 7668 0
8157 -7793 -7668 0
-8160 7796 0
-8160 7668 0
8160 -7796 -7668 0
-8163 7799 0
-8163 7668 0
8163 -7799 -7668 0
-8166 7802 0
-8166 7668 0
8166 -7802 -7668 0
-8169 7805 0
-8169 7668 0
8169 -7805 -7668 0
-8172 7808 0
-8172 7668 0
8172 -7808 -7668 0
-8175 7811 0
-8175 7668 0
8175 -7811 -7668 0
-8598 8329 0
-8598 8601 0
8598 -8329 -8601 0
-8605 7745 0
-8605 8601 0
8605 -7745 -8601 0
-8609 7748 0
-8609 8601 0
8609 -7748 -8601 0
-8613 7751 0
-8613 8601 0
8613 -7751 -8601 0
-8617 7754 0
-8617 8601 0
8617 -7754 -8601 0
-8621 7757 0
-8621 8601 0
8621 -7757 -8601 0
-8625 7760 0
-8625 8601 0
8625 -7760 -8601 0
-8629 7763 0
-8629 8601 0
8629 -7763 -8601 0
-8155 7694 0
-8155 7716 0
8155 -7694 -7716 0
-8158 7697 0
-8158 7716 0
8158 -7697 -7716 0
-8161 7700 0
-8161 7716 0
8161 -7700 -7716 0
-8164 7703 0
-8164 7716 0
8164 -7703 -7716 0
-8167 7706 0
-8167 7716 0
8167 -7706 -7716 0
-8170 7709 0
-8170 7716 0
8170 -7709 -7716 0
-8173 7712 0
-8173 7716 0
8173 -7712 -7716 0
-8176 8256 0
-8176 7716 0
8176 -8256 -7716 0
-8634 7718 0
-8634 8007 0
8634 -7718 -8007 0
-8637 7721 0
-8637 8007 0
8637 -7721 -8007 0
-8640 7724 0
-8640 8007 0
8640 -7724 -8007 0
-8643 7727 0
-8643 8007 0
8643 -7727 -8007 0
-8646 7730 0
-8646 8007 0
8646 -7730 -8007 0
-8649 7733 0
-8649 8007 0
8649 -7733 -8007 0
-8652 7736 0
-8652 8007 0
8652 -7736 -8007 0
-8655 7739 0
-8655 8007 0
8655 -7739 -8007 0
-8607 8257 0
-8607 8594 0
8607 -8257 -8594 0
-8611 7745 0
-8611 8594 0
8611 -7745 -8594 0
-8615 7748 0
-8615 8594 0
8615 -7748 -8594 0
-8619 7751 0
-8619 8594 0
8619 -7751 -8594 0
-8623 7754 0
-8623 8594 0
8623 -7754 -8594 0
-8627 7757 0
-8627 8594 0
8627 -7757 -8594 0
-8631 7760 0
-8631 8594 0
8631 -7760 -8594 0
-8731 7763 0
-8731 8594 0
8731 -7763 -8594 0
-8633 8153 0
-8633 7980 0
8633 -8153 -7980 0
-8636 8156 0
-8636 7980 0
8636 -8156 -7980 0
-8639 8159 0
-8639 7980 0
8639 -8159 -7980 0
-8642 8162 0
-8642 7980 0
8642 -8162 -7980 0
-8645 8165 0
-8645 7980 0
8645 -8165 -7980 0
-8648 8168 0
-8648 7980 0
8648 -8168 -7980 0
-8651 8171 0
-8651 7980 0
8651 -8171 -7980 0
-8654 8174 0
-8654 7980 0
8654 -8174 -7980 0
-8726 7790 0
-8726 8600 0
8726 -7790 -8600 0
-8736 7793 0
-8736 8600 0
8736 -7793 -8600 0
-8742 7796 0
-8742 8600 0
8742 -7796 -8600 0
-8748 7799 0
-8748 8600 0
8748 -7799 -8600 0
-8760 7802 0
-8760 8600 0
8760 -7802 -8600 0
-8766 7805 0
-8766 8600 0
8766 -7805 -8600 0
-8754 7808 0
-8754 8600 0
8754 -7808 -8600 0
-8772 7811 0
-8772 8600 0
8772 -7811 -8600 0
-8179 7814 0
-8179 7884 0
8179 -7814 -7884 0
-8182 7817 0
-8182 7884 0
8182 -7817 -7884 0
-8185 7820 0
-8185 7884 0
8185 -7820 -7884 0
-8188 7823 0
-8188 7884 0
8188 -7823 -7884 0
-8191 7826 0
-8191 7884 0
8191 -7826 -7884 0
-8194 7829 0
-8194 7884 0
8194 -7829 -7884 0
-8197 7832 0
-8197 7884 0
8197 -7832 -7884 0
-8200 7835 0
-8200 7884 0
8200 -7835 -7884 0
-8178 8155 0
-8178 7839 0
8178 -8155 -7839 0
-8181 8158 0
-8181 7842 0
8181 -8158 -7842 0
-8184 8161 0
-8184 7845 0
8184 -8161 -7845 0
-8187 8164 0
-8187 7848 0
8187 -8164 -7848 0
-8190 8167 0
-8190 7851 0
8190 -8167 -7851 0
-8193 8170 0
-8193 7854 0
8193 -8170 -7854 0
-8196 8173 0
-8196 7857 0
8196 -8173 -7857 0
-8199 8176 0
-8199 7860 0
8199 -8176 -7860 0
-8691 8632 0
-8691 7884 0
8691 -8632 -7884 0
-8694 8635 0
-8694 7884 0
8694 -8635 -7884 0
-8697 8638 0
-8697 7884 0
8697 -8638 -7884 0
-8700 8641 0
-8700 7884 0
8700 -8641 -7884 0
-8703 8644 0
-8703 7884 0
8703 -8644 -7884 0
-8706 8647 0
-8706 7884 0
8706 -8647 -7884 0
-8709 8650 0
-8709 7884 0
8709 -8650 -7884 0
-8712 8653 0
-8712 7884 0
8712 -8653 -7884 0
-8202 8177 0
-8202 7887 0
8202 -8177 -7887 0
-7937 8177 0
-7937 8154 0
7937 -8177 -8154 0
-8205 8180 0
-8205 7893 0
8205 -8180 -7893 0
-8687 8180 0
-8687 8157 0
8687 -8180 -8157 0
-8208 8183 0
-8208 7899 0
8208 -8183 -7899 0
-7949 8183 0
-7949 8160 0
7949 -8183 -8160 0
-8211 8186 0
-8211 7905 0
8211 -8186 -7905 0
-8717 8186 0
-8717 8163 0
8717 -8186 -8163 0
-8214 8189 0
-8214 7911 0
8214 -8189 -7911 0
-8723 8189 0
-8723 8166 0
8723 -8189 -8166 0
-8217 8192 0
-8217 7917 0
8217 -8192 -7917 0
-7967 8192 0
-7967 8169 0
7967 -8192 -8169 0
-8220 8195 0
-8220 7923 0
8220 -8195 -7923 0
-7973 8195 0
-7973 8172 0
7973 -8195 -8172 0
-8223 8198 0
-8223 7929 0
8223 -8198 -7929 0
-7979 8198 0
-7979 8175 0
7979 -8198 -8175 0
-8203 7934 0
-8203 8154 0
8203 -7934 -8154 0
-8657 7937 0
-8657 7980 0
8657 -7937 -7980 0
-8206 7940 0
-8206 8157 0
8206 -7940 -8157 0
-8660 8687 0
-8660 7980 0
8660 -8687 -7980 0
-8209 7946 0
-8209 8160 0
8209 -7946 -8160 0
-8663 7949 0
-8663 7980 0
8663 -7949 -7980 0
-8212 7952 0
-8212 8163 0
8212 -7952 -8163 0
-8669 8717 0
-8669 7980 0
8669 -8717 -7980 0
-8215 7958 0
-8215 8166 0
8215 -7958 -8166 0
-8672 8723 0
-8672 7980 0
8672 -8723 -7980 0
-8218 7964 0
-8218 8169 0
8218 -7964 -8169 0
-8675 7967 0
-8675 7980 0
8675 -7967 -7980 0
-8221 7970 0
-8221 8172 0
8221 -7970 -8172 0
-8678 7973 0
-8678 7980 0
8678 -7973 -7980 0
-8224 7976 0
-8224 8175 0
8224 -7976 -8175 0
-8681 7979 0
-8681 7980 0
8681 -7979 -7980 0
-8226 8335 0
-8226 7983 0
8226 -8335 -7983 0
-8658 8335 0
-8658 8007 0
8658 -8335 -8007 0
-8661 8204 0
-8661 8007 0
8661 -8204 -8007 0
-8664 8374 0
-8664 8007 0
8664 -8374 -8007 0
-8670 8345 0
-8670 8007 0
8670 -8345 -8007 0
-8673 8352 0
-8673 8007 0
8673 -8352 -8007 0
-8676 8385 0
-8676 8007 0
8676 -8385 -8007 0
-8679 8219 0
-8679 8007 0
8679 -8219 -8007 0
-8682 8222 0
-8682 8007 0
8682 -8222 -8007 0
-8685 8350 0
-8685 8349 0
8685 -8350 -8349 0
-8227 8012 0
-8227 8336 0
8227 -8012 -8336 0
-8233 8015 0
-8233 8348 0
8233 -8015 -8348 0
-8690 8656 0
-8690 8040 0
8690 -8656 -8040 0
-8693 8659 0
-8693 8040 0
8693 -8659 -8040 0
-8696 8662 0
-8696 8040 0
8696 -8662 -8040 0
-8699 8668 0
-8699 8040 0
8699 -8668 -8040 0
-8702 8671 0
-8702 8040 0
8702 -8671 -8040 0
-8705 8674 0
-8705 8040 0
8705 -8674 -8040 0
-8708 8677 0
-8708 8040 0
8708 -8677 -8040 0
-8711 8680 0
-8711 8040 0
8711 -8680 -8040 0
-8232 8204 0
-8232 8043 0
8232 -8204 -8043 0
-8236 8045 0
-8236 8046 0
8236 -8045 -8046 0
-8235 8374 0
-8235 8049 0
8235 -8374 -8049 0
-8239 8051 0
-8239 8405 0
8239 -8051 -8405 0
-8721 8352 0
-8721 8718 0
8721 -8352 -8718 0
-8727 8408 0
-8727 8835 0
8727 -8408 -8835 0
-8729 8408 0
-8729 8601 0
8729 -8408 -8601 0
-8733 8416 0
-8733 8601 0
8733 -8416 -8601 0
-8737 8416 0
-8737 8835 0
8737 -8416 -8835 0
-8242 8069 0
-8242 8419 0
8242 -8069 -8419 0
-8238 8345 0
-8238 8073 0
8238 -8345 -8073 0
-8241 8219 0
-8241 8076 0
8241 -8219 -8076 0
-8248 8078 0
-8248 8079 0
8248 -8078 -8079 0
-8251 8081 0
-8251 8082 0
8251 -8081 -8082 0
-8247 8352 0
-8247 8085 0
8247 -8352 -8085 0
-8739 8434 0
-8739 8601 0
8739 -8434 -8601 0
-8743 8434 0
-8743 8835 0
8743 -8434 -8835 0
-8250 8385 0
-8250 8094 0
8250 -8385 -8094 0
-8745 8443 0
-8745 8601 0
8745 -8443 -8601 0
-8749 8443 0
-8749 8835 0
8749 -8443 -8835 0
-8254 8102 0
-8254 8446 0
8254 -8102 -8446 0
-8751 8449 0
-8751 8601 0
8751 -8449 -8601 0
-8755 8449 0
-8755 8835 0
8755 -8449 -8835 0
-8253 8222 0
-8253 8112 0
8253 -8222 -8112 0
-8757 8461 0
-8757 8601 0
8757 -8461 -8601 0
-8761 8461 0
-8761 8835 0
8761 -8461 -8835 0
-8763 8467 0
-8763 8601 0
8763 -8467 -8601 0
-8767 8467 0
-8767 8835 0
8767 -8467 -8835 0
-8769 8476 0
-8769 8601 0
8769 -8476 -8601 0
-8773 8476 0
-8773 8835 0
8773 -8476 -8835 0
8283 -8256 0
8283 -8257 0
-8283 8256 8257 0
8287 -8274 0
8287 -8312 0
-8287 8274 8312 0
8323 -8292 0
8323 -8528 0
-8323 8292 8528 0
8294 -8281 0
8294 -8142 0
-8294 8281 8142 0
8303 -8511 0
8303 -8264 0
-8303 8511 8264 0
8306 -8561 0
8306 -8566 0
-8306 8561 8566 0
8322 -8314 0
8322 -8319 0
8322 -8278 0
-8322 8314 8319 8278 0
8153 -8154 0
8153 -8155 0
-8153 8154 8155 0
8156 -8157 0
8156 -8158 0
-8156 8157 8158 0
8159 -8160 0
8159 -8161 0
-8159 8160 8161 0
8162 -8163 0
8162 -8164 0
-8162 8163 8164 0
8165 -8166 0
8165 -8167 0
-8165 8166 8167 0
8168 -8169 0
8168 -8170 0
-8168 8169 8170 0
8171 -8172 0
8171 -8173 0
-8171 8172 8173 0
8174 -8175 0
8174 -8176 0
-8174 8175 8176 0
8177 -8178 0
8177 -8179 0
-8177 8178 8179 0
8180 -8181 0
8180 -8182 0
-8180 8181 8182 0
8183 -8184 0
8183 -8185 0
-8183 8184 8185 0
8186 -8187 0
8186 -8188 0
-8186 8187 8188 0
8189 -8190 0
8189 -8191 0
-8189 8190 8191 0
8192 -8193 0
8192 -8194 0
-8192 8193 8194 0
8195 -8196 0
8195 -8197 0
-8195 8196 8197 0
8198 -8199 0
8198 -8200 0
-8198 8199 8200 0
8335 -8202 0
8335 -8203 0
-8335 8202 8203 0
8204 -8205 0
8204 -8206 0
-8204 8205 8206 0
8374 -8208 0
8374 -8209 0
-8374 8208 8209 0
8345 -8211 0
8345 -8212 0
-8345 8211 8212 0
8352 -8214 0
8352 -8215 0
-8352 8214 8215 0
8385 -8217 0
8385 -8218 0
-8385 8217 8218 0
8219 -8220 0
8219 -8221 0
-8219 8220 8221 0
8222 -8223 0
8222 -8224 0
-8222 8223 8224 0
8364 -8226 0
8364 -8227 0
-8364 8226 8227 0
8373 -8687 0
8373 -8688 0
-8373 8687 8688 0
8403 -8232 0
8403 -8233 0
-8403 8232 8233 0
8429 -8235 0
8429 -8236 0
-8429 8235 8236 0
8438 -8238 0
8438 -8239 0
-8438 8238 8239 0
8441 -8241 0
8441 -8242 0
-8441 8241 8242 0
8447 -8244 0
8447 -8245 0
-8447 8244 8245 0
8453 -8247 0
8453 -8248 0
-8453 8247 8248 0
8459 -8250 0
8459 -8251 0
-8459 8250 8251 0
8471 -8253 0
8471 -8254 0
-8471 8253 8254 0
8285 8256 0
8285 8257 0
-8285 -8256 -8257 0
8258 8519 0
8258 8260 0
-8258 -8519 -8260 0
8512 8519 0
8512 8565 0
-8512 -8519 -8565 0
8264 8508 0
8264 8565 0
-8264 -8508 -8565 0
8563 8268 0
8563 8292 0
-8563 -8268 -8292 0
8566 8508 0
8566 8511 0
-8566 -8508 -8511 0
8288 8274 0
8288 8312 0
-8288 -8274 -8312 0
8847 8518 0
8847 8278 0
-8847 -8518 -8278 0
8330 8512 0
8330 8281 0
-8330 -8512 -8281 0
8333 8283 0
8333 8510 0
8333 8285 0
-8333 -8283 -8510 -8285 0
8825 8287 0
8825 8288 0
-8825 -8287 -8288 0
8837 8511 0
8837 8517 0
8837 8292 0
-8837 -8511 -8517 -8292 0
8331 8294 0
8331 8511 0
-8331 -8294 -8511 0
8320 8562 0
8320 8564 0
-8320 -8562 -8564 0
8318 8563 0
8318 8564 0
-8318 -8563 -8564 0
8823 8303 0
8823 8304 0
-8823 -8303 -8304 0
8305 8306 0
8305 8312 0
-8305 -8306 -8312 0
8841 8309 0
8841 8511 0
8841 8508 0
8841 8312 0
-8841 -8309 -8511 -8508 -8312 0
8831 8314 0
8831 8320 0
8831 8318 0
-8831 -8314 -8320 -8318 0
8839 8318 0
8839 8319 0
8839 8320 0
-8839 -8318 -8319 -8320 0
8845 8322 0
8845 8323 0
-8845 -8322 -8323 0
8829 8330 0
8829 8332 0
8829 8331 0
8829 8333 0
-8829 -8330 -8332 -8331 -8333 0
8329 8330 0
8329 8331 0
8329 8332 0
8329 8333 0
-8329 -8330 -8331 -8332 -8333 0
8349 8335 0
8349 8336 0
-8349 -8335 -8336 0
8337 8717 0
8337 8352 0
-8337 -8717 -8352 0
8425 8723 0
8425 8385 0
-8425 -8723 -8385 0
8343 8385 0
8343 8345 0
8343 8352 0
8343 8374 0
-8343 -8385 -8345 -8352 -8374 0
8348 8349 0
8348 8350 0
-8348 -8349 -8350 0
8351 8352 0
8351 8719 0
-8351 -8352 -8719 0
8415 8385 0
8415 8724 0
-8415 -8385 -8724 0
8414 8687 0
8414 8362 0
-8414 -8687 -8362 0
8427 8688 0
8427 8362 0
-8427 -8688 -8362 0
8409 8364 0
8409 8472 0
-8409 -8364 -8472 0
8366 8425 0
8366 8414 0
-8366 -8425 -8414 0
8369 8415 0
8369 8427 0
-8369 -8415 -8427 0
8715 8373 0
8715 8374 0
-8715 -8373 -8374 0
8410 8689 0
8410 8401 0
-8410 -8689 -8401 0
8418 8692 0
8418 8401 0
-8418 -8692 -8401 0
8436 8695 0
8436 8401 0
-8436 -8695 -8401 0
8421 8385 0
8421 8722 0
-8421 -8385 -8722 0
8445 8698 0
8445 8401 0
-8445 -8698 -8401 0
8463 8701 0
8463 8401 0
-8463 -8701 -8401 0
8469 8704 0
8469 8401 0
-8469 -8704 -8401 0
8451 8707 0
8451 8401 0
-8451 -8707 -8401 0
8478 8710 0
8478 8401 0
-8478 -8710 -8401 0
8417 8403 0
8417 8472 0
-8417 -8403 -8472 0
8405 8666 0
8405 8715 0
-8405 -8666 -8715 0
8408 8409 0
8408 8410 0
-8408 -8409 -8410 0
8411 8420 0
8411 8421 0
8411 8414 0
8411 8415 0
-8411 -8420 -8421 -8414 -8415 0
8416 8417 0
8416 8418 0
-8416 -8417 -8418 0
8419 8420 0
8419 8421 0
8419 8422 0
8419 8423 0
-8419 -8420 -8421 -8422 -8423 0
8424 8425 0
8424 8426 0
8424 8427 0
-8424 -8425 -8426 -8427 0
8435 8429 0
8435 8472 0
-8435 -8429 -8472 0
8775 8732 0
8775 8725 0
-8775 -8732 -8725 0
8434 8435 0
8434 8436 0
-8434 -8435 -8436 0
8444 8438 0
8444 8472 0
-8444 -8438 -8472 0
8450 8441 0
8450 8472 0
-8450 -8441 -8472 0
8443 8444 0
8443 8445 0
-8443 -8444 -8445 0
8446 8447 0
8446 8448 0
-8446 -8447 -8448 0
8449 8450 0
8449 8451 0
-8449 -8450 -8451 0
8462 8453 0
8462 8472 0
-8462 -8453 -8472 0
8777 8738 0
8777 8735 0
-8777 -8738 -8735 0
8468 8459 0
8468 8472 0
-8468 -8459 -8472 0
8461 8462 0
8461 8463 0
-8461 -8462 -8463 0
8779 8744 0
8779 8741 0
-8779 -8744 -8741 0
8467 8468 0
8467 8469 0
-8467 -8468 -8469 0
8477 8471 0
8477 8472 0
-8477 -8471 -8472 0
8781 8756 0
8781 8747 0
-8781 -8756 -8747 0
8476 8477 0
8476 8478 0
-8476 -8477 -8478 0
8783 8762 0
8783 8759 0
-8783 -8762 -8759 0
8785 8750 0
8785 8765 0
-8785 -8750 -8765 0
8787 8768 0
8787 8753 0
-8787 -8768 -8753 0
8789 8597 0
8789 8771 0
-8789 -8597 -8771 0
-8491 -8492 0
-8491 -8493 0
-8491 -8494 0
8491 8492 8493 8494 0
-8495 -8496 0
-8495 -8497 0
-8495 -8498 0
8495 8496 8497 8498 0
-8499 -8500 0
-8499 -8501 0
-8499 -8502 0
8499 8500 8501 8502 0
-8503 -8504 0
-8503 -8505 0
-8503 -8506 0
8503 8504 8505 8506 0
-8507 -8508 0
-8507 -8509 0
8507 8508 8509 0
-8510 -8511 0
-8510 -8512 0
8510 8511 8512 0
-8513 -8514 0
-8513 -8515 0
-8513 -8516 0
8513 8514 8515 8516 0
-8517 -8518 0
-8517 -8519 0
-8517 -8562 0
-8517 -8565 0
8517 8518 8519 8562 8565 0
-8522 -8523 0
-8522 -8524 0
-8522 -8525 0
8522 8523 8524 8525 0
-8526 -8562 0
-8526 -8528 0
8526 8562 8528 0
-8529 -8530 0
-8529 -8531 0
-8529 -8532 0
8529 8530 8531 8532 0
-8533 -8534 0
-8533 -8535 0
-8533 -8536 0
8533 8534 8535 8536 0
-8537 -8538 0
-8537 -8539 0
8537 8538 8539 0
-8540 -8541 0
-8540 -8542 0
8540 8541 8542 0
-8543 -8544 0
-8543 -8545 0
8543 8544 8545 0
-8546 -8547 0
-8546 -8548 0
8546 8547 8548 0
-8549 -8550 0
-8549 -8551 0
8549 8550 8551 0
-8552 -8553 0
-8552 -8554 0
8552 8553 8554 0
-8555 -8556 0
-8555 -8557 0
8555 8556 8557 0
-8558 -8559 0
-8558 -8560 0
8558 8559 8560 0
-8561 -8562 0
-8561 -8563 0
8561 8562 8563 0
-8564 -8565 0
-8564 -8566 0
8564 8565 8566 0
-8567 -8568 0
-8567 -8569 0
8567 8568 8569 0
-8570 -8571 0
-8570 -8572 0
8570 8571 8572 0
-8573 -8574 0
-8573 -8575 0
8573 8574 8575 0
-8576 -8577 0
-8576 -8578 0
8576 8577 8578 0
-8833 -8602 0
-8833 -8581 0
8833 8602 8581 0
-8582 -8583 0
-8582 -8584 0
8582 8583 8584 0
-8585 -8586 0
-8585 -8587 0
8585 8586 8587 0
-8588 -8589 0
-8588 -8590 0
8588 8589 8590 0
-8591 -8592 0
-8591 -8593 0
8591 8592 8593 0
-8594 -8595 0
-8594 -8601 0
8594 8595 8601 0
-8597 -8598 0
-8597 -8599 0
8597 8598 8599 0
-8600 -8601 0
-8600 -8602 0
-8600 -8835 0
8600 8601 8602 8835 0
-8604 -8605 0
-8604 -8606 0
-8604 -8607 0
8604 8605 8606 8607 0
-8608 -8609 0
-8608 -8610 0
-8608 -8611 0
8608 8609 8610 8611 0
-8612 -8613 0
-8612 -8614 0
-8612 -8615 0
8612 8613 8614 8615 0
-8616 -8617 0
-8616 -8618 0
-8616 -8619 0
8616 8617 8618 8619 0
-8620 -8621 0
-8620 -8622 0
-8620 -8623 0
8620 8621 8622 8623 0
-8624 -8625 0
-8624 -8626 0
-8624 -8627 0
8624 8625 8626 8627 0
-8628 -8629 0
-8628 -8630 0
-8628 -8631 0
8628 8629 8630 8631 0
-8632 -8633 0
-8632 -8634 0
8632 8633 8634 0
-8635 -8636 0
-8635 -8637 0
8635 8636 8637 0
-8638 -8639 0
-8638 -8640 0
8638 8639 8640 0
-8641 -8642 0
-8641 -8643 0
8641 8642 8643 0
-8644 -8645 0
-8644 -8646 0
8644 8645 8646 0
-8647 -8648 0
-8647 -8649 0
8647 8648 8649 0
-8650 -8651 0
-8650 -8652 0
8650 8651 8652 0
-8653 -8654 0
-8653 -8655 0
8653 8654 8655 0
-8656 -8657 0
-8656 -8658 0
8656 8657 8658 0
-8659 -8660 0
-8659 -8661 0
8659 8660 8661 0
-8662 -8663 0
-8662 -8664 0
8662 8663 8664 0
-8719 -8666 0
-8719 -8714 0
8719 8666 8714 0
-8668 -8669 0
-8668 -8670 0
8668 8669 8670 0
-8671 -8672 0
-8671 -8673 0
8671 8672 8673 0
-8674 -8675 0
-8674 -8676 0
8674 8675 8676 0
-8677 -8678 0
-8677 -8679 0
8677 8678 8679 0
-8680 -8681 0
-8680 -8682 0
8680 8681 8682 0
-8688 -8684 0
-8688 -8685 0
8688 8684 8685 0
-8686 -8687 0
-8686 -8688 0
8686 8687 8688 0
-8689 -8690 0
-8689 -8691 0
8689 8690 8691 0
-8692 -8693 0
-8692 -8694 0
8692 8693 8694 0
-8695 -8696 0
-8695 -8697 0
8695 8696 8697 0
-8698 -8699 0
-8698 -8700 0
8698 8699 8700 0
-8701 -8702 0
-8701 -8703 0
8701 8702 8703 0
-8704 -8705 0
-8704 -8706 0
8704 8705 8706 0
-8707 -8708 0
-8707 -8709 0
8707 8708 8709 0
-8710 -8711 0
-8710 -8712 0
8710 8711 8712 0
-8718 -8714 0
-8718 -8715 0
8718 8714 8715 0
-8716 -8717 0
-8716 -8718 0
-8716 -8719 0
8716 8717 8718 8719 0
-8720 -8721 0
-8720 -8722 0
-8720 -8723 0
-8720 -8724 0
8720 8721 8722 8723 8724 0
-8725 -8726 0
-8725 -8727 0
8725 8726 8727 0
-8728 -8729 0
-8728 -8730 0
-8728 -8731 0
8728 8729 8730 8731 0
-8732 -8733 0
-8732 -8734 0
8732 8733 8734 0
-8735 -8736 0
-8735 -8737 0
8735 8736 8737 0
-8738 -8739 0
-8738 -8740 0
8738 8739 8740 0
-8741 -8742 0
-8741 -8743 0
8741 8742 8743 0
-8744 -8745 0
-8744 -8746 0
8744 8745 8746 0
-8747 -8748 0
-8747 -8749 0
8747 8748 8749 0
-8750 -8751 0
-8750 -8752 0
8750 8751 8752 0
-8753 -8754 0
-8753 -8755 0
8753 8754 8755 0
-8756 -8757 0
-8756 -8758 0
8756 8757 8758 0
-8759 -8760 0
-8759 -8761 0
8759 8760 8761 0
-8762 -8763 0
-8762 -8764 0
8762 8763 8764 0
-8765 -8766 0
-8765 -8767 0
8765 8766 8767 0
-8768 -8769 0
-8768 -8770 0
8768 8769 8770 0
-8771 -8772 0
-8771 -8773 0
8771 8772 8773 0
-8775 9460 0
8775 -9460 0
-8777 9463 0
8777 -9463 0
-8779 9466 0
8779 -9466 0
-8781 9469 0
8781 -9469 0
-8783 9472 0
8783 -9472 0
-8785 9475 0
8785 -9475 0
-8787 9478 0
8787 -9478 0
-8789 9481 0
8789 -9481 0
-8791 9927 0
8791 -9927 0
-8793 9415 0
8793 -9415 0
-8795 9418 0
8795 -9418 0
-8797 9421 0
8797 -9421 0
-8799 9424 0
8799 -9424 0
-8801 9427 0
8801 -9427 0
-8803 9430 0
8803 -9430 0
-8805 9433 0
8805 -9433 0
-8807 9364 0
8807 -9364 0
-8809 9367 0
8809 -9367 0
-8811 9370 0
8811 -9370 0
-8813 9373 0
8813 -9373 0
-8815 9376 0
8815 -9376 0
-8817 9379 0
8817 -9379 0
-8819 9382 0
8819 -9382 0
-8821 9926 0
8821 -9926 0
-8823 10189 0
8823 -10189 0
-8825 9944 0
8825 -9944 0
-8827 10235 0
8827 -10235 0
-8829 9930 0
8829 -9930 0
-8831 9948 0
8831 -9948 0
-8833 9098 0
8833 -9098 0
-8835 8834 0
8835 -8834 0
-8837 9116 0
8837 -9116 0
-8839 9170 0
8839 -9170 0
-8841 9263 0
8841 -9263 0
-8843 9143 0
8843 -9143 0
-8845 9110 0
8845 -9110 0
-8847 9134 0
8847 -9134 0
9313 9262 0
-9313 -9262 0
9989 9927 0
-9989 -9927 0
10238 9930 0
-10238 -9930 0
10178 10189 0
-10178 -10189 0
9287 9236 0
-9287 -9236 0
9962 8859 0
-9962 -8859 0
10181 9944 0
-10181 -9944 0
9982 10235 0
-9982 -10235 0
10188 9938 0
-10188 -9938 0
10198 9948 0
-10198 -9948 0
9951 9955 0
-9951 -9955 0
9812 9928 0
-9812 -9928 0
9974 10177 0
-9974 -10177 0
9984 10180 0
-9984 -10180 0
10513 10196 0
-10513 -10196 0
10477 10207 0
-10477 -10207 0
10479 10210 0
-10479 -10210 0
10481 10213 0
-10481 -10213 0
10483 10216 0
-10483 -10216 0
10485 10219 0
-10485 -10219 0
10487 10222 0
-10487 -10222 0
10489 10225 0
-10489 -10225 0
10491 10228 0
-10491 -10228 0
9979 10231 0
-9979 -10231 0
10002 10237 0
-10002 -10237 0
8905 10240 0
-8905 -10240 0
10497 9975 0
-10497 -9975 0
10071 8905 0
-10071 -8905 0
8911 8905 0
-8911 -8905 0
9338 10243 0
-9338 -10243 0
8915 10246 0
-8915 -10246 0
10142 8911 0
-10142 -8911 0
9650 8915 0
-9650 -8915 0
8957 8915 0
-8957 -8915 0
10271 10252 0
-10271 -10252 0
9386 10255 0
-9386 -10255 0
10006 10258 0
-10006 -10258 0
8965 10258 0
-8965 -10258 0
9557 9824 0
-9557 -9824 0
9388 9824 0
-9388 -9824 0
9563 9827 0
-9563 -9827 0
9391 9827 0
-9391 -9827 0
9569 9830 0
-9569 -9830 0
9394 9830 0
-9394 -9830 0
9575 9833 0
-9575 -9833 0
9397 9833 0
-9397 -9833 0
9581 9836 0
-9581 -9836 0
9400 9836 0
-9400 -9836 0
9587 9839 0
-9587 -9839 0
9403 9839 0
-9403 -9839 0
9593 9842 0
-9593 -9842 0
9406 9842 0
-9406 -9842 0
9599 9845 0
-9599 -9845 0
9409 9845 0
-9409 -9845 0
9677 8957 0
-9677 -8957 0
10505 10261 0
-10505 -10261 0
9653 10006 0
-9653 -10006 0
9710 8965 0
-9710 -8965 0
8983 8965 0
-8983 -8965 0
9484 9825 0
-9484 -9825 0
9487 9828 0
-9487 -9828 0
9490 9831 0
-9490 -9831 0
9493 9834 0
-9493 -9834 0
9496 9837 0
-9496 -9837 0
9499 9840 0
-9499 -9840 0
9502 9843 0
-9502 -9843 0
9505 9846 0
-9505 -9846 0
9554 8983 0
-9554 -8983 0
9509 9554 0
-9509 -9554 0
9512 9554 0
-9512 -9554 0
9515 9554 0
-9515 -9554 0
9518 9554 0
-9518 -9554 0
9521 9554 0
-9521 -9554 0
9524 9554 0
-9524 -9554 0
9527 9554 0
-9527 -9554 0
9530 9554 0
-9530 -9554 0
10461 10274 0
-10461 -10274 0
10463 10278 0
-10463 -10278 0
10465 10282 0
-10465 -10282 0
10467 10286 0
-10467 -10286 0
10469 10290 0
-10469 -10290 0
10471 10294 0
-10471 -10294 0
10473 10298 0
-10473 -10298 0
9604 9847 0
-9604 -9847 0
9610 9850 0
-9610 -9850 0
9616 9853 0
-9616 -9853 0
9622 9856 0
-9622 -9856 0
9628 9859 0
-9628 -9859 0
9634 9862 0
-9634 -9862 0
9640 9865 0
-9640 -9865 0
9646 9868 0
-9646 -9868 0
10020 9607 0
-10020 -9607 0
10336 9619 0
-10336 -9619 0
10090 9637 0
-10090 -9637 0
10118 9643 0
-10118 -9643 0
9682 10005 0
-9682 -10005 0
10354 9874 0
-10354 -9874 0
9685 9874 0
-9685 -9874 0
9715 10044 0
-9715 -10044 0
10384 10015 0
-10384 -10015 0
9721 10015 0
-9721 -10015 0
9748 10022 0
-9748 -10022 0
9751 10055 0
-9751 -10055 0
9914 9889 0
-9914 -9889 0
9739 9889 0
-9739 -9889 0
9772 9892 0
-9772 -9892 0
10394 10007 0
-10394 -10007 0
10032 10013 0
-10032 -10013 0
9713 10018 0
-9713 -10018 0
10392 10021 0
-10392 -10021 0
9716 10356 0
-9716 -10356 0
10092 10036 0
-10092 -10036 0
9719 9716 0
-9719 -9716 0
10093 10039 0
-10093 -10039 0
9743 10075 0
-9743 -10075 0
10096 10081 0
-10096 -10081 0
9746 10089 0
-9746 -10089 0
9749 10386 0
-9749 -10386 0
9752 10390 0
-9752 -10390 0
9755 9749 0
-9755 -9749 0
10475 10398 0
-10475 -10398 0
9915 10094 0
-9915 -10094 0
9764 9752 0
-9764 -9752 0
9782 10116 0
-9782 -10116 0
-10262 9262 0
-10262 9098 0
10262 -9262 -9098 0
-10200 9217 0
-10200 9433 0
10200 -9217 -9433 0
-10410 9241 0
-10410 10272 0
10410 -9241 -10272 0
-10174 9217 0
-10174 9927 0
10174 -9217 -9927 0
-10259 9262 0
-10259 9110 0
10259 -9262 -9110 0
-10193 9217 0
-10193 9424 0
10193 -9217 -9424 0
-10244 9262 0
-10244 9116 0
10244 -9262 -9116 0
-10163 9214 0
-10163 9382 0
10163 -9214 -9382 0
-10201 9214 0
-10201 9926 0
10201 -9214 -9926 0
-10166 9217 0
-10166 9421 0
10166 -9217 -9421 0
-10422 9253 0
-10422 10272 0
10422 -9253 -10272 0
-10185 9214 0
-10185 9379 0
10185 -9214 -9379 0
-10241 9262 0
-10241 9134 0
10241 -9262 -9134 0
-10164 9229 0
-10164 9478 0
10164 -9229 -9478 0
-10195 9229 0
-10195 9472 0
10195 -9229 -9472 0
-10247 9262 0
-10247 9143 0
10247 -9262 -9143 0
-10162 9217 0
-10162 9430 0
10162 -9217 -9430 0
-10434 9250 0
-10434 10272 0
10434 -9250 -10272 0
-10205 9214 0
-10205 9367 0
10205 -9214 -9367 0
-10168 9229 0
-10168 9469 0
10168 -9229 -9469 0
-10416 9244 0
-10416 10272 0
10416 -9244 -10272 0
-10167 9214 0
-10167 9373 0
10167 -9214 -9373 0
-10186 9229 0
-10186 9475 0
10186 -9229 -9475 0
-10172 9229 0
-10172 9466 0
10172 -9229 -9466 0
-10256 9262 0
-10256 9170 0
10256 -9262 -9170 0
-10440 9256 0
-10440 10272 0
10440 -9256 -10272 0
-10176 9229 0
-10176 9460 0
10176 -9229 -9460 0
-10171 9214 0
-10171 9370 0
10171 -9214 -9370 0
-10212 9241 0
-10212 9236 0
10212 -9241 -9236 0
-10215 9244 0
-10215 9236 0
10215 -9244 -9236 0
-10221 9250 0
-10221 9236 0
10221 -9250 -9236 0
-10224 9253 0
-10224 9236 0
10224 -9253 -9236 0
-10227 9256 0
-10227 9236 0
10227 -9256 -9236 0
-10170 9217 0
-10170 9418 0
10170 -9217 -9418 0
-10175 9214 0
-10175 9364 0
10175 -9214 -9364 0
-10179 9944 0
-10179 10235 0
10179 -9944 -10235 0
-10269 9259 0
-10269 10272 0
10269 -9259 -10272 0
-10230 9259 0
-10230 9236 0
10230 -9259 -9236 0
-10184 9217 0
-10184 9427 0
10184 -9217 -9427 0
-10194 9214 0
-10194 9376 0
10194 -9214 -9376 0
-10204 9217 0
-10204 9415 0
10204 -9217 -9415 0
-10404 9238 0
-10404 10272 0
10404 -9238 -10272 0
-10209 9238 0
-10209 9236 0
10209 -9238 -9236 0
-10202 9229 0
-10202 9481 0
10202 -9229 -9481 0
-10206 9229 0
-10206 9463 0
10206 -9229 -9463 0
-10428 9247 0
-10428 10272 0
10428 -9247 -10272 0
-10218 9247 0
-10218 9236 0
10218 -9247 -9236 0
-10276 9238 0
-10276 10265 0
10276 -9238 -10265 0
-10280 9241 0
-10280 10265 0
10280 -9241 -10265 0
-10284 9244 0
-10284 10265 0
10284 -9244 -10265 0
-10288 9247 0
-10288 10265 0
10288 -9247 -10265 0
-10292 9250 0
-10292 10265 0
10292 -9250 -10265 0
-10296 9253 0
-10296 10265 0
10296 -9253 -10265 0
-10300 9256 0
-10300 10265 0
10300 -9256 -10265 0
-10400 9259 0
-10400 10265 0
10400 -9259 -10265 0
-10253 9262 0
-10253 9263 0
10253 -9262 -9263 0
-10208 9364 0
-10208 9287 0
10208 -9364 -9287 0
-10211 9367 0
-10211 9287 0
10211 -9367 -9287 0
-10214 9370 0
-10214 9287 0
10214 -9370 -9287 0
-10217 9373 0
-10217 9287 0
10217 -9373 -9287 0
-10220 9376 0
-10220 9287 0
10220 -9376 -9287 0
-10223 9379 0
-10223 9287 0
10223 -9379 -9287 0
-10226 9382 0
-10226 9287 0
10226 -9382 -9287 0
-10229 9926 0
-10229 9287 0
10229 -9926 -9287 0
-10239 9934 0
-10239 9958 0
10239 -9934 -9958 0
-10242 9313 0
-10242 10517 0
10242 -9313 -10517 0
-10245 9313 0
-10245 10507 0
10245 -9313 -10507 0
-10248 9313 0
-10248 10513 0
10248 -9313 -10513 0
-10251 9990 0
-10251 9988 0
10251 -9990 -9988 0
-10254 9313 0
-10254 10511 0
10254 -9313 -10511 0
-10257 9313 0
-10257 10509 0
10257 -9313 -10509 0
-10260 9313 0
-10260 10515 0
10260 -9313 -10515 0
-10263 9313 0
-10263 10503 0
10263 -9313 -10503 0
-9824 9460 0
-9824 9338 0
9824 -9460 -9338 0
-9827 9463 0
-9827 9338 0
9827 -9463 -9338 0
-9830 9466 0
-9830 9338 0
9830 -9466 -9338 0
-9833 9469 0
-9833 9338 0
9833 -9469 -9338 0
-9836 9472 0
-9836 9338 0
9836 -9472 -9338 0
-9839 9475 0
-9839 9338 0
9839 -9475 -9338 0
-9842 9478 0
-9842 9338 0
9842 -9478 -9338 0
-9845 9481 0
-9845 9338 0
9845 -9481 -9338 0
-10268 9999 0
-10268 10271 0
10268 -9999 -10271 0
-10275 9415 0
-10275 10271 0
10275 -9415 -10271 0
-10279 9418 0
-10279 10271 0
10279 -9418 -10271 0
-10283 9421 0
-10283 10271 0
10283 -9421 -10271 0
-10287 9424 0
-10287 10271 0
10287 -9424 -10271 0
-10291 9427 0
-10291 10271 0
10291 -9427 -10271 0
-10295 9430 0
-10295 10271 0
10295 -9430 -10271 0
-10299 9433 0
-10299 10271 0
10299 -9433 -10271 0
-9825 9364 0
-9825 9386 0
9825 -9364 -9386 0
-9828 9367 0
-9828 9386 0
9828 -9367 -9386 0
-9831 9370 0
-9831 9386 0
9831 -9370 -9386 0
-9834 9373 0
-9834 9386 0
9834 -9373 -9386 0
-9837 9376 0
-9837 9386 0
9837 -9376 -9386 0
-9840 9379 0
-9840 9386 0
9840 -9379 -9386 0
-9843 9382 0
-9843 9386 0
9843 -9382 -9386 0
-9846 9926 0
-9846 9386 0
9846 -9926 -9386 0
-10304 9388 0
-10304 9677 0
10304 -9388 -9677 0
-10307 9391 0
-10307 9677 0
10307 -9391 -9677 0
-10310 9394 0
-10310 9677 0
10310 -9394 -9677 0
-10313 9397 0
-10313 9677 0
10313 -9397 -9677 0
-10316 9400 0
-10316 9677 0
10316 -9400 -9677 0
-10319 9403 0
-10319 9677 0
10319 -9403 -9677 0
-10322 9406 0
-10322 9677 0
10322 -9406 -9677 0
-10325 9409 0
-10325 9677 0
10325 -9409 -9677 0
-10277 9927 0
-10277 10264 0
10277 -9927 -10264 0
-10281 9415 0
-10281 10264 0
10281 -9415 -10264 0
-10285 9418 0
-10285 10264 0
10285 -9418 -10264 0
-10289 9421 0
-10289 10264 0
10289 -9421 -10264 0
-10293 9424 0
-10293 10264 0
10293 -9424 -10264 0
-10297 9427 0
-10297 10264 0
10297 -9427 -10264 0
-10301 9430 0
-10301 10264 0
10301 -9430 -10264 0
-10401 9433 0
-10401 10264 0
10401 -9433 -10264 0
-10303 9823 0
-10303 9650 0
10303 -9823 -9650 0
-10306 9826 0
-10306 9650 0
10306 -9826 -9650 0
-10309 9829 0
-10309 9650 0
10309 -9829 -9650 0
-10312 9832 0
-10312 9650 0
10312 -9832 -9650 0
-10315 9835 0
-10315 9650 0
10315 -9835 -9650 0
-10318 9838 0
-10318 9650 0
10318 -9838 -9650 0
-10321 9841 0
-10321 9650 0
10321 -9841 -9650 0
-10324 9844 0
-10324 9650 0
10324 -9844 -9650 0
-10396 9460 0
-10396 10270 0
10396 -9460 -10270 0
-10406 9463 0
-10406 10270 0
10406 -9463 -10270 0
-10412 9466 0
-10412 10270 0
10412 -9466 -10270 0
-10418 9469 0
-10418 10270 0
10418 -9469 -10270 0
-10430 9472 0
-10430 10270 0
10430 -9472 -10270 0
-10436 9475 0
-10436 10270 0
10436 -9475 -10270 0
-10424 9478 0
-10424 10270 0
10424 -9478 -10270 0
-10442 9481 0
-10442 10270 0
10442 -9481 -10270 0
-9849 9484 0
-9849 9554 0
9849 -9484 -9554 0
-9852 9487 0
-9852 9554 0
9852 -9487 -9554 0
-9855 9490 0
-9855 9554 0
9855 -9490 -9554 0
-9858 9493 0
-9858 9554 0
9858 -9493 -9554 0
-9861 9496 0
-9861 9554 0
9861 -9496 -9554 0
-9864 9499 0
-9864 9554 0
9864 -9499 -9554 0
-9867 9502 0
-9867 9554 0
9867 -9502 -9554 0
-9870 9505 0
-9870 9554 0
9870 -9505 -9554 0
-9848 9825 0
-9848 9509 0
9848 -9825 -9509 0
-9851 9828 0
-9851 9512 0
9851 -9828 -9512 0
-9854 9831 0
-9854 9515 0
9854 -9831 -9515 0
-9857 9834 0
-9857 9518 0
9857 -9834 -9518 0
-9860 9837 0
-9860 9521 0
9860 -9837 -9521 0
-9863 9840 0
-9863 9524 0
9863 -9840 -9524 0
-9866 9843 0
-9866 9527 0
9866 -9843 -9527 0
-9869 9846 0
-9869 9530 0
9869 -9846 -9530 0
-10361 10302 0
-10361 9554 0
10361 -10302 -9554 0
-10364 10305 0
-10364 9554 0
10364 -10305 -9554 0
-10367 10308 0
-10367 9554 0
10367 -10308 -9554 0
-10370 10311 0
-10370 9554 0
10370 -10311 -9554 0
-10373 10314 0
-10373 9554 0
10373 -10314 -9554 0
-10376 10317 0
-10376 9554 0
10376 -10317 -9554 0
-10379 10320 0
-10379 9554 0
10379 -10320 -9554 0
-10382 10323 0
-10382 9554 0
10382 -10323 -9554 0
-9872 9847 0
-9872 9557 0
9872 -9847 -9557 0
-9607 9847 0
-9607 9824 0
9607 -9847 -9824 0
-9875 9850 0
-9875 9563 0
9875 -9850 -9563 0
-10357 9850 0
-10357 9827 0
10357 -9850 -9827 0
-9878 9853 0
-9878 9569 0
9878 -9853 -9569 0
-9619 9853 0
-9619 9830 0
9619 -9853 -9830 0
-9881 9856 0
-9881 9575 0
9881 -9856 -9575 0
-10387 9856 0
-10387 9833 0
10387 -9856 -9833 0
-9884 9859 0
-9884 9581 0
9884 -9859 -9581 0
-10393 9859 0
-10393 9836 0
10393 -9859 -9836 0
-9887 9862 0
-9887 9587 0
9887 -9862 -9587 0
-9637 9862 0
-9637 9839 0
9637 -9862 -9839 0
-9890 9865 0
-9890 9593 0
9890 -9865 -9593 0
-9643 9865 0
-9643 9842 0
9643 -9865 -9842 0
-9893 9868 0
-9893 9599 0
9893 -9868 -9599 0
-9649 9868 0
-9649 9845 0
9649 -9868 -9845 0
-9873 9604 0
-9873 9824 0
9873 -9604 -9824 0
-10327 9607 0
-10327 9650 0
10327 -9607 -9650 0
-9876 9610 0
-9876 9827 0
9876 -9610 -9827 0
-10330 10357 0
-10330 9650 0
10330 -10357 -9650 0
-9879 9616 0
-9879 9830 0
9879 -9616 -9830 0
-10333 9619 0
-10333 9650 0
10333 -9619 -9650 0
-9882 9622 0
-9882 9833 0
9882 -9622 -9833 0
-10339 10387 0
-10339 9650 0
10339 -10387 -9650 0
-9885 9628 0
-9885 9836 0
9885 -9628 -9836 0
-10342 10393 0
-10342 9650 0
10342 -10393 -9650 0
-9888 9634 0
-9888 9839 0
9888 -9634 -9839 0
-10345 9637 0
-10345 9650 0
10345 -9637 -9650 0
-9891 9640 0
-9891 9842 0
9891 -9640 -9842 0
-10348 9643 0
-10348 9650 0
10348 -9643 -9650 0
-9894 9646 0
-9894 9845 0
9894 -9646 -9845 0
-10351 9649 0
-10351 9650 0
10351 -9649 -9650 0
-9896 10005 0
-9896 9653 0
9896 -10005 -9653 0
-10328 10005 0
-10328 9677 0
10328 -10005 -9677 0
-10331 9874 0
-10331 9677 0
10331 -9874 -9677 0
-10334 10044 0
-10334 9677 0
10334 -10044 -9677 0
-10340 10015 0
-10340 9677 0
10340 -10015 -9677 0
-10343 10022 0
-10343 9677 0
10343 -10022 -9677 0
-10346 10055 0
-10346 9677 0
10346 -10055 -9677 0
-10349 9889 0
-10349 9677 0
10349 -9889 -9677 0
-10352 9892 0
-10352 9677 0
10352 -9892 -9677 0
-10355 10020 0
-10355 10019 0
10355 -10020 -10019 0
-9897 9682 0
-9897 10006 0
9897 -9682 -10006 0
-9903 9685 0
-9903 10018 0
9903 -9685 -10018 0
-10360 10326 0
-10360 9710 0
10360 -10326 -9710 0
-10363 10329 0
-10363 9710 0
10363 -10329 -9710 0
-10366 10332 0
-10366 9710 0
10366 -10332 -9710 0
-10369 10338 0
-10369 9710 0
10369 -10338 -9710 0
-10372 10341 0
-10372 9710 0
10372 -10341 -9710 0
-10375 10344 0
-10375 9710 0
10375 -10344 -9710 0
-10378 10347 0
-10378 9710 0
10378 -10347 -9710 0
-10381 10350 0
-10381 9710 0
10381 -10350 -9710 0
-9902 9874 0
-9902 9713 0
9902 -9874 -9713 0
-9906 9715 0
-9906 9716 0
9906 -9715 -9716 0
-9905 10044 0
-9905 9719 0
9905 -10044 -9719 0
-9909 9721 0
-9909 10075 0
9909 -9721 -10075 0
-10391 10022 0
-10391 10388 0
10391 -10022 -10388 0
-10397 10078 0
-10397 10505 0
10397 -10078 -10505 0
-10399 10078 0
-10399 10271 0
10399 -10078 -10271 0
-10403 10086 0
-10403 10271 0
10403 -10086 -10271 0
-10407 10086 0
-10407 10505 0
10407 -10086 -10505 0
-9912 9739 0
-9912 10089 0
9912 -9739 -10089 0
-9908 10015 0
-9908 9743 0
9908 -10015 -9743 0
-9911 9889 0
-9911 9746 0
9911 -9889 -9746 0
-9918 9748 0
-9918 9749 0
9918 -9748 -9749 0
-9921 9751 0
-9921 9752 0
9921 -9751 -9752 0
-9917 10022 0
-9917 9755 0
9917 -10022 -9755 0
-10409 10104 0
-10409 10271 0
10409 -10104 -10271 0
-10413 10104 0
-10413 10505 0
10413 -10104 -10505 0
-9920 10055 0
-9920 9764 0
9920 -10055 -9764 0
-10415 10113 0
-10415 10271 0
10415 -10113 -10271 0
-10419 10113 0
-10419 10505 0
10419 -10113 -10505 0
-9924 9772 0
-9924 10116 0
9924 -9772 -10116 0
-10421 10119 0
-10421 10271 0
10421 -10119 -10271 0
-10425 10119 0
-10425 10505 0
10425 -10119 -10505 0
-9923 9892 0
-9923 9782 0
9923 -9892 -9782 0
-10427 10131 0
-10427 10271 0
10427 -10131 -10271 0
-10431 10131 0
-10431 10505 0
10431 -10131 -10505 0
-10433 10137 0
-10433 10271 0
10433 -10137 -10271 0
-10437 10137 0
-10437 10505 0
10437 -10137 -10505 0
-10439 10146 0
-10439 10271 0
10439 -10146 -10271 0
-10443 10146 0
-10443 10505 0
10443 -10146 -10505 0
9953 -9926 0
9953 -9927 0
-9953 9926 9927 0
9957 -9944 0
9957 -9982 0
-9957 9944 9982 0
9993 -9962 0
9993 -10198 0
-9993 9962 10198 0
9964 -9951 0
9964 -9812 0
-9964 9951 9812 0
9973 -10181 0
9973 -9934 0
-9973 10181 9934 0
9976 -10231 0
9976 -10236 0
-9976 10231 10236 0
9992 -9984 0
9992 -9989 0
9992 -9948 0
-9992 9984 9989 9948 0
9823 -9824 0
9823 -9825 0
-9823 9824 9825 0
9826 -9827 0
9826 -9828 0
-9826 9827 9828 0
9829 -9830 0
9829 -9831 0
-9829 9830 9831 0
9832 -9833 0
9832 -9834 0
-9832 9833 9834 0
9835 -9836 0
9835 -9837 0
-9835 9836 9837 0
9838 -9839 0
9838 -9840 0
-9838 9839 9840 0
9841 -9842 0
9841 -9843 0
-9841 9842 9843 0
9844 -9845 0
9844 -9846 0
-9844 9845 9846 0
9847 -9848 0
9847 -9849 0
-9847 9848 9849 0
9850 -9851 0
9850 -9852 0
-9850 9851 9852 0
9853 -9854 0
9853 -9855 0
-9853 9854 9855 0
9856 -9857 0
9856 -9858 0
-9856 9857 9858 0
9859 -9860 0
9859 -9861 0
-9859 9860 9861 0
9862 -9863 0
9862 -9864 0
-9862 9863 9864 0
9865 -9866 0
9865 -9867 0
-9865 9866 9867 0
9868 -9869 0
9868 -9870 0
-9868 9869 9870 0
10005 -9872 0
10005 -9873 0
-10005 9872 9873 0
9874 -9875 0
9874 -9876 0
-9874 9875 9876 0
10044 -9878 0
10044 -9879 0
-10044 9878 9879 0
10015 -9881 0
10015 -9882 0
-10015 9881 9882 0
10022 -9884 0
10022 -9885 0
-10022 9884 9885 0
10055 -9887 0
10055 -9888 0
-10055 9887 9888 0
9889 -9890 0
9889 -9891 0
-9889 9890 9891 0
9892 -9893 0
9892 -9894 0
-9892 9893 9894 0
10034 -9896 0
10034 -9897 0
-10034 9896 9897 0
10043 -10357 0
10043 -10358 0
-10043 10357 10358 0
10073 -9902 0
10073 -9903 0
-10073 9902 9903 0
10099 -9905 0
10099 -9906 0
-10099 9905 9906 0
10108 -9908 0
10108 -9909 0
-10108 9908 9909 0
10111 -9911 0
10111 -9912 0
-10111 9911 9912 0
10117 -9914 0
10117 -9915 0
-10117 9914 9915 0
10123 -9917 0
10123 -9918 0
-10123 9917 9918 0
10129 -9920 0
10129 -9921 0
-10129 9920 9921 0
10141 -9923 0
10141 -9924 0
-10141 9923 9924 0
9955 9926 0
9955 9927 0
-9955 -9926 -9927 0
9928 10189 0
9928 9930 0
-9928 -10189 -9930 0
10182 10189 0
10182 10235 0
-10182 -10189 -10235 0
9934 10178 0
9934 10235 0
-9934 -10178 -10235 0
10233 9938 0
10233 9962 0
-10233 -9938 -9962 0
10236 10178 0
10236 10181 0
-10236 -10178 -10181 0
9958 9944 0
9958 9982 0
-9958 -9944 -9982 0
10517 10188 0
10517 9948 0
-10517 -10188 -9948 0
10000 10182 0
10000 9951 0
-10000 -10182 -9951 0
10003 9953 0
10003 10180 0
10003 9955 0
-10003 -9953 -10180 -9955 0
10495 9957 0
10495 9958 0
-10495 -9957 -9958 0
10507 10181 0
10507 10187 0
10507 9962 0
-10507 -10181 -10187 -9962 0
10001 9964 0
10001 10181 0
-10001 -9964 -10181 0
9990 10232 0
9990 10234 0
-9990 -10232 -10234 0
9988 10233 0
9988 10234 0
-9988 -10233 -10234 0
10493 9973 0
10493 9974 0
-10493 -9973 -9974 0
9975 9976 0
9975 9982 0
-9975 -9976 -9982 0
10511 9979 0
10511 10181 0
10511 10178 0
10511 9982 0
-10511 -9979 -10181 -10178 -9982 0
10501 9984 0
10501 9990 0
10501 9988 0
-10501 -9984 -9990 -9988 0
10509 9988 0
10509 9989 0
10509 9990 0
-10509 -9988 -9989 -9990 0
10515 9992 0
10515 9993 0
-10515 -9992 -9993 0
10499 10000 0
10499 10002 0
10499 10001 0
10499 10003 0
-10499 -10000 -10002 -10001 -10003 0
9999 10000 0
9999 10001 0
9999 10002 0
9999 10003 0
-9999 -10000 -10001 -10002 -10003 0
10019 10005 0
10019 10006 0
-10019 -10005 -10006 0
10007 10387 0
10007 10022 0
-10007 -10387 -10022 0
10095 10393 0
10095 10055 0
-10095 -10393 -10055 0
10013 10055 0
10013 10015 0
10013 10022 0
10013 10044 0
-10013 -10055 -10015 -10022 -10044 0
10018 10019 0
10018 10020 0
-10018 -10019 -10020 0
10021 10022 0
10021 10389 0
-10021 -10022 -10389 0
10085 10055 0
10085 10394 0
-10085 -10055 -10394 0
10084 10357 0
10084 10032 0
-10084 -10357 -10032 0
10097 10358 0
10097 10032 0
-10097 -10358 -10032 0
10079 10034 0
10079 10142 0
-10079 -10034 -10142 0
10036 10095 0
10036 10084 0
-10036 -10095 -10084 0
10039 10085 0
10039 10097 0
-10039 -10085 -10097 0
10385 10043 0
10385 10044 0
-10385 -10043 -10044 0
10080 10359 0
10080 10071 0
-10080 -10359 -10071 0
10088 10362 0
10088 10071 0
-10088 -10362 -10071 0
10106 10365 0
10106 10071 0
-10106 -10365 -10071 0
10091 10055 0
10091 10392 0
-10091 -10055 -10392 0
10115 10368 0
10115 10071 0
-10115 -10368 -10071 0
10133 10371 0
10133 10071 0
-10133 -10371 -10071 0
10139 10374 0
10139 10071 0
-10139 -10374 -10071 0
10121 10377 0
10121 10071 0
-10121 -10377 -10071 0
10148 10380 0
10148 10071 0
-10148 -10380 -10071 0
10087 10073 0
10087 10142 0
-10087 -10073 -10142 0
10075 10336 0
10075 10385 0
-10075 -10336 -10385 0
10078 10079 0
10078 10080 0
-10078 -10079 -10080 0
10081 10090 0
10081 10091 0
10081 10084 0
10081 10085 0
-10081 -10090 -10091 -10084 -10085 0
10086 10087 0
10086 10088 0
-10086 -10087 -10088 0
10089 10090 0
10089 10091 0
10089 10092 0
10089 10093 0
-10089 -10090 -10091 -10092 -10093 0
10094 10095 0
10094 10096 0
10094 10097 0
-10094 -10095 -10096 -10097 0
10105 10099 0
10105 10142 0
-10105 -10099 -10142 0
10445 10402 0
10445 10395 0
-10445 -10402 -10395 0
10104 10105 0
10104 10106 0
-10104 -10105 -10106 0
10114 10108 0
10114 10142 0
-10114 -10108 -10142 0
10120 10111 0
10120 10142 0
-10120 -10111 -10142 0
10113 10114 0
10113 10115 0
-10113 -10114 -10115 0
10116 10117 0
10116 10118 0
-10116 -10117 -10118 0
10119 10120 0
10119 10121 0
-10119 -10120 -10121 0
10132 10123 0
10132 10142 0
-10132 -10123 -10142 0
10447 10408 0
10447 10405 0
-10447 -10408 -10405 0
10138 10129 0
10138 10142 0
-10138 -10129 -10142 0
10131 10132 0
10131 10133 0
-10131 -10132 -10133 0
10449 10414 0
10449 10411 0
-10449 -10414 -10411 0
10137 10138 0
10137 10139 0
-10137 -10138 -10139 0
10147 10141 0
10147 10142 0
-10147 -10141 -10142 0
10451 10426 0
10451 10417 0
-10451 -10426 -10417 0
10146 10147 0
10146 10148 0
-10146 -10147 -10148 0
10453 10432 0
10453 10429 0
-10453 -10432 -10429 0
10455 10420 0
10455 10435 0
-10455 -10420 -10435 0
10457 10438 0
10457 10423 0
-10457 -10438 -10423 0
10459 10267 0
10459 10441 0
-10459 -10267 -10441 0
-10161 -10162 0
-10161 -10163 0
-10161 -10164 0
10161 10162 10163 10164 0
-10165 -10166 0
-10165 -10167 0
-10165 -10168 0
10165 10166 10167 10168 0
-10169 -10170 0
-10169 -10171 0
-10169 -10172 0
10169 10170 10171 10172 0
-10173 -10174 0
-10173 -10175 0
-10173 -10176 0
10173 10174 10175 10176 0
-10177 -10178 0
-10177 -10179 0
10177 10178 10179 0
-10180 -10181 0
-10180 -10182 0
10180 10181 10182 0
-10183 -10184 0
-10183 -10185 0
-10183 -10186 0
10183 10184 10185 10186 0
-10187 -10188 0
-10187 -10189 0
-10187 -10232 0
-10187 -10235 0
10187 10188 10189 10232 10235 0
-10192 -10193 0
-10192 -10194 0
-10192 -10195 0
10192 10193 10194 10195 0
-10196 -10232 0
-10196 -10198 0
10196 10232 10198 0
-10199 -10200 0
-10199 -10201 0
-10199 -10202 0
10199 10200 10201 10202 0
-10203 -10204 0
-10203 -10205 0
-10203 -10206 0
10203 10204 10205 10206 0
-10207 -10208 0
-10207 -10209 0
10207 10208 10209 0
-10210 -10211 0
-10210 -10212 0
10210 10211 10212 0
-10213 -10214 0
-10213 -10215 0
10213 10214 10215 0
-10216 -10217 0
-10216 -10218 0
10216 10217 10218 0
-10219 -10220 0
-10219 -10221 0
10219 10220 10221 0
-10222 -10223 0
-10222 -10224 0
10222 10223 10224 0
-10225 -10226 0
-10225 -10227 0
10225 10226 10227 0
-10228 -10229 0
-10228 -10230 0
10228 10229 10230 0
-10231 -10232 0
-10231 -10233 0
10231 10232 10233 0
-10234 -10235 0
-10234 -10236 0
10234 10235 10236 0
-10237 -10238 0
-10237 -10239 0
10237 10238 10239 0
-10240 -10241 0
-10240 -10242 0
10240 10241 10242 0
-10243 -10244 0
-10243 -10245 0
10243 10244 10245 0
-10246 -10247 0
-10246 -10248 0
10246 10247 10248 0
-10503 -10272 0
-10503 -10251 0
10503 10272 10251 0
-10252 -10253 0
-10252 -10254 0
10252 10253 10254 0
-10255 -10256 0
-10255 -10257 0
10255 10256 10257 0
-10258 -10259 0
-10258 -10260 0
10258 10259 10260 0
-10261 -10262 0
-10261 -10263 0
10261 10262 10263 0
-10264 -10265 0
-10264 -10271 0
10264 10265 10271 0
-10267 -10268 0
-10267 -10269 0
10267 10268 10269 0
-10270 -10271 0
-10270 -10272 0
-10270 -10505 0
10270 10271 10272 10505 0
-10274 -10275 0
-10274 -10276 0
-10274 -10277 0
10274 10275 10276 10277 0
-10278 -10279 0
-10278 -10280 0
-10278 -10281 0
10278 10279 10280 10281 0
-10282 -10283 0
-10282 -10284 0
-10282 -10285 0
10282 10283 10284 10285 0
-10286 -10287 0
-10286 -10288 0
-10286 -10289 0
10286 10287 10288 10289 0
-10290 -10291 0
-10290 -10292 0
-10290 -10293 0
10290 10291 10292 10293 0
-10294 -10295 0
-10294 -10296 0
-10294 -10297 0
10294 10295 10296 10297 0
-10298 -10299 0
-10298 -10300 0
-10298 -10301 0
10298 10299 10300 10301 0
-10302 -10303 0
-10302 -10304 0
10302 10303 10304 0
-10305 -10306 0
-10305 -10307 0
10305 10306 10307 0
-10308 -10309 0
-10308 -10310 0
10308 10309 10310 0
-10311 -10312 0
-10311 -10313 0
10311 10312 10313 0
-10314 -10315 0
-10314 -10316 0
10314 10315 10316 0
-10317 -10318 0
-10317 -10319 0
10317 10318 10319 0
-10320 -10321 0
-10320 -10322 0
10320 10321 10322 0
-10323 -10324 0
-10323 -10325 0
10323 10324 10325 0
-10326 -10327 0
-10326 -10328 0
10326 10327 10328 0
-10329 -10330 0
-10329 -10331 0
10329 10330 10331 0
-10332 -10333 0
-10332 -10334 0
10332 10333 10334 0
-10389 -10336 0
-10389 -10384 0
10389 10336 10384 0
-10338 -10339 0
-10338 -10340 0
10338 10339 10340 0
-10341 -10342 0
-10341 -10343 0
10341 10342 10343 0
-10344 -10345 0
-10344 -10346 0
10344 10345 10346 0
-10347 -10348 0
-10347 -10349 0
10347 10348 10349 0
-10350 -10351 0
-10350 -10352 0
10350 10351 10352 0
-10358 -10354 0
-10358 -10355 0
10358 10354 10355 0
-10356 -10357 0
-10356 -10358 0
10356 10357 10358 0
-10359 -10360 0
-10359 -10361 0
10359 10360 10361 0
-10362 -10363 0
-10362 -10364 0
10362 10363 10364 0
-10365 -10366 0
-10365 -10367 0
10365 10366 10367 0
-10368 -10369 0
-10368 -10370 0
10368 10369 10370 0
-10371 -10372 0
-10371 -10373 0
10371 10372 10373 0
-10374 -10375 0
-10374 -10376 0
10374 10375 10376 0
-10377 -10378 0
-10377 -10379 0
10377 10378 10379 0
-10380 -10381 0
-10380 -10382 0
10380 10381 10382 0
-10388 -10384 0
-10388 -10385 0
10388 10384 10385 0
-10386 -10387 0
-10386 -10388 0
-10386 -10389 0
10386 10387 10388 10389 0
-10390 -10391 0
-10390 -10392 0
-10390 -10393 0
-10390 -10394 0
10390 10391 10392 10393 10394 0
-10395 -10396 0
-10395 -10397 0
10395 10396 10397 0
-10398 -10399 0
-10398 -10400 0
-10398 -10401 0
10398 10399 10400 10401 0
-10402 -10403 0
-10402 -10404 0
10402 10403 10404 0
-10405 -10406 0
-10405 -10407 0
10405 10406 10407 0
-10408 -10409 0
-10408 -10410 0
10408 10409 10410 0
-10411 -10412 0
-10411 -10413 0
10411 10412 10413 0
-10414 -10415 0
-10414 -10416 0
10414 10415 10416 0
-10417 -10418 0
-10417 -10419 0
10417 10418 10419 0
-10420 -10421 0
-10420 -10422 0
10420 10421 10422 0
-10423 -10424 0
-10423 -10425 0
10423 10424 10425 0
-10426 -10427 0
-10426 -10428 0
10426 10427 10428 0
-10429 -10430 0
-10429 -10431 0
10429 10430 10431 0
-10432 -10433 0
-10432 -10434 0
10432 10433 10434 0
-10435 -10436 0
-10435 -10437 0
10435 10436 10437 0
-10438 -10439 0
-10438 -10440 0
10438 10439 10440 0
-10441 -10442 0
-10441 -10443 0
10441 10442 10443 0
-10445 11130 0
10445 -11130 0
-10447 11133 0
10447 -11133 0
-10449 11136 0
10449 -11136 0
-10451 11139 0
10451 -11139 0
-10453 11142 0
10453 -11142 0
-10455 11145 0
10455 -11145 0
-10457 11148 0
10457 -11148 0
-10459 11151 0
10459 -11151 0
-10461 11597 0
10461 -11597 0
-10463 11085 0
10463 -11085 0
-10465 11088 0
10465 -11088 0
-10467 11091 0
10467 -11091 0
-10469 11094 0
10469 -11094 0
-10471 11097 0
10471 -11097 0
-10473 11100 0
10473 -11100 0
-10475 11103 0
10475 -11103 0
-10477 11034 0
10477 -11034 0
-10479 11037 0
10479 -11037 0
-10481 11040 0
10481 -11040 0
-10483 11043 0
10483 -11043 0
-10485 11046 0
10485 -11046 0
-10487 11049 0
10487 -11049 0
-10489 11052 0
10489 -11052 0
-10491 11596 0
10491 -11596 0
-10493 11859 0
10493 -11859 0
-10495 11614 0
10495 -11614 0
-10497 11905 0
10497 -11905 0
-10499 11600 0
10499 -11600 0
-10501 11618 0
10501 -11618 0
-10503 10768 0
10503 -10768 0
-10505 10504 0
10505 -10504 0
-10507 10786 0
10507 -10786 0
-10509 10840 0
10509 -10840 0
-10511 10933 0
10511 -10933 0
-10513 10813 0
10513 -10813 0
-10515 10780 0
10515 -10780 0
-10517 10804 0
10517 -10804 0
10983 10932 0
-10983 -10932 0
11659 11597 0
-11659 -11597 0
11908 11600 0
-11908 -11600 0
11848 11859 0
-11848 -11859 0
10957 10906 0
-10957 -10906 0
11632 10529 0
-11632 -10529 0
11851 11614 0
-11851 -11614 0
11652 11905 0
-11652 -11905 0
11858 11608 0
-11858 -11608 0
11868 11618 0
-11868 -11618 0
11621 11625 0
-11621 -11625 0
11482 11598 0
-11482 -11598 0
11644 11847 0
-11644 -11847 0
11654 11850 0
-11654 -11850 0
12183 11866 0
-12183 -11866 0
12147 11877 0
-12147 -11877 0
12149 11880 0
-12149 -11880 0
12151 11883 0
-12151 -11883 0
12153 11886 0
-12153 -11886 0
12155 11889 0
-12155 -11889 0
12157 11892 0
-12157 -11892 0
12159 11895 0
-12159 -11895 0
12161 11898 0
-12161 -11898 0
11649 11901 0
-11649 -11901 0
11672 11907 0
-11672 -11907 0
10575 11910 0
-10575 -11910 0
12167 11645 0
-12167 -11645 0
11741 10575 0
-11741 -10575 0
10581 10575 0
-10581 -10575 0
11008 11913 0
-11008 -11913 0
10585 11916 0
-10585 -11916 0
11812 10581 0
-11812 -10581 0
11320 10585 0
-11320 -10585 0
10627 10585 0
-10627 -10585 0
11941 11922 0
-11941 -11922 0
11056 11925 0
-11056 -11925 0
11676 11928 0
-11676 -11928 0
10635 11928 0
-10635 -11928 0
11227 11494 0
-11227 -11494 0
11058 11494 0
-11058 -11494 0
11233 11497 0
-11233 -11497 0
11061 11497 0
-11061 -11497 0
11239 11500 0
-11239 -11500 0
11064 11500 0
-11064 -11500 0
11245 11503 0
-11245 -11503 0
11067 11503 0
-11067 -11503 0
11251 11506 0
-11251 -11506 0
11070 11506 0
-11070 -11506 0
11257 11509 0
-11257 -11509 0
11073 11509 0
-11073 -11509 0
11263 11512 0
-11263 -11512 0
11076 11512 0
-11076 -11512 0
11269 11515 0
-11269 -11515 0
11079 11515 0
-11079 -11515 0
11347 10627 0
-11347 -10627 0
12175 11931 0
-12175 -11931 0
11323 11676 0
-11323 -11676 0
11380 10635 0
-11380 -10635 0
10653 10635 0
-10653 -10635 0
11154 11495 0
-11154 -11495 0
11157 11498 0
-11157 -11498 0
11160 11501 0
-11160 -11501 0
11163 11504 0
-11163 -11504 0
11166 11507 0
-11166 -11507 0
11169 11510 0
-11169 -11510 0
11172 11513 0
-11172 -11513 0
11175 11516 0
-11175 -11516 0
11224 10653 0
-11224 -10653 0
11179 11224 0
-11179 -11224 0
11182 11224 0
-11182 -11224 0
11185 11224 0
-11185 -11224 0
11188 11224 0
-11188 -11224 0
11191 11224 0
-11191 -11224 0
11194 11224 0
-11194 -11224 0
11197 11224 0
-11197 -11224 0
11200 11224 0
-11200 -11224 0
12131 11944 0
-12131 -11944 0
12133 11948 0
-12133 -11948 0
12135 11952 0
-12135 -11952 0
12137 11956 0
-12137 -11956 0
12139 11960 0
-12139 -11960 0
12141 11964 0
-12141 -11964 0
12143 11968 0
-12143 -11968 0
11274 11517 0
-11274 -11517 0
11280 11520 0
-11280 -11520 0
11286 11523 0
-11286 -11523 0
11292 11526 0
-11292 -11526 0
11298 11529 0
-11298 -11529 0
11304 11532 0
-11304 -11532 0
11310 11535 0
-11310 -11535 0
11316 11538 0
-11316 -11538 0
11690 11277 0
-11690 -11277 0
12006 11289 0
-12006 -11289 0
11760 11307 0
-11760 -11307 0
11788 11313 0
-11788 -11313 0
11352 11675 0
-11352 -11675 0
12024 11544 0
-12024 -11544 0
11355 11544 0
-11355 -11544 0
11385 11714 0
-11385 -11714 0
12054 11685 0
-12054 -11685 0
11391 11685 0
-11391 -11685 0
11418 11692 0
-11418 -11692 0
11421 11725 0
-11421 -11725 0
11584 11559 0
-11584 -11559 0
11409 11559 0
-11409 -11559 0
11442 11562 0
-11442 -11562 0
12064 11677 0
-12064 -11677 0
11702 11683 0
-11702 -11683 0
11383 11688 0
-11383 -11688 0
12062 11691 0
-12062 -11691 0
11386 12026 0
-11386 -12026 0
11762 11706 0
-11762 -11706 0
11389 11386 0
-11389 -11386 0
11763 11709 0
-11763 -11709 0
11413 11745 0
-11413 -11745 0
11766 11751 0
-11766 -11751 0
11416 11759 0
-11416 -11759 0
11419 12056 0
-11419 -12056 0
11422 12060 0
-11422 -12060 0
11425 11419 0
-11425 -11419 0
12145 12068 0
-12145 -12068 0
11585 11764 0
-11585 -11764 0
11434 11422 0
-11434 -11422 0
11452 11786 0
-11452 -11786 0
-11932 10932 0
-11932 10768 0
11932 -10932 -10768 0
-11870 10887 0
-11870 11103 0
11870 -10887 -11103 0
-12080 10911 0
-12080 11942 0
12080 -10911 -11942 0
-11844 10887 0
-11844 11597 0
11844 -10887 -11597 0
-11929 10932 0
-11929 10780 0
11929 -10932 -10780 0
-11863 10887 0
-11863 11094 0
11863 -10887 -11094 0
-11914 10932 0
-11914 10786 0
11914 -10932 -10786 0
-11833 10884 0
-11833 11052 0
11833 -10884 -11052 0
-11871 10884 0
-11871 11596 0
11871 -10884 -11596 0
-11836 10887 0
-11836 11091 0
11836 -10887 -11091 0
-12092 10923 0
-12092 11942 0
12092 -10923 -11942 0
-11855 10884 0
-11855 11049 0
11855 -10884 -11049 0
-11911 10932 0
-11911 10804 0
11911 -10932 -10804 0
-11834 10899 0
-11834 11148 0
11834 -10899 -11148 0
-11865 10899 0
-11865 11142 0
11865 -10899 -11142 0
-11917 10932 0
-11917 10813 0
11917 -10932 -10813 0
-11832 10887 0
-11832 11100 0
11832 -10887 -11100 0
-12104 10920 0
-12104 11942 0
12104 -10920 -11942 0
-11875 10884 0
-11875 11037 0
11875 -10884 -11037 0
-11838 10899 0
-11838 11139 0
11838 -10899 -11139 0
-12086 10914 0
-12086 11942 0
12086 -10914 -11942 0
-11837 10884 0
-11837 11043 0
11837 -10884 -11043 0
-11856 10899 0
-11856 11145 0
11856 -10899 -11145 0
-11842 10899 0
-11842 11136 0
11842 -10899 -11136 0
-11926 10932 0
-11926 10840 0
11926 -10932 -10840 0
-12110 10926 0
-12110 11942 0
12110 -10926 -11942 0
-11846 10899 0
-11846 11130 0
11846 -10899 -11130 0
-11841 10884 0
-11841 11040 0
11841 -10884 -11040 0
-11882 10911 0
-11882 10906 0
11882 -10911 -10906 0
-11885 10914 0
-11885 10906 0
11885 -10914 -10906 0
-11891 10920 0
-11891 10906 0
11891 -10920 -10906 0
-11894 10923 0
-11894 10906 0
11894 -10923 -10906 0
-11897 10926 0
-11897 10906 0
11897 -10926 -10906 0
-11840 10887 0
-11840 11088 0
11840 -10887 -11088 0
-11845 10884 0
-11845 11034 0
11845 -10884 -11034 0
-11849 11614 0
-11849 11905 0
11849 -11614 -11905 0
-11939 10929 0
-11939 11942 0
11939 -10929 -11942 0
-11900 10929 0
-11900 10906 0
11900 -10929 -10906 0
-11854 10887 0
-11854 11097 0
11854 -10887 -11097 0
-11864 10884 0
-11864 11046 0
11864 -10884 -11046 0
-11874 10887 0
-11874 11085 0
11874 -10887 -11085 0
-12074 10908 0
-12074 11942 0
12074 -10908 -11942 0
-11879 10908 0
-11879 10906 0
11879 -10908 -10906 0
-11872 10899 0
-11872 11151 0
11872 -10899 -11151 0
-11876 10899 0
-11876 11133 0
11876 -10899 -11133 0
-12098 10917 0
-12098 11942 0
12098 -10917 -11942 0
-11888 10917 0
-11888 10906 0
11888 -10917 -10906 0
-11946 10908 0
-11946 11935 0
11946 -10908 -11935 0
-11950 10911 0
-11950 11935 0
11950 -10911 -11935 0
-11954 10914 0
-11954 11935 0
11954 -10914 -11935 0
-11958 10917 0
-11958 11935 0
11958 -10917 -11935 0
-11962 10920 0
-11962 11935 0
11962 -10920 -11935 0
-11966 10923 0
-11966 11935 0
11966 -10923 -11935 0
-11970 10926 0
-11970 11935 0
11970 -10926 -11935 0
-12070 10929 0
-12070 11935 0
12070 -10929 -11935 0
-11923 10932 0
-11923 10933 0
11923 -10932 -10933 0
-11878 11034 0
-11878 10957 0
11878 -11034 -10957 0
-11881 11037 0
-11881 10957 0
11881 -11037 -10957 0
-11884 11040 0
-11884 10957 0
11884 -11040 -10957 0
-11887 11043 0
-11887 10957 0
11887 -11043 -10957 0
-11890 11046 0
-11890 10957 0
11890 -11046 -10957 0
-11893 11049 0
-11893 10957 0
11893 -11049 -10957 0
-11896 11052 0
-11896 10957 0
11896 -11052 -10957 0
-11899 11596 0
-11899 10957 0
11899 -11596 -10957 0
-11909 11604 0
-11909 11628 0
11909 -11604 -11628 0
-11912 10983 0
-11912 12187 0
11912 -10983 -12187 0
-11915 10983 0
-11915 12177 0
11915 -10983 -12177 0
-11918 10983 0
-11918 12183 0
11918 -10983 -12183 0
-11921 11660 0
-11921 11658 0
11921 -11660 -11658 0
-11924 10983 0
-11924 12181 0
11924 -10983 -12181 0
-11927 10983 0
-11927 12179 0
11927 -10983 -12179 0
-11930 10983 0
-11930 12185 0
11930 -10983 -12185 0
-11933 10983 0
-11933 12173 0
11933 -10983 -12173 0
-11494 11130 0
-11494 11008 0
11494 -11130 -11008 0
-11497 11133 0
-11497 11008 0
11497 -11133 -11008 0
-11500 11136 0
-11500 11008 0
11500 -11136 -11008 0
-11503 11139 0
-11503 11008 0
11503 -11139 -11008 0
-11506 11142 0
-11506 11008 0
11506 -11142 -11008 0
-11509 11145 0
-11509 11008 0
11509 -11145 -11008 0
-11512 11148 0
-11512 11008 0
11512 -11148 -11008 0
-11515 11151 0
-11515 11008 0
11515 -11151 -11008 0
-11938 11669 0
-11938 11941 0
11938 -11669 -11941 0
-11945 11085 0
-11945 11941 0
11945 -11085 -11941 0
-11949 11088 0
-11949 11941 0
11949 -11088 -11941 0
-11953 11091 0
-11953 11941 0
11953 -11091 -11941 0
-11957 11094 0
-11957 11941 0
11957 -11094 -11941 0
-11961 11097 0
-11961 11941 0
11961 -11097 -11941 0
-11965 11100 0
-11965 11941 0
11965 -11100 -11941 0
-11969 11103 0
-11969 11941 0
11969 -11103 -11941 0
-11495 11034 0
-11495 11056 0
11495 -11034 -11056 0
-11498 11037 0
-11498 11056 0
11498 -11037 -11056 0
-11501 11040 0
-11501 11056 0
11501 -11040 -11056 0
-11504 11043 0
-11504 11056 0
11504 -11043 -11056 0
-11507 11046 0
-11507 11056 0
11507 -11046 -11056 0
-11510 11049 0
-11510 11056 0
11510 -11049 -11056 0
-11513 11052 0
-11513 11056 0
11513 -11052 -11056 0
-11516 11596 0
-11516 11056 0
11516 -11596 -11056 0
-11974 11058 0
-11974 11347 0
11974 -11058 -11347 0
-11977 11061 0
-11977 11347 0
11977 -11061 -11347 0
-11980 11064 0
-11980 11347 0
11980 -11064 -11347 0
-11983 11067 0
-11983 11347 0
11983 -11067 -11347 0
-11986 11070 0
-11986 11347 0
11986 -11070 -11347 0
-11989 11073 0
-11989 11347 0
11989 -11073 -11347 0
-11992 11076 0
-11992 11347 0
11992 -11076 -11347 0
-11995 11079 0
-11995 11347 0
11995 -11079 -11347 0
-11947 11597 0
-11947 11934 0
11947 -11597 -11934 0
-11951 11085 0
-11951 11934 0
11951 -11085 -11934 0
-11955 11088 0
-11955 11934 0
11955 -11088 -11934 0
-11959 11091 0
-11959 11934 0
11959 -11091 -11934 0
-11963 11094 0
-11963 11934 0
11963 -11094 -11934 0
-11967 11097 0
-11967 11934 0
11967 -11097 -11934 0
-11971 11100 0
-11971 11934 0
11971 -11100 -11934 0
-12071 11103 0
-12071 11934 0
12071 -11103 -11934 0
-11973 11493 0
-11973 11320 0
11973 -11493 -11320 0
-11976 11496 0
-11976 11320 0
11976 -11496 -11320 0
-11979 11499 0
-11979 11320 0
11979 -11499 -11320 0
-11982 11502 0
-11982 11320 0
11982 -11502 -11320 0
-11985 11505 0
-11985 11320 0
11985 -11505 -11320 0
-11988 11508 0
-11988 11320 0
11988 -11508 -11320 0
-11991 11511 0
-11991 11320 0
11991 -11511 -11320 0
-11994 11514 0
-11994 11320 0
11994 -11514 -11320 0
-12066 11130 0
-12066 11940 0
12066 -11130 -11940 0
-12076 11133 0
-12076 11940 0
12076 -11133 -11940 0
-12082 11136 0
-12082 11940 0
12082 -11136 -11940 0
-12088 11139 0
-12088 11940 0
12088 -11139 -11940 0
-12100 11142 0
-12100 11940 0
12100 -11142 -11940 0
-12106 11145 0
-12106 11940 0
12106 -11145 -11940 0
-12094 11148 0
-12094 11940 0
12094 -11148 -11940 0
-12112 11151 0
-12112 11940 0
12112 -11151 -11940 0
-11519 11154 0
-11519 11224 0
11519 -11154 -11224 0
-11522 11157 0
-11522 11224 0
11522 -11157 -11224 0
-11525 11160 0
-11525 11224 0
11525 -11160 -11224 0
-11528 11163 0
-11528 11224 0
11528 -11163 -11224 0
-11531 11166 0
-11531 11224 0
11531 -11166 -11224 0
-11534 11169 0
-11534 11224 0
11534 -11169 -11224 0
-11537 11172 0
-11537 11224 0
11537 -11172 -11224 0
-11540 11175 0
-11540 11224 0
11540 -11175 -11224 0
-11518 11495 0
-11518 11179 0
11518 -11495 -11179 0
-11521 11498 0
-11521 11182 0
11521 -11498 -11182 0
-11524 11501 0
-11524 11185 0
11524 -11501 -11185 0
-11527 11504 0
-11527 11188 0
11527 -11504 -11188 0
-11530 11507 0
-11530 11191 0
11530 -11507 -11191 0
-11533 11510 0
-11533 11194 0
11533 -11510 -11194 0
-11536 11513 0
-11536 11197 0
11536 -11513 -11197 0
-11539 11516 0
-11539 11200 0
11539 -11516 -11200 0
-12031 11972 0
-12031 11224 0
12031 -11972 -11224 0
-12034 11975 0
-12034 11224 0
12034 -11975 -11224 0
-12037 11978 0
-12037 11224 0
12037 -11978 -11224 0
-12040 11981 0
-12040 11224 0
12040 -11981 -11224 0
-12043 11984 0
-12043 11224 0
12043 -11984 -11224 0
-12046 11987 0
-12046 11224 0
12046 -11987 -11224 0
-12049 11990 0
-12049 11224 0
12049 -11990 -11224 0
-12052 11993 0
-12052 11224 0
12052 -11993 -11224 0
-11542 11517 0
-11542 11227 0
11542 -11517 -11227 0
-11277 11517 0
-11277 11494 0
11277 -11517 -11494 0
-11545 11520 0
-11545 11233 0
11545 -11520 -11233 0
-12027 11520 0
-12027 11497 0
12027 -11520 -11497 0
-11548 11523 0
-11548 11239 0
11548 -11523 -11239 0
-11289 11523 0
-11289 11500 0
11289 -11523 -11500 0
-11551 11526 0
-11551 11245 0
11551 -11526 -11245 0
-12057 11526 0
-12057 11503 0
12057 -11526 -11503 0
-11554 11529 0
-11554 11251 0
11554 -11529 -11251 0
-12063 11529 0
-12063 11506 0
12063 -11529 -11506 0
-11557 11532 0
-11557 11257 0
11557 -11532 -11257 0
-11307 11532 0
-11307 11509 0
11307 -11532 -11509 0
-11560 11535 0
-11560 11263 0
11560 -11535 -11263 0
-11313 11535 0
-11313 11512 0
11313 -11535 -11512 0
-11563 11538 0
-11563 11269 0
11563 -11538 -11269 0
-11319 11538 0
-11319 11515 0
11319 -11538 -11515 0
-11543 11274 0
-11543 11494 0
11543 -11274 -11494 0
-11997 11277 0
-11997 11320 0
11997 -11277 -11320 0
-11546 11280 0
-11546 11497 0
11546 -11280 -11497 0
-12000 12027 0
-12000 11320 0
12000 -12027 -11320 0
-11549 11286 0
-11549 11500 0
11549 -11286 -11500 0
-12003 11289 0
-12003 11320 0
12003 -11289 -11320 0
-11552 11292 0
-11552 11503 0
11552 -11292 -11503 0
-12009 12057 0
-12009 11320 0
12009 -12057 -11320 0
-11555 11298 0
-11555 11506 0
11555 -11298 -11506 0
-12012 12063 0
-12012 11320 0
12012 -12063 -11320 0
-11558 11304 0
-11558 11509 0
11558 -11304 -11509 0
-12015 11307 0
-12015 11320 0
12015 -11307 -11320 0
-11561 11310 0
-11561 11512 0
11561 -11310 -11512 0
-12018 11313 0
-12018 11320 0
12018 -11313 -11320 0
-11564 11316 0
-11564 11515 0
11564 -11316 -11515 0
-12021 11319 0
-12021 11320 0
12021 -11319 -11320 0
-11566 11675 0
-11566 11323 0
11566 -11675 -11323 0
-11998 11675 0
-11998 11347 0
11998 -11675 -11347 0
-12001 11544 0
-12001 11347 0
12001 -11544 -11347 0
-12004 11714 0
-12004 11347 0
12004 -11714 -11347 0
-12010 11685 0
-12010 11347 0
12010 -11685 -11347 0
-12013 11692 0
-12013 11347 0
12013 -11692 -11347 0
-12016 11725 0
-12016 11347 0
12016 -11725 -11347 0
-12019 11559 0
-12019 11347 0
12019 -11559 -11347 0
-12022 11562 0
-12022 11347 0
12022 -11562 -11347 0
-12025 11690 0
-12025 11689 0
12025 -11690 -11689 0
-11567 11352 0
-11567 11676 0
11567 -11352 -11676 0
-11573 11355 0
-11573 11688 0
11573 -11355 -11688 0
-12030 11996 0
-12030 11380 0
12030 -11996 -11380 0
-12033 11999 0
-12033 11380 0
12033 -11999 -11380 0
-12036 12002 0
-12036 11380 0
12036 -12002 -11380 0
-12039 12008 0
-12039 11380 0
12039 -12008 -11380 0
-12042 12011 0
-12042 11380 0
12042 -12011 -11380 0
-12045 12014 0
-12045 11380 0
12045 -12014 -11380 0
-12048 12017 0
-12048 11380 0
12048 -12017 -11380 0
-12051 12020 0
-12051 11380 0
12051 -12020 -11380 0
-11572 11544 0
-11572 11383 0
11572 -11544 -11383 0
-11576 11385 0
-11576 11386 0
11576 -11385 -11386 0
-11575 11714 0
-11575 11389 0
11575 -11714 -11389 0
-11579 11391 0
-11579 11745 0
11579 -11391 -11745 0
-12061 11692 0
-12061 12058 0
12061 -11692 -12058 0
-12067 11748 0
-12067 12175 0
12067 -11748 -12175 0
-12069 11748 0
-12069 11941 0
12069 -11748 -11941 0
-12073 11756 0
-12073 11941 0
12073 -11756 -11941 0
-12077 11756 0
-12077 12175 0
12077 -11756 -12175 0
-11582 11409 0
-11582 11759 0
11582 -11409 -11759 0
-11578 11685 0
-11578 11413 0
11578 -11685 -11413 0
-11581 11559 0
-11581 11416 0
11581 -11559 -11416 0
-11588 11418 0
-11588 11419 0
11588 -11418 -11419 0
-11591 11421 0
-11591 11422 0
11591 -11421 -11422 0
-11587 11692 0
-11587 11425 0
11587 -11692 -11425 0
-12079 11774 0
-12079 11941 0
12079 -11774 -11941 0
-12083 11774 0
-12083 12175 0
12083 -11774 -12175 0
-11590 11725 0
-11590 11434 0
11590 -11725 -11434 0
-12085 11783 0
-12085 11941 0
12085 -11783 -11941 0
-12089 11783 0
-12089 12175 0
12089 -11783 -12175 0
-11594 11442 0
-11594 11786 0
11594 -11442 -11786 0
-12091 11789 0
-12091 11941 0
12091 -11789 -11941 0
-12095 11789 0
-12095 12175 0
12095 -11789 -12175 0
-11593 11562 0
-11593 11452 0
11593 -11562 -11452 0
-12097 11801 0
-12097 11941 0
12097 -11801 -11941 0
-12101 11801 0
-12101 12175 0
12101 -11801 -12175 0
-12103 11807 0
-12103 11941 0
12103 -11807 -11941 0
-12107 11807 0
-12107 12175 0
12107 -11807 -12175 0
-12109 11816 0
-12109 11941 0
12109 -11816 -11941 0
-12113 11816 0
-12113 12175 0
12113 -11816 -12175 0
11623 -11596 0
11623 -11597 0
-11623 11596 11597 0
11627 -11614 0
11627 -11652 0
-11627 11614 11652 0
11663 -11632 0
11663 -11868 0
-11663 11632 11868 0
11634 -11621 0
11634 -11482 0
-11634 11621 11482 0
11643 -11851 0
11643 -11604 0
-11643 11851 11604 0
11646 -11901 0
11646 -11906 0
-11646 11901 11906 0
11662 -11654 0
11662 -11659 0
11662 -11618 0
-11662 11654 11659 11618 0
11493 -11494 0
11493 -11495 0
-11493 11494 11495 0
11496 -11497 0
11496 -11498 0
-11496 11497 11498 0
11499 -11500 0
11499 -11501 0
-11499 11500 11501 0
11502 -11503 0
11502 -11504 0
-11502 11503 11504 0
11505 -11506 0
11505 -11507 0
-11505 11506 11507 0
11508 -11509 0
11508 -11510 0
-11508 11509 11510 0
11511 -11512 0
11511 -11513 0
-11511 11512 11513 0
11514 -11515 0
11514 -11516 0
-11514 11515 11516 0
11517 -11518 0
11517 -11519 0
-11517 11518 11519 0
11520 -11521 0
11520 -11522 0
-11520 11521 11522 0
11523 -11524 0
11523 -11525 0
-11523 11524 11525 0
11526 -11527 0
11526 -11528 0
-11526 11527 11528 0
11529 -11530 0
11529 -11531 0
-11529 11530 11531 0
11532 -11533 0
11532 -11534 0
-11532 11533 11534 0
11535 -11536 0
11535 -11537 0
-11535 11536 11537 0
11538 -11539 0
11538 -11540 0
-11538 11539 11540 0
11675 -11542 0
11675 -11543 0
-11675 11542 11543 0
11544 -11545 0
11544 -11546 0
-11544 11545 11546 0
11714 -11548 0
11714 -11549 0
-11714 11548 11549 0
11685 -11551 0
11685 -11552 0
-11685 11551 11552 0
11692 -11554 0
11692 -11555 0
-11692 11554 11555 0
11725 -11557 0
11725 -11558 0
-11725 11557 11558 0
11559 -11560 0
11559 -11561 0
-11559 11560 11561 0
11562 -11563 0
11562 -11564 0
-11562 11563 11564 0
11704 -11566 0
11704 -11567 0
-11704 11566 11567 0
11713 -12027 0
11713 -12028 0
-11713 12027 12028 0
11743 -11572 0
11743 -11573 0
-11743 11572 11573 0
11769 -11575 0
11769 -11576 0
-11769 11575 11576 0
11778 -11578 0
11778 -11579 0
-11778 11578 11579 0
11781 -11581 0
11781 -11582 0
-11781 11581 11582 0
11787 -11584 0
11787 -11585 0
-11787 11584 11585 0
11793 -11587 0
11793 -11588 0
-11793 11587 11588 0
11799 -11590 0
11799 -11591 0
-11799 11590 11591 0
11811 -11593 0
11811 -11594 0
-11811 11593 11594 0
11625 11596 0
11625 11597 0
-11625 -11596 -11597 0
11598 11859 0
11598 11600 0
-11598 -11859 -11600 0
11852 11859 0
11852 11905 0
-11852 -11859 -11905 0
11604 11848 0
11604 11905 0
-11604 -11848 -11905 0
11903 11608 0
11903 11632 0
-11903 -11608 -11632 0
11906 11848 0
11906 11851 0
-11906 -11848 -11851 0
11628 11614 0
11628 11652 0
-11628 -11614 -11652 0
12187 11858 0
12187 11618 0
-12187 -11858 -11618 0
11670 11852 0
11670 11621 0
-11670 -11852 -11621 0
11673 11623 0
11673 11850 0
11673 11625 0
-11673 -11623 -11850 -11625 0
12165 11627 0
12165 11628 0
-12165 -11627 -11628 0
12177 11851 0
12177 11857 0
12177 11632 0
-12177 -11851 -11857 -11632 0
11671 11634 0
11671 11851 0
-11671 -11634 -11851 0
11660 11902 0
11660 11904 0
-11660 -11902 -11904 0
11658 11903 0
11658 11904 0
-11658 -11903 -11904 0
12163 11643 0
12163 11644 0
-12163 -11643 -11644 0
11645 11646 0
11645 11652 0
-11645 -11646 -11652 0
12181 11649 0
12181 11851 0
12181 11848 0
12181 11652 0
-12181 -11649 -11851 -11848 -11652 0
12171 11654 0
12171 11660 0
12171 11658 0
-12171 -11654 -11660 -11658 0
12179 11658 0
12179 11659 0
12179 11660 0
-12179 -11658 -11659 -11660 0
12185 11662 0
12185 11663 0
-12185 -11662 -11663 0
12169 11670 0
12169 11672 0
12169 11671 0
12169 11673 0
-12169 -11670 -11672 -11671 -11673 0
11669 11670 0
11669 11671 0
11669 11672 0
11669 11673 0
-11669 -11670 -11671 -11672 -11673 0
11689 11675 0
11689 11676 0
-11689 -11675 -11676 0
11677 12057 0
11677 11692 0
-11677 -12057 -11692 0
11765 12063 0
11765 11725 0
-11765 -12063 -11725 0
11683 11725 0
11683 11685 0
11683 11692 0
11683 11714 0
-11683 -11725 -11685 -11692 -11714 0
11688 11689 0
11688 11690 0
-11688 -11689 -11690 0
11691 11692 0
11691 12059 0
-11691 -11692 -12059 0
11755 11725 0
11755 12064 0
-11755 -11725 -12064 0
11754 12027 0
11754 11702 0
-11754 -12027 -11702 0
11767 12028 0
11767 11702 0
-11767 -12028 -11702 0
11749 11704 0
11749 11812 0
-11749 -11704 -11812 0
11706 11765 0
11706 11754 0
-11706 -11765 -11754 0
11709 11755 0
11709 11767 0
-11709 -11755 -11767 0
12055 11713 0
12055 11714 0
-12055 -11713 -11714 0
11750 12029 0
11750 11741 0
-11750 -12029 -11741 0
11758 12032 0
11758 11741 0
-11758 -12032 -11741 0
11776 12035 0
11776 11741 0
-11776 -12035 -11741 0
11761 11725 0
11761 12062 0
-11761 -11725 -12062 0
11785 12038 0
11785 11741 0
-11785 -12038 -11741 0
11803 12041 0
11803 11741 0
-11803 -12041 -11741 0
11809 12044 0
11809 11741 0
-11809 -12044 -11741 0
11791 12047 0
11791 11741 0
-11791 -12047 -11741 0
11818 12050 0
11818 11741 0
-11818 -12050 -11741 0
11757 11743 0
11757 11812 0
-11757 -11743 -11812 0
11745 12006 0
11745 12055 0
-11745 -12006 -12055 0
11748 11749 0
11748 11750 0
-11748 -11749 -11750 0
11751 11760 0
11751 11761 0
11751 11754 0
11751 11755 0
-11751 -11760 -11761 -11754 -11755 0
11756 11757 0
11756 11758 0
-11756 -11757 -11758 0
11759 11760 0
11759 11761 0
11759 11762 0
11759 11763 0
-11759 -11760 -11761 -11762 -11763 0
11764 11765 0
11764 11766 0
11764 11767 0
-11764 -11765 -11766 -11767 0
11775 11769 0
11775 11812 0
-11775 -11769 -11812 0
12115 12072 0
12115 12065 0
-12115 -12072 -12065 0
11774 11775 0
11774 11776 0
-11774 -11775 -11776 0
11784 11778 0
11784 11812 0
-11784 -11778 -11812 0
11790 11781 0
11790 11812 0
-11790 -11781 -11812 0
11783 11784 0
11783 11785 0
-11783 -11784 -11785 0
11786 11787 0
11786 11788 0
-11786 -11787 -11788 0
11789 11790 0
11789 11791 0
-11789 -11790 -11791 0
11802 11793 0
11802 11812 0
-11802 -11793 -11812 0
12117 12078 0
12117 12075 0
-12117 -12078 -12075 0
11808 11799 0
11808 11812 0
-11808 -11799 -11812 0
11801 11802 0
11801 11803 0
-11801 -11802 -11803 0
12119 12084 0
12119 12081 0
-12119 -12084 -12081 0
11807 11808 0
11807 11809 0
-11807 -11808 -11809 0
11817 11811 0
11817 11812 0
-11817 -11811 -11812 0
12121 12096 0
12121 12087 0
-12121 -12096 -12087 0
11816 11817 0
11816 11818 0
-11816 -11817 -11818 0
12123 12102 0
12123 12099 0
-12123 -12102 -12099 0
12125 12090 0
12125 12105 0
-12125 -12090 -12105 0
12127 12108 0
12127 12093 0
-12127 -12108 -12093 0
12129 11937 0
12129 12111 0
-12129 -11937 -12111 0
-11831 -11832 0
-11831 -11833 0
-11831 -11834 0
11831 11832 11833 11834 0
-11835 -11836 0
-11835 -11837 0
-11835 -11838 0
11835 11836 11837 11838 0
-11839 -11840 0
-11839 -11841 0
-11839 -11842 0
11839 11840 11841 11842 0
-11843 -11844 0
-11843 -11845 0
-11843 -11846 0
11843 11844 11845 11846 0
-11847 -11848 0
-11847 -11849 0
11847 11848 11849 0
-11850 -11851 0
-11850 -11852 0
11850 11851 11852 0
-11853 -11854 0
-11853 -11855 0
-11853 -11856 0
11853 11854 11855 11856 0
-11857 -11858 0
-11857 -11859 0
-11857 -11902 0
-11857 -11905 0
11857 11858 11859 11902 11905 0
-11862 -11863 0
-11862 -11864 0
-11862 -11865 0
11862 11863 11864 11865 0
-11866 -11902 0
-11866 -11868 0
11866 11902 11868 0
-11869 -11870 0
-11869 -11871 0
-11869 -11872 0
11869 11870 11871 11872 0
-11873 -11874 0
-11873 -11875 0
-11873 -11876 0
11873 11874 11875 11876 0
-11877 -11878 0
-11877 -11879 0
11877 11878 11879 0
-11880 -11881 0
-11880 -11882 0
11880 11881 11882 0
-11883 -11884 0
-11883 -11885 0
11883 11884 11885 0
-11886 -11887 0
-11886 -11888 0
11886 11887 11888 0
-11889 -11890 0
-11889 -11891 0
11889 11890 11891 0
-11892 -11893 0
-11892 -11894 0
11892 11893 11894 0
-11895 -11896 0
-11895 -11897 0
11895 11896 11897 0
-11898 -11899 0
-11898 -11900 0
11898 11899 11900 0
-11901 -11902 0
-11901 -11903 0
11901 11902 11903 0
-11904 -11905 0
-11904 -11906 0
11904 11905 11906 0
-11907 -11908 0
-11907 -11909 0
11907 11908 11909 0
-11910 -11911 0
-11910 -11912 0
11910 11911 11912 0
-11913 -11914 0
-11913 -11915 0
11913 11914 11915 0
-11916 -11917 0
-11916 -11918 0
11916 11917 11918 0
-12173 -11942 0
-12173 -11921 0
12173 11942 11921 0
-11922 -11923 0
-11922 -11924 0
11922 11923 11924 0
-11925 -11926 0
-11925 -11927 0
11925 11926 11927 0
-11928 -11929 0
-11928 -11930 0
11928 11929 11930 0
-11931 -11932 0
-11931 -11933 0
11931 11932 11933 0
-11934 -11935 0
-11934 -11941 0
11934 11935 11941 0
-11937 -11938 0
-11937 -11939 0
11937 11938 11939 0
-11940 -11941 0
-11940 -11942 0
-11940 -12175 0
11940 11941 11942 12175 0
-11944 -11945 0
-11944 -11946 0
-11944 -11947 0
11944 11945 11946 11947 0
-11948 -11949 0
-11948 -11950 0
-11948 -11951 0
11948 11949 11950 11951 0
-11952 -11953 0
-11952 -11954 0
-11952 -11955 0
11952 11953 11954 11955 0
-11956 -11957 0
-11956 -11958 0
-11956 -11959 0
11956 11957 11958 11959 0
-11960 -11961 0
-11960 -11962 0
-11960 -11963 0
11960 11961 11962 11963 0
-11964 -11965 0
-11964 -11966 0
-11964 -11967 0
11964 11965 11966 11967 0
-11968 -11969 0
-11968 -11970 0
-11968 -11971 0
11968 11969 11970 11971 0
-11972 -11973 0
-11972 -11974 0
11972 11973 11974 0
-11975 -11976 0
-11975 -11977 0
11975 11976 11977 0
-11978 -11979 0
-11978 -11980 0
11978 11979 11980 0
-11981 -11982 0
-11981 -11983 0
11981 11982 11983 0
-11984 -11985 0
-11984 -11986 0
11984 11985 11986 0
-11987 -11988 0
-11987 -11989 0
11987 11988 11989 0
-11990 -11991 0
-11990 -11992 0
11990 11991 11992 0
-11993 -11994 0
-11993 -11995 0
11993 11994 11995 0
-11996 -11997 0
-11996 -11998 0
11996 11997 11998 0
-11999 -12000 0
-11999 -12001 0
11999 12000 12001 0
-12002 -12003 0
-12002 -12004 0
12002 12003 12004 0
-12059 -12006 0
-12059 -12054 0
12059 12006 12054 0
-12008 -12009 0
-12008 -12010 0
12008 12009 12010 0
-12011 -12012 0
-12011 -12013 0
12011 12012 12013 0
-12014 -12015 0
-12014 -12016 0
12014 12015 12016 0
-12017 -12018 0
-12017 -12019 0
12017 12018 12019 0
-12020 -12021 0
-12020 -12022 0
12020 12021 12022 0
-12028 -12024 0
-12028 -12025 0
12028 12024 12025 0
-12026 -12027 0
-12026 -12028 0
12026 12027 12028 0
-12029 -12030 0
-12029 -12031 0
12029 12030 12031 0
-12032 -12033 0
-12032 -12034 0
12032 12033 12034 0
-12035 -12036 0
-12035 -12037 0
12035 12036 12037 0
-12038 -12039 0
-12038 -12040 0
12038 12039 12040 0
-12041 -12042 0
-12041 -12043 0
12041 12042 12043 0
-12044 -12045 0
-12044 -12046 0
12044 12045 12046 0
-12047 -12048 0
-12047 -12049 0
12047 12048 12049 0
-12050 -12051 0
-12050 -12052 0
12050 12051 12052 0
-12058 -12054 0
-12058 -12055 0
12058 12054 12055 0
-12056 -12057 0
-12056 -12058 0
-12056 -12059 0
12056 12057 12058 12059 0
-12060 -12061 0
-12060 -12062 0
-12060 -12063 0
-12060 -12064 0
12060 12061 12062 12063 12064 0
-12065 -12066 0
-12065 -12067 0
12065 12066 12067 0
-12068 -12069 0
-12068 -12070 0
-12068 -12071 0
12068 12069 12070 12071 0
-12072 -12073 0
-12072 -12074 0
12072 12073 12074 0
-12075 -12076 0
-12075 -12077 0
12075 12076 12077 0
-12078 -12079 0
-12078 -12080 0
12078 12079 12080 0
-12081 -12082 0
-12081 -12083 0
12081 12082 12083 0
-12084 -12085 0
-12084 -12086 0
12084 12085 12086 0
-12087 -12088 0
-12087 -12089 0
12087 12088 12089 0
-12090 -12091 0
-12090 -12092 0
12090 12091 12092 0
-12093 -12094 0
-12093 -12095 0
12093 12094 12095 0
-12096 -12097 0
-12096 -12098 0
12096 12097 12098 0
-12099 -12100 0
-12099 -12101 0
12099 12100 12101 0
-12102 -12103 0
-12102 -12104 0
12102 12103 12104 0
-12105 -12106 0
-12105 -12107 0
12105 12106 12107 0
-12108 -12109 0
-12108 -12110 0
12108 12109 12110 0
-12111 -12112 0
-12111 -12113 0
12111 12112 12113 0
-12115 12800 0
12115 -12800 0
-12117 12803 0
12117 -12803 0
-12119 12806 0
12119 -12806 0
-12121 12809 0
12121 -12809 0
-12123 12812 0
12123 -12812 0
-12125 12815 0
12125 -12815 0
-12127 12818 0
12127 -12818 0
-12129 12821 0
12129 -12821 0
-12131 13267 0
12131 -13267 0
-12133 12755 0
12133 -12755 0
-12135 12758 0
12135 -12758 0
-12137 12761 0
12137 -12761 0
-12139 12764 0
12139 -12764 0
-12141 12767 0
12141 -12767 0
-12143 12770 0
12143 -12770 0
-12145 12773 0
12145 -12773 0
-12147 12704 0
12147 -12704 0
-12149 12707 0
12149 -12707 0
-12151 12710 0
12151 -12710 0
-12153 12713 0
12153 -12713 0
-12155 12716 0
12155 -12716 0
-12157 12719 0
12157 -12719 0
-12159 12722 0
12159 -12722 0
-12161 13266 0
12161 -13266 0
-12163 13529 0
12163 -13529 0
-12165 13284 0
12165 -13284 0
-12167 13575 0
12167 -13575 0
-12169 13270 0
12169 -13270 0
-12171 13288 0
12171 -13288 0
-12173 12438 0
12173 -12438 0
-12175 12174 0
12175 -12174 0
-12177 12456 0
12177 -12456 0
-12179 12510 0
12179 -12510 0
-12181 12603 0
12181 -12603 0
-12183 12483 0
12183 -12483 0
-12185 12450 0
12185 -12450 0
-12187 12474 0
12187 -12474 0
12653 12602 0
-12653 -12602 0
13329 13267 0
-13329 -13267 0
13578 13270 0
-13578 -13270 0
13518 13529 0
-13518 -13529 0
12627 12576 0
-12627 -12576 0
13302 12199 0
-13302 -12199 0
13521 13284 0
-13521 -13284 0
13322 13575 0
-13322 -13575 0
13528 13278 0
-13528 -13278 0
13538 13288 0
-13538 -13288 0
13291 13295 0
-13291 -13295 0
13152 13268 0
-13152 -13268 0
13314 13517 0
-13314 -13517 0
13324 13520 0
-13324 -13520 0
13853 13536 0
-13853 -13536 0
13817 13547 0
-13817 -13547 0
13819 13550 0
-13819 -13550 0
13821 13553 0
-13821 -13553 0
13823 13556 0
-13823 -13556 0
13825 13559 0
-13825 -13559 0
13827 13562 0
-13827 -13562 0
13829 13565 0
-13829 -13565 0
13831 13568 0
-13831 -13568 0
13319 13571 0
-13319 -13571 0
13342 13577 0
-13342 -13577 0
12245 13580 0
-12245 -13580 0
13837 13315 0
-13837 -13315 0
13411 12245 0
-13411 -12245 0
12251 12245 0
-12251 -12245 0
12678 13583 0
-12678 -13583 0
12255 13586 0
-12255 -13586 0
13482 12251 0
-13482 -12251 0
12990 12255 0
-12990 -12255 0
12297 12255 0
-12297 -12255 0
13611 13592 0
-13611 -13592 0
12726 13595 0
-12726 -13595 0
13346 13598 0
-13346 -13598 0
12305 13598 0
-12305 -13598 0
12897 13164 0
-12897 -13164 0
12728 13164 0
-12728 -13164 0
12903 13167 0
-12903 -13167 0
12731 13167 0
-12731 -13167 0
12909 13170 0
-12909 -13170 0
12734 13170 0
-12734 -13170 0
12915 13173 0
-12915 -13173 0
12737 13173 0
-12737 -13173 0
12921 13176 0
-12921 -13176 0
12740 13176 0
-12740 -13176 0
12927 13179 0
-12927 -13179 0
12743 13179 0
-12743 -13179 0
12933 13182 0
-12933 -13182 0
12746 13182 0
-12746 -13182 0
12939 13185 0
-12939 -13185 0
12749 13185 0
-12749 -13185 0
13017 12297 0
-13017 -12297 0
13845 13601 0
-13845 -13601 0
12993 13346 0
-12993 -13346 0
13050 12305 0
-13050 -12305 0
12323 12305 0
-12323 -12305 0
12824 13165 0
-12824 -13165 0
12827 13168 0
-12827 -13168 0
12830 13171 0
-12830 -13171 0
12833 13174 0
-12833 -13174 0
12836 13177 0
-12836 -13177 0
12839 13180 0
-12839 -13180 0
12842 13183 0
-12842 -13183 0
12845 13186 0
-12845 -13186 0
12894 12323 0
-12894 -12323 0
12849 12894 0
-12849 -12894 0
12852 12894 0
-12852 -12894 0
12855 12894 0
-12855 -12894 0
12858 12894 0
-12858 -12894 0
12861 12894 0
-12861 -12894 0
12864 12894 0
-12864 -12894 0
12867 12894 0
-12867 -12894 0
12870 12894 0
-12870 -12894 0
13801 13614 0
-13801 -13614 0
13803 13618 0
-13803 -13618 0
13805 13622 0
-13805 -13622 0
13807 13626 0
-13807 -13626 0
13809 13630 0
-13809 -13630 0
13811 13634 0
-13811 -13634 0
13813 13638 0
-13813 -13638 0
12944 13187 0
-12944 -13187 0
12950 13190 0
-12950 -13190 0
12956 13193 0
-12956 -13193 0
12962 13196 0
-12962 -13196 0
12968 13199 0
-12968 -13199 0
12974 13202 0
-12974 -13202 0
12980 13205 0
-12980 -13205 0
12986 13208 0
-12986 -13208 0
13360 12947 0
-13360 -12947 0
13676 12959 0
-13676 -12959 0
13430 12977 0
-13430 -12977 0
13458 12983 0
-13458 -12983 0
13022 13345 0
-13022 -13345 0
13694 13214 0
-13694 -13214 0
13025 13214 0
-13025 -13214 0
13055 13384 0
-13055 -13384 0
13724 13355 0
-13724 -13355 0
13061 13355 0
-13061 -13355 0
13088 13362 0
-13088 -13362 0
13091 13395 0
-13091 -13395 0
13254 13229 0
-13254 -13229 0
13079 13229 0
-13079 -13229 0
13112 13232 0
-13112 -13232 0
13734 13347 0
-13734 -13347 0
13372 13353 0
-13372 -13353 0
13053 13358 0
-13053 -13358 0
13732 13361 0
-13732 -13361 0
13056 13696 0
-13056 -13696 0
13432 13376 0
-13432 -13376 0
13059 13056 0
-13059 -13056 0
13433 13379 0
-13433 -13379 0
13083 13415 0
-13083 -13415 0
13436 13421 0
-13436 -13421 0
13086 13429 0
-13086 -13429 0
13089 13726 0
-13089 -13726 0
13092 13730 0
-13092 -13730 0
13095 13089 0
-13095 -13089 0
13815 13738 0
-13815 -13738 0
13255 13434 0
-13255 -13434 0
13104 13092 0
-13104 -13092 0
13122 13456 0
-13122 -13456 0
-13602 12602 0
-13602 12438 0
13602 -12602 -12438 0
-13540 12557 0
-13540 12773 0
13540 -12557 -12773 0
-13750 12581 0
-13750 13612 0
13750 -12581 -13612 0
-13514 12557 0
-13514 13267 0
13514 -12557 -13267 0
-13599 12602 0
-13599 12450 0
13599 -12602 -12450 0
-13533 12557 0
-13533 12764 0
13533 -12557 -12764 0
-13584 12602 0
-13584 12456 0
13584 -12602 -12456 0
-13503 12554 0
-13503 12722 0
13503 -12554 -12722 0
-13541 12554 0
-13541 13266 0
13541 -12554 -13266 0
-13506 12557 0
-13506 12761 0
13506 -12557 -12761 0
-13762 12593 0
-13762 13612 0
13762 -12593 -13612 0
-13525 12554 0
-13525 12719 0
13525 -12554 -12719 0
-13581 12602 0
-13581 12474 0
13581 -12602 -12474 0
-13504 12569 0
-13504 12818 0
13504 -12569 -12818 0
-13535 12569 0
-13535 12812 0
13535 -12569 -12812 0
-13587 12602 0
-13587 12483 0
13587 -12602 -12483 0
-13502 12557 0
-13502 12770 0
13502 -12557 -12770 0
-13774 12590 0
-13774 13612 0
13774 -12590 -13612 0
-13545 12554 0
-13545 12707 0
13545 -12554 -12707 0
-13508 12569 0
-13508 12809 0
13508 -12569 -12809 0
-13756 12584 0
-13756 13612 0
13756 -12584 -13612 0
-13507 12554 0
-13507 12713 0
13507 -12554 -12713 0
-13526 12569 0
-13526 12815 0
13526 -12569 -12815 0
-13512 12569 0
-13512 12806 0
13512 -12569 -12806 0
-13596 12602 0
-13596 12510 0
13596 -12602 -12510 0
-13780 12596 0
-13780 13612 0
13780 -12596 -13612 0
-13516 12569 0
-13516 12800 0
13516 -12569 -12800 0
-13511 12554 0
-13511 12710 0
13511 -12554 -12710 0
-13552 12581 0
-13552 12576 0
13552 -12581 -12576 0
-13555 12584 0
-13555 12576 0
13555 -12584 -12576 0
-13561 12590 0
-13561 12576 0
13561 -12590 -12576 0
-13564 12593 0
-13564 12576 0
13564 -12593 -12576 0
-13567 12596 0
-13567 12576 0
13567 -12596 -12576 0
-13510 12557 0
-13510 12758 0
13510 -12557 -12758 0
-13515 12554 0
-13515 12704 0
13515 -12554 -12704 0
-13519 13284 0
-13519 13575 0
13519 -13284 -13575 0
-13609 12599 0
-13609 13612 0
13609 -12599 -13612 0
-13570 12599 0
-13570 12576 0
13570 -12599 -12576 0
-13524 12557 0
-13524 12767 0
13524 -12557 -12767 0
-13534 12554 0
-13534 12716 0
13534 -12554 -12716 0
-13544 12557 0
-13544 12755 0
13544 -12557 -12755 0
-13744 12578 0
-13744 13612 0
13744 -12578 -13612 0
-13549 12578 0
-13549 12576 0
13549 -12578 -12576 0
-13542 12569 0
-13542 12821 0
13542 -12569 -12821 0
-13546 12569 0
-13546 12803 0
13546 -12569 -12803 0
-13768 12587 0
-13768 13612 0
13768 -12587 -13612 0
-13558 12587 0
-13558 12576 0
13558 -12587 -12576 0
-13616 12578 0
-13616 13605 0
13616 -12578 -13605 0
-13620 12581 0
-13620 13605 0
13620 -12581 -13605 0
-13624 12584 0
-13624 13605 0
13624 -12584 -13605 0
-13628 12587 0
-13628 13605 0
13628 -12587 -13605 0
-13632 12590 0
-13632 13605 0
13632 -12590 -13605 0
-13636 12593 0
-13636 13605 0
13636 -12593 -13605 0
-13640 12596 0
-13640 13605 0
13640 -12596 -13605 0
-13740 12599 0
-13740 13605 0
13740 -12599 -13605 0
-13593 12602 0
-13593 12603 0
13593 -12602 -12603 0
-13548 12704 0
-13548 12627 0
13548 -12704 -12627 0
-13551 12707 0
-13551 12627 0
13551 -12707 -12627 0
-13554 12710 0
-13554 12627 0
13554 -12710 -12627 0
-13557 12713 0
-13557 12627 0
13557 -12713 -12627 0
-13560 12716 0
-13560 12627 0
13560 -12716 -12627 0
-13563 12719 0
-13563 12627 0
13563 -12719 -12627 0
-13566 12722 0
-13566 12627 0
13566 -12722 -12627 0
-13569 13266 0
-13569 12627 0
13569 -13266 -12627 0
-13579 13274 0
-13579 13298 0
13579 -13274 -13298 0
-13582 12653 0
-13582 13857 0
13582 -12653 -13857 0
-13585 12653 0
-13585 13847 0
13585 -12653 -13847 0
-13588 12653 0
-13588 13853 0
13588 -12653 -13853 0
-13591 13330 0
-13591 13328 0
13591 -13330 -13328 0
-13594 12653 0
-13594 13851 0
13594 -12653 -13851 0
-13597 12653 0
-13597 13849 0
13597 -12653 -13849 0
-13600 12653 0
-13600 13855 0
13600 -12653 -13855 0
-13603 12653 0
-13603 13843 0
13603 -12653 -13843 0
-13164 12800 0
-13164 12678 0
13164 -12800 -12678 0
-13167 12803 0
-13167 12678 0
13167 -12803 -12678 0
-13170 12806 0
-13170 12678 0
13170 -12806 -12678 0
-13173 12809 0
-13173 12678 0
13173 -12809 -12678 0
-13176 12812 0
-13176 12678 0
13176 -12812 -12678 0
-13179 12815 0
-13179 12678 0
13179 -12815 -12678 0
-13182 12818 0
-13182 12678 0
13182 -12818 -12678 0
-13185 12821 0
-13185 12678 0
13185 -12821 -12678 0
-13608 13339 0
-13608 13611 0
13608 -13339 -13611 0
-13615 12755 0
-13615 13611 0
13615 -12755 -13611 0
-13619 12758 0
-13619 13611 0
13619 -12758 -13611 0
-13623 12761 0
-13623 13611 0
13623 -12761 -13611 0
-13627 12764 0
-13627 13611 0
13627 -12764 -13611 0
-13631 12767 0
-13631 13611 0
13631 -12767 -13611 0
-13635 12770 0
-13635 13611 0
13635 -12770 -13611 0
-13639 12773 0
-13639 13611 0
13639 -12773 -13611 0
-13165 12704 0
-13165 12726 0
13165 -12704 -12726 0
-13168 12707 0
-13168 12726 0
13168 -12707 -12726 0
-13171 12710 0
-13171 12726 0
13171 -12710 -12726 0
-13174 12713 0
-13174 12726 0
13174 -12713 -12726 0
-13177 12716 0
-13177 12726 0
13177 -12716 -12726 0
-13180 12719 0
-13180 12726 0
13180 -12719 -12726 0
-13183 12722 0
-13183 12726 0
13183 -12722 -12726 0
-13186 13266 0
-13186 12726 0
13186 -13266 -12726 0
-13644 12728 0
-13644 13017 0
13644 -12728 -13017 0
-13647 12731 0
-13647 13017 0
13647 -12731 -13017 0
-13650 12734 0
-13650 13017 0
13650 -12734 -13017 0
-13653 12737 0
-13653 13017 0
13653 -12737 -13017 0
-13656 12740 0
-13656 13017 0
13656 -12740 -13017 0
-13659 12743 0
-13659 13017 0
13659 -12743 -13017 0
-13662 12746 0
-13662 13017 0
13662 -12746 -13017 0
-13665 12749 0
-13665 13017 0
13665 -12749 -13017 0
-13617 13267 0
-13617 13604 0
13617 -13267 -13604 0
-13621 12755 0
-13621 13604 0
13621 -12755 -13604 0
-13625 12758 0
-13625 13604 0
13625 -12758 -13604 0
-13629 12761 0
-13629 13604 0
13629 -12761 -13604 0
-13633 12764 0
-13633 13604 0
13633 -12764 -13604 0
-13637 12767 0
-13637 13604 0
13637 -12767 -13604 0
-13641 12770 0
-13641 13604 0
13641 -12770 -13604 0
-13741 12773 0
-13741 13604 0
13741 -12773 -13604 0
-13643 13163 0
-13643 12990 0
13643 -13163 -12990 0
-13646 13166 0
-13646 12990 0
13646 -13166 -12990 0
-13649 13169 0
-13649 12990 0
13649 -13169 -12990 0
-13652 13172 0
-13652 12990 0
13652 -13172 -12990 0
-13655 13175 0
-13655 12990 0
13655 -13175 -12990 0
-13658 13178 0
-13658 12990 0
13658 -13178 -12990 0
-13661 13181 0
-13661 12990 0
13661 -13181 -12990 0
-13664 13184 0
-13664 12990 0
13664 -13184 -12990 0
-13736 12800 0
-13736 13610 0
13736 -12800 -13610 0
-13746 12803 0
-13746 13610 0
13746 -12803 -13610 0
-13752 12806 0
-13752 13610 0
13752 -12806 -13610 0
-13758 12809 0
-13758 13610 0
13758 -12809 -13610 0
-13770 12812 0
-13770 13610 0
13770 -12812 -13610 0
-13776 12815 0
-13776 13610 0
13776 -12815 -13610 0
-13764 12818 0
-13764 13610 0
13764 -12818 -13610 0
-13782 12821 0
-13782 13610 0
13782 -12821 -13610 0
-13189 12824 0
-13189 12894 0
13189 -12824 -12894 0
-13192 12827 0
-13192 12894 0
13192 -12827 -12894 0
-13195 12830 0
-13195 12894 0
13195 -12830 -12894 0
-13198 12833 0
-13198 12894 0
13198 -12833 -12894 0
-13201 12836 0
-13201 12894 0
13201 -12836 -12894 0
-13204 12839 0
-13204 12894 0
13204 -12839 -12894 0
-13207 12842 0
-13207 12894 0
13207 -12842 -12894 0
-13210 12845 0
-13210 12894 0
13210 -12845 -12894 0
-13188 13165 0
-13188 12849 0
13188 -13165 -12849 0
-13191 13168 0
-13191 12852 0
13191 -13168 -12852 0
-13194 13171 0
-13194 12855 0
13194 -13171 -12855 0
-13197 13174 0
-13197 12858 0
13197 -13174 -12858 0
-13200 13177 0
-13200 12861 0
13200 -13177 -12861 0
-13203 13180 0
-13203 12864 0
13203 -13180 -12864 0
-13206 13183 0
-13206 12867 0
13206 -13183 -12867 0
-13209 13186 0
-13209 12870 0
13209 -13186 -12870 0
-13701 13642 0
-13701 12894 0
13701 -13642 -12894 0
-13704 13645 0
-13704 12894 0
13704 -13645 -12894 0
-13707 13648 0
-13707 12894 0
13707 -13648 -12894 0
-13710 13651 0
-13710 12894 0
13710 -13651 -12894 0
-13713 13654 0
-13713 12894 0
13713 -13654 -12894 0
-13716 13657 0
-13716 12894 0
13716 -13657 -12894 0
-13719 13660 0
-13719 12894 0
13719 -13660 -12894 0
-13722 13663 0
-13722 12894 0
13722 -13663 -12894 0
-13212 13187 0
-13212 12897 0
13212 -13187 -12897 0
-12947 13187 0
-12947 13164 0
12947 -13187 -13164 0
-13215 13190 0
-13215 12903 0
13215 -13190 -12903 0
-13697 13190 0
-13697 13167 0
13697 -13190 -13167 0
-13218 13193 0
-13218 12909 0
13218 -13193 -12909 0
-12959 13193 0
-12959 13170 0
12959 -13193 -13170 0
-13221 13196 0
-13221 12915 0
13221 -13196 -12915 0
-13727 13196 0
-13727 13173 0
13727 -13196 -13173 0
-13224 13199 0
-13224 12921 0
13224 -13199 -12921 0
-13733 13199 0
-13733 13176 0
13733 -13199 -13176 0
-13227 13202 0
-13227 12927 0
13227 -13202 -12927 0
-12977 13202 0
-12977 13179 0
12977 -13202 -13179 0
-13230 13205 0
-13230 12933 0
13230 -13205 -12933 0
-12983 13205 0
-12983 13182 0
12983 -13205 -13182 0
-13233 13208 0
-13233 12939 0
13233 -13208 -12939 0
-12989 13208 0
-12989 13185 0
12989 -13208 -13185 0
-13213 12944 0
-13213 13164 0
13213 -12944 -13164 0
-13667 12947 0
-13667 12990 0
13667 -12947 -12990 0
-13216 12950 0
-13216 13167 0
13216 -12950 -13167 0
-13670 13697 0
-13670 12990 0
13670 -13697 -12990 0
-13219 12956 0
-13219 13170 0
13219 -12956 -13170 0
-13673 12959 0
-13673 12990 0
13673 -12959 -12990 0
-13222 12962 0
-13222 13173 0
13222 -12962 -13173 0
-13679 13727 0
-13679 12990 0
13679 -13727 -12990 0
-13225 12968 0
-13225 13176 0
13225 -12968 -13176 0
-13682 13733 0
-13682 12990 0
13682 -13733 -12990 0
-13228 12974 0
-13228 13179 0
13228 -12974 -13179 0
-13685 12977 0
-13685 12990 0
13685 -12977 -12990 0
-13231 12980 0
-13231 13182 0
13231 -12980 -13182 0
-13688 12983 0
-13688 12990 0
13688 -12983 -12990 0
-13234 12986 0
-13234 13185 0
13234 -12986 -13185 0
-13691 12989 0
-13691 12990 0
13691 -12989 -12990 0
-13236 13345 0
-13236 12993 0
13236 -13345 -12993 0
-13668 13345 0
-13668 13017 0
13668 -13345 -13017 0
-13671 13214 0
-13671 13017 0
13671 -13214 -13017 0
-13674 13384 0
-13674 13017 0
13674 -13384 -13017 0
-13680 13355 0
-13680 13017 0
13680 -13355 -13017 0
-13683 13362 0
-13683 13017 0
13683 -13362 -13017 0
-13686 13395 0
-13686 13017 0
13686 -13395 -13017 0
-13689 13229 0
-13689 13017 0
13689 -13229 -13017 0
-13692 13232 0
-13692 13017 0
13692 -13232 -13017 0
-13695 13360 0
-13695 13359 0
13695 -13360 -13359 0
-13237 13022 0
-13237 13346 0
13237 -13022 -13346 0
-13243 13025 0
-13243 13358 0
13243 -13025 -13358 0
-13700 13666 0
-13700 13050 0
13700 -13666 -13050 0
-13703 13669 0
-13703 13050 0
13703 -13669 -13050 0
-13706 13672 0
-13706 13050 0
13706 -13672 -13050 0
-13709 13678 0
-13709 13050 0
13709 -13678 -13050 0
-13712 13681 0
-13712 13050 0
13712 -13681 -13050 0
-13715 13684 0
-13715 13050 0
13715 -13684 -13050 0
-13718 13687 0
-13718 13050 0
13718 -13687 -13050 0
-13721 13690 0
-13721 13050 0
13721 -13690 -13050 0
-13242 13214 0
-13242 13053 0
13242 -13214 -13053 0
-13246 13055 0
-13246 13056 0
13246 -13055 -13056 0
-13245 13384 0
-13245 13059 0
13245 -13384 -13059 0
-13249 13061 0
-13249 13415 0
13249 -13061 -13415 0
-13731 13362 0
-13731 13728 0
13731 -13362 -13728 0
-13737 13418 0
-13737 13845 0
13737 -13418 -13845 0
-13739 13418 0
-13739 13611 0
13739 -13418 -13611 0
-13743 13426 0
-13743 13611 0
13743 -13426 -13611 0
-13747 13426 0
-13747 13845 0
13747 -13426 -13845 0
-13252 13079 0
-13252 13429 0
13252 -13079 -13429 0
-13248 13355 0
-13248 13083 0
13248 -13355 -13083 0
-13251 13229 0
-13251 13086 0
13251 -13229 -13086 0
-13258 13088 0
-13258 13089 0
13258 -13088 -13089 0
-13261 13091 0
-13261 13092 0
13261 -13091 -13092 0
-13257 13362 0
-13257 13095 0
13257 -13362 -13095 0
-13749 13444 0
-13749 13611 0
13749 -13444 -13611 0
-13753 13444 0
-13753 13845 0
13753 -13444 -13845 0
-13260 13395 0
-13260 13104 0
13260 -13395 -13104 0
-13755 13453 0
-13755 13611 0
13755 -13453 -13611 0
-13759 13453 0
-13759 13845 0
13759 -13453 -13845 0
-13264 13112 0
-13264 13456 0
13264 -13112 -13456 0
-13761 13459 0
-13761 13611 0
13761 -13459 -13611 0
-13765 13459 0
-13765 13845 0
13765 -13459 -13845 0
-13263 13232 0
-13263 13122 0
13263 -13232 -13122 0
-13767 13471 0
-13767 13611 0
13767 -13471 -13611 0
-13771 13471 0
-13771 13845 0
13771 -13471 -13845 0
-13773 13477 0
-13773 13611 0
13773 -13477 -13611 0
-13777 13477 0
-13777 13845 0
13777 -13477 -13845 0
-13779 13486 0
-13779 13611 0
13779 -13486 -13611 0
-13783 13486 0
-13783 13845 0
13783 -13486 -13845 0
13293 -13266 0
13293 -13267 0
-13293 13266 13267 0
13297 -13284 0
13297 -13322 0
-13297 13284 13322 0
13333 -13302 0
13333 -13538 0
-13333 13302 13538 0
13304 -13291 0
13304 -13152 0
-13304 13291 13152 0
13313 -13521 0
13313 -13274 0
-13313 13521 13274 0
13316 -13571 0
13316 -13576 0
-13316 13571 13576 0
13332 -13324 0
13332 -13329 0
13332 -13288 0
-13332 13324 13329 13288 0
13163 -13164 0
13163 -13165 0
-13163 13164 13165 0
13166 -13167 0
13166 -13168 0
-13166 13167 13168 0
13169 -13170 0
13169 -13171 0
-13169 13170 13171 0
13172 -13173 0
13172 -13174 0
-13172 13173 13174 0
13175 -13176 0
13175 -13177 0
-13175 13176 13177 0
13178 -13179 0
13178 -13180 0
-13178 13179 13180 0
13181 -13182 0
13181 -13183 0
-13181 13182 13183 0
13184 -13185 0
13184 -13186 0
-13184 13185 13186 0
13187 -13188 0
13187 -13189 0
-13187 13188 13189 0
13190 -13191 0
13190 -13192 0
-13190 13191 13192 0
13193 -13194 0
13193 -13195 0
-13193 13194 13195 0
13196 -13197 0
13196 -13198 0
-13196 13197 13198 0
13199 -13200 0
13199 -13201 0
-13199 13200 13201 0
13202 -13203 0
13202 -13204 0
-13202 13203 13204 0
13205 -13206 0
13205 -13207 0
-13205 13206 13207 0
13208 -13209 0
13208 -13210 0
-13208 13209 13210 0
13345 -13212 0
13345 -13213 0
-13345 13212 13213 0
13214 -13215 0
13214 -13216 0
-13214 13215 13216 0
13384 -13218 0
13384 -13219 0
-13384 13218 13219 0
13355 -13221 0
13355 -13222 0
-13355 13221 13222 0
13362 -13224 0
13362 -13225 0
-13362 13224 13225 0
13395 -13227 0
13395 -13228 0
-13395 13227 13228 0
13229 -13230 0
13229 -13231 0
-13229 13230 13231 0
13232 -13233 0
13232 -13234 0
-13232 13233 13234 0
13374 -13236 0
13374 -13237 0
-13374 13236 13237 0
13383 -13697 0
13383 -13698 0
-13383 13697 13698 0
13413 -13242 0
13413 -13243 0
-13413 13242 13243 0
13439 -13245 0
13439 -13246 0
-13439 13245 13246 0
13448 -13248 0
13448 -13249 0
-13448 13248 13249 0
13451 -13251 0
13451 -13252 0
-13451 13251 13252 0
13457 -13254 0
13457 -13255 0
-13457 13254 13255 0
13463 -13257 0
13463 -13258 0
-13463 13257 13258 0
13469 -13260 0
13469 -13261 0
-13469 13260 13261 0
13481 -13263 0
13481 -13264 0
-13481 13263 13264 0
13295 13266 0
13295 13267 0
-13295 -13266 -13267 0
13268 13529 0
13268 13270 0
-13268 -13529 -13270 0
13522 13529 0
13522 13575 0
-13522 -13529 -13575 0
13274 13518 0
13274 13575 0
-13274 -13518 -13575 0
13573 13278 0
13573 13302 0
-13573 -13278 -13302 0
13576 13518 0
13576 13521 0
-13576 -13518 -13521 0
13298 13284 0
13298 13322 0
-13298 -13284 -13322 0
13857 13528 0
13857 13288 0
-13857 -13528 -13288 0
13340 13522 0
13340 13291 0
-13340 -13522 -13291 0
13343 13293 0
13343 13520 0
13343 13295 0
-13343 -13293 -13520 -13295 0
13835 13297 0
13835 13298 0
-13835 -13297 -13298 0
13847 13521 0
13847 13527 0
13847 13302 0
-13847 -13521 -13527 -13302 0
13341 13304 0
13341 13521 0
-13341 -13304 -13521 0
13330 13572 0
13330 13574 0
-13330 -13572 -13574 0
13328 13573 0
13328 13574 0
-13328 -13573 -13574 0
13833 13313 0
13833 13314 0
-13833 -13313 -13314 0
13315 13316 0
13315 13322 0
-13315 -13316 -13322 0
13851 13319 0
13851 13521 0
13851 13518 0
13851 13322 0
-13851 -13319 -13521 -13518 -13322 0
13841 13324 0
13841 13330 0
13841 13328 0
-13841 -13324 -13330 -13328 0
13849 13328 0
13849 13329 0
13849 13330 0
-13849 -13328 -13329 -13330 0
13855 13332 0
13855 13333 0
-13855 -13332 -13333 0
13839 13340 0
13839 13342 0
13839 13341 0
13839 13343 0
-13839 -13340 -13342 -13341 -13343 0
13339 13340 0
13339 13341 0
13339 13342 0
13339 13343 0
-13339 -13340 -13341 -13342 -13343 0
13359 13345 0
13359 13346 0
-13359 -13345 -13346 0
13347 13727 0
13347 13362 0
-13347 -13727 -13362 0
13435 13733 0
13435 13395 0
-13435 -13733 -13395 0
13353 13395 0
13353 13355 0
13353 13362 0
13353 13384 0
-13353 -13395 -13355 -13362 -13384 0
13358 13359 0
13358 13360 0
-13358 -13359 -13360 0
13361 13362 0
13361 13729 0
-13361 -13362 -13729 0
13425 13395 0
13425 13734 0
-13425 -13395 -13734 0
13424 13697 0
13424 13372 0
-13424 -13697 -13372 0
13437 13698 0
13437 13372 0
-13437 -13698 -13372 0
13419 13374 0
13419 13482 0
-13419 -13374 -13482 0
13376 13435 0
13376 13424 0
-13376 -13435 -13424 0
13379 13425 0
13379 13437 0
-13379 -13425 -13437 0
13725 13383 0
13725 13384 0
-13725 -13383 -13384 0
13420 13699 0
13420 13411 0
-13420 -13699 -13411 0
13428 13702 0
13428 13411 0
-13428 -13702 -13411 0
13446 13705 0
13446 13411 0
-13446 -13705 -13411 0
13431 13395 0
13431 13732 0
-13431 -13395 -13732 0
13455 13708 0
13455 13411 0
-13455 -13708 -13411 0
13473 13711 0
13473 13411 0
-13473 -13711 -13411 0
13479 13714 0
13479 13411 0
-13479 -13714 -13411 0
13461 13717 0
13461 13411 0
-13461 -13717 -13411 0
13488 13720 0
13488 13411 0
-13488 -13720 -13411 0
13427 13413 0
13427 13482 0
-13427 -13413 -13482 0
13415 13676 0
13415 13725 0
-13415 -13676 -13725 0
13418 13419 0
13418 13420 0
-13418 -13419 -13420 0
13421 13430 0
13421 13431 0
13421 13424 0
13421 13425 0
-13421 -13430 -13431 -13424 -13425 0
13426 13427 0
13426 13428 0
-13426 -13427 -13428 0
13429 13430 0
13429 13431 0
13429 13432 0
13429 13433 0
-13429 -13430 -13431 -13432 -13433 0
13434 13435 0
13434 13436 0
13434 13437 0
-13434 -13435 -13436 -13437 0
13445 13439 0
13445 13482 0
-13445 -13439 -13482 0
13785 13742 0
13785 13735 0
-13785 -13742 -13735 0
13444 13445 0
13444 13446 0
-13444 -13445 -13446 0
13454 13448 0
13454 13482 0
-13454 -13448 -13482 0
13460 13451 0
13460 13482 0
-13460 -13451 -13482 0
13453 13454 0
13453 13455 0
-13453 -13454 -13455 0
13456 13457 0
13456 13458 0
-13456 -13457 -13458 0
13459 13460 0
13459 13461 0
-13459 -13460 -13461 0
13472 13463 0
13472 13482 0
-13472 -13463 -13482 0
13787 13748 0
13787 13745 0
-13787 -13748 -13745 0
13478 13469 0
13478 13482 0
-13478 -13469 -13482 0
13471 13472 0
13471 13473 0
-13471 -13472 -13473 0
13789 13754 0
13789 13751 0
-13789 -13754 -13751 0
13477 13478 0
13477 13479 0
-13477 -13478 -13479 0
13487 13481 0
13487 13482 0
-13487 -13481 -13482 0
13791 13766 0
13791 13757 0
-13791 -13766 -13757 0
13486 13487 0
13486 13488 0
-13486 -13487 -13488 0
13793 13772 0
13793 13769 0
-13793 -13772 -13769 0
13795 13760 0
13795 13775 0
-13795 -13760 -13775 0
13797 13778 0
13797 13763 0
-13797 -13778 -13763 0
13799 13607 0
13799 13781 0
-13799 -13607 -13781 0
-13501 -13502 0
-13501 -13503 0
-13501 -13504 0
13501 13502 13503 13504 0
-13505 -13506 0
-13505 -13507 0
-13505 -13508 0
13505 13506 13507 13508 0
-13509 -13510 0
-13509 -13511 0
-13509 -13512 0
13509 13510 13511 13512 0
-13513 -13514 0
-13513 -13515 0
-13513 -13516 0
13513 13514 13515 13516 0
-13517 -13518 0
-13517 -13519 0
13517 13518 13519 0
-13520 -13521 0
-13520 -13522 0
13520 13521 13522 0
-13523 -13524 0
-13523 -13525 0
-13523 -13526 0
13523 13524 13525 13526 0
-13527 -13528 0
-13527 -13529 0
-13527 -13572 0
-13527 -13575 0
13527 13528 13529 13572 13575 0
-13532 -13533 0
-13532 -13534 0
-13532 -13535 0
13532 13533 13534 13535 0
-13536 -13572 0
-13536 -13538 0
13536 13572 13538 0
-13539 -13540 0
-13539 -13541 0
-13539 -13542 0
13539 13540 13541 13542 0
-13543 -13544 0
-13543 -13545 0
-13543 -13546 0
13543 13544 13545 13546 0
-13547 -13548 0
-13547 -13549 0
13547 13548 13549 0
-13550 -13551 0
-13550 -13552 0
13550 13551 13552 0
-13553 -13554 0
-13553 -13555 0
13553 13554 13555 0
-13556 -13557 0
-13556 -13558 0
13556 13557 13558 0
-13559 -13560 0
-13559 -13561 0
13559 13560 13561 0
-13562 -13563 0
-13562 -13564 0
13562 13563 13564 0
-13565 -13566 0
-13565 -13567 0
13565 13566 13567 0
-13568 -13569 0
-13568 -13570 0
13568 13569 13570 0
-13571 -13572 0
-13571 -13573 0
13571 13572 13573 0
-13574 -13575 0
-13574 -13576 0
13574 13575 13576 0
-13577 -13578 0
-13577 -13579 0
13577 13578 13579 0
-13580 -13581 0
-13580 -13582 0
13580 13581 13582 0
-13583 -13584 0
-13583 -13585 0
13583 13584 13585 0
-13586 -13587 0
-13586 -13588 0
13586 13587 13588 0
-13843 -13612 0
-13843 -13591 0
13843 13612 13591 0
-13592 -13593 0
-13592 -13594 0
13592 13593 13594 0
-13595 -13596 0
-13595 -13597 0
13595 13596 13597 0
-13598 -13599 0
-13598 -13600 0
13598 13599 13600 0
-13601 -13602 0
-13601 -13603 0
13601 13602 13603 0
-13604 -13605 0
-13604 -13611 0
13604 13605 13611 0
-13607 -13608 0
-13607 -13609 0
13607 13608 13609 0
-13610 -13611 0
-13610 -13612 0
-13610 -13845 0
13610 13611 13612 13845 0
-13614 -13615 0
-13614 -13616 0
-13614 -13617 0
13614 13615 13616 13617 0
-13618 -13619 0
-13618 -13620 0
-13618 -13621 0
13618 13619 13620 13621 0
-13622 -13623 0
-13622 -13624 0
-13622 -13625 0
13622 13623 13624 13625 0
-13626 -13627 0
-13626 -13628 0
-13626 -13629 0
13626 13627 13628 13629 0
-13630 -13631 0
-13630 -13632 0
-13630 -13633 0
13630 13631 13632 13633 0
-13634 -13635 0
-13634 -13636 0
-13634 -13637 0
13634 13635 13636 13637 0
-13638 -13639 0
-13638 -13640 0
-13638 -13641 0
13638 13639 13640 13641 0
-13642 -13643 0
-13642 -13644 0
13642 13643 13644 0
-13645 -13646 0
-13645 -13647 0
13645 13646 13647 0
-13648 -13649 0
-13648 -13650 0
13648 13649 13650 0
-13651 -13652 0
-13651 -13653 0
13651 13652 13653 0
-13654 -13655 0
-13654 -13656 0
13654 13655 13656 0
-13657 -13658 0
-13657 -13659 0
13657 13658 13659 0
-13660 -13661 0
-13660 -13662 0
13660 13661 13662 0
-13663 -13664 0
-13663 -13665 0
13663 13664 13665 0
-13666 -13667 0
-13666 -13668 0
13666 13667 13668 0
-13669 -13670 0
-13669 -13671 0
13669 13670 13671 0
-13672 -13673 0
-13672 -13674 0
13672 13673 13674 0
-13729 -13676 0
-13729 -13724 0
13729 13676 13724 0
-13678 -13679 0
-13678 -13680 0
13678 13679 13680 0
-13681 -13682 0
-13681 -13683 0
13681 13682 13683 0
-13684 -13685 0
-13684 -13686 0
13684 13685 13686 0
-13687 -13688 0
-13687 -13689 0
13687 13688 13689 0
-13690 -13691 0
-13690 -13692 0
13690 13691 13692 0
-13698 -13694 0
-13698 -13695 0
13698 13694 13695 0
-13696 -13697 0
-13696 -13698 0
13696 13697 13698 0
-13699 -13700 0
-13699 -13701 0
13699 13700 13701 0
-13702 -13703 0
-13702 -13704 0
13702 13703 13704 0
-13705 -13706 0
-13705 -13707 0
13705 13706 13707 0
-13708 -13709 0
-13708 -13710 0
13708 13709 13710 0
-13711 -13712 0
-13711 -13713 0
13711 13712 13713 0
-13714 -13715 0
-13714 -13716 0
13714 13715 13716 0
-13717 -13718 0
-13717 -13719 0
13717 13718 13719 0
-13720 -13721 0
-13720 -13722 0
13720 13721 13722 0
-13728 -13724 0
-13728 -13725 0
13728 13724 13725 0
-13726 -13727 0
-13726 -13728 0
-13726 -13729 0
13726 13727 13728 13729 0
-13730 -13731 0
-13730 -13732 0
-13730 -13733 0
-13730 -13734 0
13730 13731 13732 13733 13734 0
-13735 -13736 0
-13735 -13737 0
13735 13736 13737 0
-13738 -13739 0
-13738 -13740 0
-13738 -13741 0
13738 13739 13740 13741 0
-13742 -13743 0
-13742 -13744 0
13742 13743 13744 0
-13745 -13746 0
-13745 -13747 0
13745 13746 13747 0
-13748 -13749 0
-13748 -13750 0
13748 13749 13750 0
-13751 -13752 0
-13751 -13753 0
13751 13752 13753 0
-13754 -13755 0
-13754 -13756 0
13754 13755 13756 0
-13757 -13758 0
-13757 -13759 0
13757 13758 13759 0
-13760 -13761 0
-13760 -13762 0
13760 13761 13762 0
-13763 -13764 0
-13763 -13765 0
13763 13764 13765 0
-13766 -13767 0
-13766 -13768 0
13766 13767 13768 0
-13769 -13770 0
-13769 -13771 0
13769 13770 13771 0
-13772 -13773 0
-13772 -13774 0
13772 13773 13774 0
-13775 -13776 0
-13775 -13777 0
13775 13776 13777 0
-13778 -13779 0
-13778 -13780 0
13778 13779 13780 0
-13781 -13782 0
-13781 -13783 0
13781 13782 13783 0
-13785 14470 0
13785 -14470 0
-13787 14473 0
13787 -14473 0
-13789 14476 0
13789 -14476 0
-13791 14479 0
13791 -14479 0
-13793 14482 0
13793 -14482 0
-13795 14485 0
13795 -14485 0
-13797 14488 0
13797 -14488 0
-13799 14491 0
13799 -14491 0
-13801 14937 0
13801 -14937 0
-13803 14425 0
13803 -14425 0
-13805 14428 0
13805 -14428 0
-13807 14431 0
13807 -14431 0
-13809 14434 0
13809 -14434 0
-13811 14437 0
13811 -14437 0
-13813 14440 0
13813 -14440 0
-13815 14443 0
13815 -14443 0
-13817 14374 0
13817 -14374 0
-13819 14377 0
13819 -14377 0
-13821 14380 0
13821 -14380 0
-13823 14383 0
13823 -14383 0
-13825 14386 0
13825 -14386 0
-13827 14389 0
13827 -14389 0
-13829 14392 0
13829 -14392 0
-13831 14936 0
13831 -14936 0
-13833 15199 0
13833 -15199 0
-13835 14954 0
13835 -14954 0
-13837 15245 0
13837 -15245 0
-13839 14940 0
13839 -14940 0
-13841 14958 0
13841 -14958 0
-13843 14108 0
13843 -14108 0
-13845 13844 0
13845 -13844 0
-13847 14126 0
13847 -14126 0
-13849 14180 0
13849 -14180 0
-13851 14273 0
13851 -14273 0
-13853 14153 0
13853 -14153 0
-13855 14120 0
13855 -14120 0
-13857 14144 0
13857 -14144 0
14323 14272 0
-14323 -14272 0
14999 14937 0
-14999 -14937 0
15248 14940 0
-15248 -14940 0
15188 15199 0
-15188 -15199 0
14297 14246 0
-14297 -14246 0
14972 13869 0
-14972 -13869 0
15191 14954 0
-15191 -14954 0
14992 15245 0
-14992 -15245 0
15198 14948 0
-15198 -14948 0
15208 14958 0
-15208 -14958 0
14961 14965 0
-14961 -14965 0
14822 14938 0
-14822 -14938 0
14984 15187 0
-14984 -15187 0
14994 15190 0
-14994 -15190 0
15523 15206 0
-15523 -15206 0
15487 15217 0
-15487 -15217 0
15489 15220 0
-15489 -15220 0
15491 15223 0
-15491 -15223 0
15493 15226 0
-15493 -15226 0
15495 15229 0
-15495 -15229 0
15497 15232 0
-15497 -15232 0
15499 15235 0
-15499 -15235 0
15501 15238 0
-15501 -15238 0
14989 15241 0
-14989 -15241 0
15012 15247 0
-15012 -15247 0
13915 15250 0
-13915 -15250 0
15507 14985 0
-15507 -14985 0
15081 13915 0
-15081 -13915 0
13921 13915 0
-13921 -13915 0
14348 15253 0
-14348 -15253 0
13925 15256 0
-13925 -15256 0
15152 13921 0
-15152 -13921 0
14660 13925 0
-14660 -13925 0
13967 13925 0
-13967 -13925 0
15281 15262 0
-15281 -15262 0
14396 15265 0
-14396 -15265 0
15016 15268 0
-15016 -15268 0
13975 15268 0
-13975 -15268 0
14567 14834 0
-14567 -14834 0
14398 14834 0
-14398 -14834 0
14573 14837 0
-14573 -14837 0
14401 14837 0
-14401 -14837 0
14579 14840 0
-14579 -14840 0
14404 14840 0
-14404 -14840 0
14585 14843 0
-14585 -14843 0
14407 14843 0
-14407 -14843 0
14591 14846 0
-14591 -14846 0
14410 14846 0
-14410 -14846 0
14597 14849 0
-14597 -14849 0
14413 14849 0
-14413 -14849 0
14603 14852 0
-14603 -14852 0
14416 14852 0
-14416 -14852 0
14609 14855 0
-14609 -14855 0
14419 14855 0
-14419 -14855 0
14687 13967 0
-14687 -13967 0
15515 15271 0
-15515 -15271 0
14663 15016 0
-14663 -15016 0
14720 13975 0
-14720 -13975 0
13993 13975 0
-13993 -13975 0
14494 14835 0
-14494 -14835 0
14497 14838 0
-14497 -14838 0
14500 14841 0
-14500 -14841 0
14503 14844 0
-14503 -14844 0
14506 14847 0
-14506 -14847 0
14509 14850 0
-14509 -14850 0
14512 14853 0
-14512 -14853 0
14515 14856 0
-14515 -14856 0
14564 13993 0
-14564 -13993 0
14519 14564 0
-14519 -14564 0
14522 14564 0
-14522 -14564 0
14525 14564 0
-14525 -14564 0
14528 14564 0
-14528 -14564 0
14531 14564 0
-14531 -14564 0
14534 14564 0
-14534 -14564 0
14537 14564 0
-14537 -14564 0
14540 14564 0
-14540 -14564 0
15471 15284 0
-15471 -15284 0
15473 15288 0
-15473 -15288 0
15475 15292 0
-15475 -15292 0
15477 15296 0
-15477 -15296 0
15479 15300 0
-15479 -15300 0
15481 15304 0
-15481 -15304 0
15483 15308 0
-15483 -15308 0
14614 14857 0
-14614 -14857 0
14620 14860 0
-14620 -14860 0
14626 14863 0
-14626 -14863 0
14632 14866 0
-14632 -14866 0
14638 14869 0
-14638 -14869 0
14644 14872 0
-14644 -14872 0
14650 14875 0
-14650 -14875 0
14656 14878 0
-14656 -14878 0
15030 14617 0
-15030 -14617 0
15346 14629 0
-15346 -14629 0
15100 14647 0
-15100 -14647 0
15128 14653 0
-15128 -14653 0
14692 15015 0
-14692 -15015 0
15364 14884 0
-15364 -14884 0
14695 14884 0
-14695 -14884 0
14725 15054 0
-14725 -15054 0
15394 15025 0
-15394 -15025 0
14731 15025 0
-14731 -15025 0
14758 15032 0
-14758 -15032 0
14761 15065 0
-14761 -15065 0
14924 14899 0
-14924 -14899 0
14749 14899 0
-14749 -14899 0
14782 14902 0
-14782 -14902 0
15404 15017 0
-15404 -15017 0
15042 15023 0
-15042 -15023 0
14723 15028 0
-14723 -15028 0
15402 15031 0
-15402 -15031 0
14726 15366 0
-14726 -15366 0
15102 15046 0
-15102 -15046 0
14729 14726 0
-14729 -14726 0
15103 15049 0
-15103 -15049 0
14753 15085 0
-14753 -15085 0
15106 15091 0
-15106 -15091 0
14756 15099 0
-14756 -15099 0
14759 15396 0
-14759 -15396 0
14762 15400 0
-14762 -15400 0
14765 14759 0
-14765 -14759 0
15485 15408 0
-15485 -15408 0
14925 15104 0
-14925 -15104 0
14774 14762 0
-14774 -14762 0
14792 15126 0
-14792 -15126 0
-15272 14272 0
-15272 14108 0
15272 -14272 -14108 0
-15210 14227 0
-15210 14443 0
15210 -14227 -14443 0
-15420 14251 0
-15420 15282 0
15420 -14251 -15282 0
-15184 14227 0
-15184 14937 0
15184 -14227 -14937 0
-15269 14272 0
-15269 14120 0
15269 -14272 -14120 0
-15203 14227 0
-15203 14434 0
15203 -14227 -14434 0
-15254 14272 0
-15254 14126 0
15254 -14272 -14126 0
-15173 14224 0
-15173 14392 0
15173 -14224 -14392 0
-15211 14224 0
-15211 14936 0
15211 -14224 -14936 0
-15176 14227 0
-15176 14431 0
15176 -14227 -14431 0
-15432 14263 0
-15432 15282 0
15432 -14263 -15282 0
-15195 14224 0
-15195 14389 0
15195 -14224 -14389 0
-15251 14272 0
-15251 14144 0
15251 -14272 -14144 0
-15174 14239 0
-15174 14488 0
15174 -14239 -14488 0
-15205 14239 0
-15205 14482 0
15205 -14239 -14482 0
-15257 14272 0
-15257 14153 0
15257 -14272 -14153 0
-15172 14227 0
-15172 14440 0
15172 -14227 -14440 0
-15444 14260 0
-15444 15282 0
15444 -14260 -15282 0
-15215 14224 0
-15215 14377 0
15215 -14224 -14377 0
-15178 14239 0
-15178 14479 0
15178 -14239 -14479 0
-15426 14254 0
-15426 15282 0
15426 -14254 -15282 0
-15177 14224 0
-15177 14383 0
15177 -14224 -14383 0
-15196 14239 0
-15196 14485 0
15196 -14239 -14485 0
-15182 14239 0
-15182 14476 0
15182 -14239 -14476 0
-15266 14272 0
-15266 14180 0
15266 -14272 -14180 0
-15450 14266 0
-15450 15282 0
15450 -14266 -15282 0
-15186 14239 0
-15186 14470 0
15186 -14239 -14470 0
-15181 14224 0
-15181 14380 0
15181 -14224 -14380 0
-15222 14251 0
-15222 14246 0
15222 -14251 -14246 0
-15225 14254 0
-15225 14246 0
15225 -14254 -14246 0
-15231 14260 0
-15231 14246 0
15231 -14260 -14246 0
-15234 14263 0
-15234 14246 0
15234 -14263 -14246 0
-15237 14266 0
-15237 14246 0
15237 -14266 -14246 0
-15180 14227 0
-15180 14428 0
15180 -14227 -14428 0
-15185 14224 0
-15185 14374 0
15185 -14224 -14374 0
-15189 14954 0
-15189 15245 0
15189 -14954 -15245 0
-15279 14269 0
-15279 15282 0
15279 -14269 -15282 0
-15240 14269 0
-15240 14246 0
15240 -14269 -14246 0
-15194 14227 0
-15194 14437 0
15194 -14227 -14437 0
-15204 14224 0
-15204 14386 0
15204 -14224 -14386 0
-15214 14227 0
-15214 14425 0
15214 -14227 -14425 0
-15414 14248 0
-15414 15282 0
15414 -14248 -15282 0
-15219 14248 0
-15219 14246 0
15219 -14248 -14246 0
-15212 14239 0
-15212 14491 0
15212 -14239 -14491 0
-15216 14239 0
-15216 14473 0
15216 -14239 -14473 0
-15438 14257 0
-15438 15282 0
15438 -14257 -15282 0
-15228 14257 0
-15228 14246 0
15228 -14257 -14246 0
-15286 14248 0
-15286 15275 0
15286 -14248 -15275 0
-15290 14251 0
-15290 15275 0
15290 -14251 -15275 0
-15294 14254 0
-15294 15275 0
15294 -14254 -15275 0
-15298 14257 0
-15298 15275 0
15298 -14257 -15275 0
-15302 14260 0
-15302 15275 0
15302 -14260 -15275 0
-15306 14263 0
-15306 15275 0
15306 -14263 -15275 0
-15310 14266 0
-15310 15275 0
15310 -14266 -15275 0
-15410 14269 0
-15410 15275 0
15410 -14269 -15275 0
-15263 14272 0
-15263 14273 0
15263 -14272 -14273 0
-15218 14374 0
-15218 14297 0
15218 -14374 -14297 0
-15221 14377 0
-15221 14297 0
15221 -14377 -14297 0
-15224 14380 0
-15224 14297 0
15224 -14380 -14297 0
-15227 14383 0
-15227 14297 0
15227 -14383 -14297 0
-15230 14386 0
-15230 14297 0
15230 -14386 -14297 0
-15233 14389 0
-15233 14297 0
15233 -14389 -14297 0
-15236 14392 0
-15236 14297 0
15236 -14392 -14297 0
-15239 14936 0
-15239 14297 0
15239 -14936 -14297 0
-15249 14944 0
-15249 14968 0
15249 -14944 -14968 0
-15252 14323 0
-15252 15527 0
15252 -14323 -15527 0
-15255 14323 0
-15255 15517 0
15255 -14323 -15517 0
-15258 14323 0
-15258 15523 0
15258 -14323 -15523 0
-15261 15000 0
-15261 14998 0
15261 -15000 -14998 0
-15264 14323 0
-15264 15521 0
15264 -14323 -15521 0
-15267 14323 0
-15267 15519 0
15267 -14323 -15519 0
-15270 14323 0
-15270 15525 0
15270 -14323 -15525 0
-15273 14323 0
-15273 15513 0
15273 -14323 -15513 0
-14834 14470 0
-14834 14348 0
14834 -14470 -14348 0
-14837 14473 0
-14837 14348 0
14837 -14473 -14348 0
-14840 14476 0
-14840 14348 0
14840 -14476 -14348 0
-14843 14479 0
-14843 14348 0
14843 -14479 -14348 0
-14846 14482 0
-14846 14348 0
14846 -14482 -14348 0
-14849 14485 0
-14849 14348 0
14849 -14485 -14348 0
-14852 14488 0
-14852 14348 0
14852 -14488 -14348 0
-14855 14491 0
-14855 14348 0
14855 -14491 -14348 0
-15278 15009 0
-15278 15281 0
15278 -15009 -15281 0
-15285 14425 0
-15285 15281 0
15285 -14425 -15281 0
-15289 14428 0
-15289 15281 0
15289 -14428 -15281 0
-15293 14431 0
-15293 15281 0
15293 -14431 -15281 0
-15297 14434 0
-15297 15281 0
15297 -14434 -15281 0
-15301 14437 0
-15301 15281 0
15301 -14437 -15281 0
-15305 14440 0
-15305 15281 0
15305 -14440 -15281 0
-15309 14443 0
-15309 15281 0
15309 -14443 -15281 0
-14835 14374 0
-14835 14396 0
14835 -14374 -14396 0
-14838 14377 0
-14838 14396 0
14838 -14377 -14396 0
-14841 14380 0
-14841 14396 0
14841 -14380 -14396 0
-14844 14383 0
-14844 14396 0
14844 -14383 -14396 0
-14847 14386 0
-14847 14396 0
14847 -14386 -14396 0
-14850 14389 0
-14850 14396 0
14850 -14389 -14396 0
-14853 14392 0
-14853 14396 0
14853 -14392 -14396 0
-14856 14936 0
-14856 14396 0
14856 -14936 -14396 0
-15314 14398 0
-15314 14687 0
15314 -14398 -14687 0
-15317 14401 0
-15317 14687 0
15317 -14401 -14687 0
-15320 14404 0
-15320 14687 0
15320 -14404 -14687 0
-15323 14407 0
-15323 14687 0
15323 -14407 -14687 0
-15326 14410 0
-15326 14687 0
15326 -14410 -14687 0
-15329 14413 0
-15329 14687 0
15329 -14413 -14687 0
-15332 14416 0
-15332 14687 0
15332 -14416 -14687 0
-15335 14419 0
-15335 14687 0
15335 -14419 -14687 0
-15287 14937 0
-15287 15274 0
15287 -14937 -15274 0
-15291 14425 0
-15291 15274 0
15291 -14425 -15274 0
-15295 14428 0
-15295 15274 0
15295 -14428 -15274 0
-15299 14431 0
-15299 15274 0
15299 -14431 -15274 0
-15303 14434 0
-15303 15274 0
15303 -14434 -15274 0
-15307 14437 0
-15307 15274 0
15307 -14437 -15274 0
-15311 14440 0
-15311 15274 0
15311 -14440 -15274 0
-15411 14443 0
-15411 15274 0
15411 -14443 -15274 0
-15313 14833 0
-15313 14660 0
15313 -14833 -14660 0
-15316 14836 0
-15316 14660 0
15316 -14836 -14660 0
-15319 14839 0
-15319 14660 0
15319 -14839 -14660 0
-15322 14842 0
-15322 14660 0
15322 -14842 -14660 0
-15325 14845 0
-15325 14660 0
15325 -14845 -14660 0
-15328 14848 0
-15328 14660 0
15328 -14848 -14660 0
-15331 14851 0
-15331 14660 0
15331 -14851 -14660 0
-15334 14854 0
-15334 14660 0
15334 -14854 -14660 0
-15406 14470 0
-15406 15280 0
15406 -14470 -15280 0
-15416 14473 0
-15416 15280 0
15416 -14473 -15280 0
-15422 14476 0
-15422 15280 0
15422 -14476 -15280 0
-15428 14479 0
-15428 15280 0
15428 -14479 -15280 0
-15440 14482 0
-15440 15280 0
15440 -14482 -15280 0
-15446 14485 0
-15446 15280 0
15446 -14485 -15280 0
-15434 14488 0
-15434 15280 0
15434 -14488 -15280 0
-15452 14491 0
-15452 15280 0
15452 -14491 -15280 0
-14859 14494 0
-14859 14564 0
14859 -14494 -14564 0
-14862 14497 0
-14862 14564 0
14862 -14497 -14564 0
-14865 14500 0
-14865 14564 0
14865 -14500 -14564 0
-14868 14503 0
-14868 14564 0
14868 -14503 -14564 0
-14871 14506 0
-14871 14564 0
14871 -14506 -14564 0
-14874 14509 0
-14874 14564 0
14874 -14509 -14564 0
-14877 14512 0
-14877 14564 0
14877 -14512 -14564 0
-14880 14515 0
-14880 14564 0
14880 -14515 -14564 0
-14858 14835 0
-14858 14519 0
14858 -14835 -14519 0
-14861 14838 0
-14861 14522 0
14861 -14838 -14522 0
-14864 14841 0
-14864 14525 0
14864 -14841 -14525 0
-14867 14844 0
-14867 14528 0
14867 -14844 -14528 0
-14870 14847 0
-14870 14531 0
14870 -14847 -14531 0
-14873 14850 0
-14873 14534 0
14873 -14850 -14534 0
-14876 14853 0
-14876 14537 0
14876 -14853 -14537 0
-14879 14856 0
-14879 14540 0
14879 -14856 -14540 0
-15371 15312 0
-15371 14564 0
15371 -15312 -14564 0
-15374 15315 0
-15374 14564 0
15374 -15315 -14564 0
-15377 15318 0
-15377 14564 0
15377 -15318 -14564 0
-15380 15321 0
-15380 14564 0
15380 -15321 -14564 0
-15383 15324 0
-15383 14564 0
15383 -15324 -14564 0
-15386 15327 0
-15386 14564 0
15386 -15327 -14564 0
-15389 15330 0
-15389 14564 0
15389 -15330 -14564 0
-15392 15333 0
-15392 14564 0
15392 -15333 -14564 0
-14882 14857 0
-14882 14567 0
14882 -14857 -14567 0
-14617 14857 0
-14617 14834 0
14617 -14857 -14834 0
-14885 14860 0
-14885 14573 0
14885 -14860 -14573 0
-15367 14860 0
-15367 14837 0
15367 -14860 -14837 0
-14888 14863 0
-14888 14579 0
14888 -14863 -14579 0
-14629 14863 0
-14629 14840 0
14629 -14863 -14840 0
-14891 14866 0
-14891 14585 0
14891 -14866 -14585 0
-15397 14866 0
-15397 14843 0
15397 -14866 -14843 0
-14894 14869 0
-14894 14591 0
14894 -14869 -14591 0
-15403 14869 0
-15403 14846 0
15403 -14869 -14846 0
-14897 14872 0
-14897 14597 0
14897 -14872 -14597 0
-14647 14872 0
-14647 14849 0
14647 -14872 -14849 0
-14900 14875 0
-14900 14603 0
14900 -14875 -14603 0
-14653 14875 0
-14653 14852 0
14653 -14875 -14852 0
-14903 14878 0
-14903 14609 0
14903 -14878 -14609 0
-14659 14878 0
-14659 14855 0
14659 -14878 -14855 0
-14883 14614 0
-14883 14834 0
14883 -14614 -14834 0
-15337 14617 0
-15337 14660 0
15337 -14617 -14660 0
-14886 14620 0
-14886 14837 0
14886 -14620 -14837 0
-15340 15367 0
-15340 14660 0
15340 -15367 -14660 0
-14889 14626 0
-14889 14840 0
14889 -14626 -14840 0
-15343 14629 0
-15343 14660 0
15343 -14629 -14660 0
-14892 14632 0
-14892 14843 0
14892 -14632 -14843 0
-15349 15397 0
-15349 14660 0
15349 -15397 -14660 0
-14895 14638 0
-14895 14846 0
14895 -14638 -14846 0
-15352 15403 0
-15352 14660 0
15352 -15403 -14660 0
-14898 14644 0
-14898 14849 0
14898 -14644 -14849 0
-15355 14647 0
-15355 14660 0
15355 -14647 -14660 0
-14901 14650 0
-14901 14852 0
14901 -14650 -14852 0
-15358 14653 0
-15358 14660 0
15358 -14653 -14660 0
-14904 14656 0
-14904 14855 0
14904 -14656 -14855 0
-15361 14659 0
-15361 14660 0
15361 -14659 -14660 0
-14906 15015 0
-14906 14663 0
14906 -15015 -14663 0
-15338 15015 0
-15338 14687 0
15338 -15015 -14687 0
-15341 14884 0
-15341 14687 0
15341 -14884 -14687 0
-15344 15054 0
-15344 14687 0
15344 -15054 -14687 0
-15350 15025 0
-15350 14687 0
15350 -15025 -14687 0
-15353 15032 0
-15353 14687 0
15353 -15032 -14687 0
-15356 15065 0
-15356 14687 0
15356 -15065 -14687 0
-15359 14899 0
-15359 14687 0
15359 -14899 -14687 0
-15362 14902 0
-15362 14687 0
15362 -14902 -14687 0
-15365 15030 0
-15365 15029 0
15365 -15030 -15029 0
-14907 14692 0
-14907 15016 0
14907 -14692 -15016 0
-14913 14695 0
-14913 15028 0
14913 -14695 -15028 0
-15370 15336 0
-15370 14720 0
15370 -15336 -14720 0
-15373 15339 0
-15373 14720 0
15373 -15339 -14720 0
-15376 15342 0
-15376 14720 0
15376 -15342 -14720 0
-15379 15348 0
-15379 14720 0
15379 -15348 -14720 0
-15382 15351 0
-15382 14720 0
15382 -15351 -14720 0
-15385 15354 0
-15385 14720 0
15385 -15354 -14720 0
-15388 15357 0
-15388 14720 0
15388 -15357 -14720 0
-15391 15360 0
-15391 14720 0
15391 -15360 -14720 0
-14912 14884 0
-14912 14723 0
14912 -14884 -14723 0
-14916 14725 0
-14916 14726 0
14916 -14725 -14726 0
-14915 15054 0
-14915 14729 0
14915 -15054 -14729 0
-14919 14731 0
-14919 15085 0
14919 -14731 -15085 0
-15401 15032 0
-15401 15398 0
15401 -15032 -15398 0
-15407 15088 0
-15407 15515 0
15407 -15088 -15515 0
-15409 15088 0
-15409 15281 0
15409 -15088 -15281 0
-15413 15096 0
-15413 15281 0
15413 -15096 -15281 0
-15417 15096 0
-15417 15515 0
15417 -15096 -15515 0
-14922 14749 0
-14922 15099 0
14922 -14749 -15099 0
-14918 15025 0
-14918 14753 0
14918 -15025 -14753 0
-14921 14899 0
-14921 14756 0
14921 -14899 -14756 0
-14928 14758 0
-14928 14759 0
14928 -14758 -14759 0
-14931 14761 0
-14931 14762 0
14931 -14761 -14762 0
-14927 15032 0
-14927 14765 0
14927 -15032 -14765 0
-15419 15114 0
-15419 15281 0
15419 -15114 -15281 0
-15423 15114 0
-15423 15515 0
15423 -15114 -15515 0
-14930 15065 0
-14930 14774 0
14930 -15065 -14774 0
-15425 15123 0
-15425 15281 0
15425 -15123 -15281 0
-15429 15123 0
-15429 15515 0
15429 -15123 -15515 0
-14934 14782 0
-14934 15126 0
14934 -14782 -15126 0
-15431 15129 0
-15431 15281 0
15431 -15129 -15281 0
-15435 15129 0
-15435 15515 0
15435 -15129 -15515 0
-14933 14902 0
-14933 14792 0
14933 -14902 -14792 0
-15437 15141 0
-15437 15281 0
15437 -15141 -15281 0
-15441 15141 0
-15441 15515 0
15441 -15141 -15515 0
-15443 15147 0
-15443 15281 0
15443 -15147 -15281 0
-15447 15147 0
-15447 15515 0
15447 -15147 -15515 0
-15449 15156 0
-15449 15281 0
15449 -15156 -15281 0
-15453 15156 0
-15453 15515 0
15453 -15156 -15515 0
14963 -14936 0
14963 -14937 0
-14963 14936 14937 0
14967 -14954 0
14967 -14992 0
-14967 14954 14992 0
15003 -14972 0
15003 -15208 0
-15003 14972 15208 0
14974 -14961 0
14974 -14822 0
-14974 14961 14822 0
14983 -15191 0
14983 -14944 0
-14983 15191 14944 0
14986 -15241 0
14986 -15246 0
-14986 15241 15246 0
15002 -14994 0
15002 -14999 0
15002 -14958 0
-15002 14994 14999 14958 0
14833 -14834 0
14833 -14835 0
-14833 14834 14835 0
14836 -14837 0
14836 -14838 0
-14836 14837 14838 0
14839 -14840 0
14839 -14841 0
-14839 14840 14841 0
14842 -14843 0
14842 -14844 0
-14842 14843 14844 0
14845 -14846 0
14845 -14847 0
-14845 14846 14847 0
14848 -14849 0
14848 -14850 0
-14848 14849 14850 0
14851 -14852 0
14851 -14853 0
-14851 14852 14853 0
14854 -14855 0
14854 -14856 0
-14854 14855 14856 0
14857 -14858 0
14857 -14859 0
-14857 14858 14859 0
14860 -14861 0
14860 -14862 0
-14860 14861 14862 0
14863 -14864 0
14863 -14865 0
-14863 14864 14865 0
14866 -14867 0
14866 -14868 0
-14866 14867 14868 0
14869 -14870 0
14869 -14871 0
-14869 14870 14871 0
14872 -14873 0
14872 -14874 0
-14872 14873 14874 0
14875 -14876 0
14875 -14877 0
-14875 14876 14877 0
14878 -14879 0
14878 -14880 0
-14878 14879 14880 0
15015 -14882 0
15015 -14883 0
-15015 14882 14883 0
14884 -14885 0
14884 -14886 0
-14884 14885 14886 0
15054 -14888 0
15054 -14889 0
-15054 14888 14889 0
15025 -14891 0
15025 -14892 0
-15025 14891 14892 0
15032 -14894 0
15032 -14895 0
-15032 14894 14895 0
15065 -14897 0
15065 -14898 0
-15065 14897 14898 0
14899 -14900 0
14899 -14901 0
-14899 14900 14901 0
14902 -14903 0
14902 -14904 0
-14902 14903 14904 0
15044 -14906 0
15044 -14907 0
-15044 14906 14907 0
15053 -15367 0
15053 -15368 0
-15053 15367 15368 0
15083 -14912 0
15083 -14913 0
-15083 14912 14913 0
15109 -14915 0
15109 -14916 0
-15109 14915 14916 0
15118 -14918 0
15118 -14919 0
-15118 14918 14919 0
15121 -14921 0
15121 -14922 0
-15121 14921 14922 0
15127 -14924 0
15127 -14925 0
-15127 14924 14925 0
15133 -14927 0
15133 -14928 0
-15133 14927 14928 0
15139 -14930 0
15139 -14931 0
-15139 14930 14931 0
15151 -14933 0
15151 -14934 0
-15151 14933 14934 0
14965 14936 0
14965 14937 0
-14965 -14936 -14937 0
14938 15199 0
14938 14940 0
-14938 -15199 -14940 0
15192 15199 0
15192 15245 0
-15192 -15199 -15245 0
14944 15188 0
14944 15245 0
-14944 -15188 -15245 0
15243 14948 0
15243 14972 0
-15243 -14948 -14972 0
15246 15188 0
15246 15191 0
-15246 -15188 -15191 0
14968 14954 0
14968 14992 0
-14968 -14954 -14992 0
15527 15198 0
15527 14958 0
-15527 -15198 -14958 0
15010 15192 0
15010 14961 0
-15010 -15192 -14961 0
15013 14963 0
15013 15190 0
15013 14965 0
-15013 -14963 -15190 -14965 0
15505 14967 0
15505 14968 0
-15505 -14967 -14968 0
15517 15191 0
15517 15197 0
15517 14972 0
-15517 -15191 -15197 -14972 0
15011 14974 0
15011 15191 0
-15011 -14974 -15191 0
15000 15242 0
15000 15244 0
-15000 -15242 -15244 0
14998 15243 0
14998 15244 0
-14998 -15243 -15244 0
15503 14983 0
15503 14984 0
-15503 -14983 -14984 0
14985 14986 0
14985 14992 0
-14985 -14986 -14992 0
15521 14989 0
15521 15191 0
15521 15188 0
15521 14992 0
-15521 -14989 -15191 -15188 -14992 0
15511 14994 0
15511 15000 0
15511 14998 0
-15511 -14994 -15000 -14998 0
15519 14998 0
15519 14999 0
15519 15000 0
-15519 -14998 -14999 -15000 0
15525 15002 0
15525 15003 0
-15525 -15002 -15003 0
15509 15010 0
15509 15012 0
15509 15011 0
15509 15013 0
-15509 -15010 -15012 -15011 -15013 0
15009 15010 0
15009 15011 0
15009 15012 0
15009 15013 0
-15009 -15010 -15011 -15012 -15013 0
15029 15015 0
15029 15016 0
-15029 -15015 -15016 0
15017 15397 0
15017 15032 0
-15017 -15397 -15032 0
15105 15403 0
15105 15065 0
-15105 -15403 -15065 0
15023 15065 0
15023 15025 0
15023 15032 0
15023 15054 0
-15023 -15065 -15025 -15032 -15054 0
15028 15029 0
15028 15030 0
-15028 -15029 -15030 0
15031 15032 0
15031 15399 0
-15031 -15032 -15399 0
15095 15065 0
15095 15404 0
-15095 -15065 -15404 0
15094 15367 0
15094 15042 0
-15094 -15367 -15042 0
15107 15368 0
15107 15042 0
-15107 -15368 -15042 0
15089 15044 0
15089 15152 0
-15089 -15044 -15152 0
15046 15105 0
15046 15094 0
-15046 -15105 -15094 0
15049 15095 0
15049 15107 0
-15049 -15095 -15107 0
15395 15053 0
15395 15054 0
-15395 -15053 -15054 0
15090 15369 0
15090 15081 0
-15090 -15369 -15081 0
15098 15372 0
15098 15081 0
-15098 -15372 -15081 0
15116 15375 0
15116 15081 0
-15116 -15375 -15081 0
15101 15065 0
15101 15402 0
-15101 -15065 -15402 0
15125 15378 0
15125 15081 0
-15125 -15378 -15081 0
15143 15381 0
15143 15081 0
-15143 -15381 -15081 0
15149 15384 0
15149 15081 0
-15149 -15384 -15081 0
15131 15387 0
15131 15081 0
-15131 -15387 -15081 0
15158 15390 0
15158 15081 0
-15158 -15390 -15081 0
15097 15083 0
15097 15152 0
-15097 -15083 -15152 0
15085 15346 0
15085 15395 0
-15085 -15346 -15395 0
15088 15089 0
15088 15090 0
-15088 -15089 -15090 0
15091 15100 0
15091 15101 0
15091 15094 0
15091 15095 0
-15091 -15100 -15101 -15094 -15095 0
15096 15097 0
15096 15098 0
-15096 -15097 -15098 0
15099 15100 0
15099 15101 0
15099 15102 0
15099 15103 0
-15099 -15100 -15101 -15102 -15103 0
15104 15105 0
15104 15106 0
15104 15107 0
-15104 -15105 -15106 -15107 0
15115 15109 0
15115 15152 0
-15115 -15109 -15152 0
15455 15412 0
15455 15405 0
-15455 -15412 -15405 0
15114 15115 0
15114 15116 0
-15114 -15115 -15116 0
15124 15118 0
15124 15152 0
-15124 -15118 -15152 0
15130 15121 0
15130 15152 0
-15130 -15121 -15152 0
15123 15124 0
15123 15125 0
-15123 -15124 -15125 0
15126 15127 0
15126 15128 0
-15126 -15127 -15128 0
15129 15130 0
15129 15131 0
-15129 -15130 -15131 0
15142 15133 0
15142 15152 0
-15142 -15133 -15152 0
15457 15418 0
15457 15415 0
-15457 -15418 -15415 0
15148 15139 0
15148 15152 0
-15148 -15139 -15152 0
15141 15142 0
15141 15143 0
-15141 -15142 -15143 0
15459 15424 0
15459 15421 0
-15459 -15424 -15421 0
15147 15148 0
15147 15149 0
-15147 -15148 -15149 0
15157 15151 0
15157 15152 0
-15157 -15151 -15152 0
15461 15436 0
15461 15427 0
-15461 -15436 -15427 0
15156 15157 0
15156 15158 0
-15156 -15157 -15158 0
15463 15442 0
15463 15439 0
-15463 -15442 -15439 0
15465 15430 0
15465 15445 0
-15465 -15430 -15445 0
15467 15448 0
15467 15433 0
-15467 -15448 -15433 0
15469 15277 0
15469 15451 0
-15469 -15277 -15451 0
-15171 -15172 0
-15171 -15173 0
-15171 -15174 0
15171 15172 15173 15174 0
-15175 -15176 0
-15175 -15177 0
-15175 -15178 0
15175 15176 15177 15178 0
-15179 -15180 0
-15179 -15181 0
-15179 -15182 0
15179 15180 15181 15182 0
-15183 -15184 0
-15183 -15185 0
-15183 -15186 0
15183 15184 15185 15186 0
-15187 -15188 0
-15187 -15189 0
15187 15188 15189 0
-15190 -15191 0
-15190 -15192 0
15190 15191 15192 0
-15193 -15194 0
-15193 -15195 0
-15193 -15196 0
15193 15194 15195 15196 0
-15197 -15198 0
-15197 -15199 0
-15197 -15242 0
-15197 -15245 0
15197 15198 15199 15242 15245 0
-15202 -15203 0
-15202 -15204 0
-15202 -15205 0
15202 15203 15204 15205 0
-15206 -15242 0
-15206 -15208 0
15206 15242 15208 0
-15209 -15210 0
-15209 -15211 0
-15209 -15212 0
15209 15210 15211 15212 0
-15213 -15214 0
-15213 -15215 0
-15213 -15216 0
15213 15214 15215 15216 0
-15217 -15218 0
-15217 -15219 0
15217 15218 15219 0
-15220 -15221 0
-15220 -15222 0
15220 15221 15222 0
-15223 -15224 0
-15223 -15225 0
15223 15224 15225 0
-15226 -15227 0
-15226 -15228 0
15226 15227 15228 0
-15229 -15230 0
-15229 -15231 0
15229 15230 15231 0
-15232 -15233 0
-15232 -15234 0
15232 15233 15234 0
-15235 -15236 0
-15235 -15237 0
15235 15236 15237 0
-15238 -15239 0
-15238 -15240 0
15238 15239 15240 0
-15241 -15242 0
-15241 -15243 0
15241 15242 15243 0
-15244 -15245 0
-15244 -15246 0
15244 15245 15246 0
-15247 -15248 0
-15247 -15249 0
15247 15248 15249 0
-15250 -15251 0
-15250 -15252 0
15250 15251 15252 0
-15253 -15254 0
-15253 -15255 0
15253 15254 15255 0
-15256 -15257 0
-15256 -15258 0
15256 15257 15258 0
-15513 -15282 0
-15513 -15261 0
15513 15282 15261 0
-15262 -15263 0
-15262 -15264 0
15262 15263 15264 0
-15265 -15266 0
-15265 -15267 0
15265 15266 15267 0
-15268 -15269 0
-15268 -15270 0
15268 15269 15270 0
-15271 -15272 0
-15271 -15273 0
15271 15272 15273 0
-15274 -15275 0
-15274 -15281 0
15274 15275 15281 0
-15277 -15278 0
-15277 -15279 0
15277 15278 15279 0
-15280 -15281 0
-15280 -15282 0
-15280 -15515 0
15280 15281 15282 15515 0
-15284 -15285 0
-15284 -15286 0
-15284 -15287 0
15284 15285 15286 15287 0
-15288 -15289 0
-15288 -15290 0
-15288 -15291 0
15288 15289 15290 15291 0
-15292 -15293 0
-15292 -15294 0
-15292 -15295 0
15292 15293 15294 15295 0
-15296 -15297 0
-15296 -15298 0
-15296 -15299 0
15296 15297 15298 15299 0
-15300 -15301 0
-15300 -15302 0
-15300 -15303 0
15300 15301 15302 15303 0
-15304 -15305 0
-15304 -15306 0
-15304 -15307 0
15304 15305 15306 15307 0
-15308 -15309 0
-15308 -15310 0
-15308 -15311 0
15308 15309 15310 15311 0
-15312 -15313 0
-15312 -15314 0
15312 15313 15314 0
-15315 -15316 0
-15315 -15317 0
15315 15316 15317 0
-15318 -15319 0
-15318 -15320 0
15318 15319 15320 0
-15321 -15322 0
-15321 -15323 0
15321 15322 15323 0
-15324 -15325 0
-15324 -15326 0
15324 15325 15326 0
-15327 -15328 0
-15327 -15329 0
15327 15328 15329 0
-15330 -15331 0
-15330 -15332 0
15330 15331 15332 0
-15333 -15334 0
-15333 -15335 0
15333 15334 15335 0
-15336 -15337 0
-15336 -15338 0
15336 15337 15338 0
-15339 -15340 0
-15339 -15341 0
15339 15340 15341 0
-15342 -15343 0
-15342 -15344 0
15342 15343 15344 0
-15399 -15346 0
-15399 -15394 0
15399 15346 15394 0
-15348 -15349 0
-15348 -15350 0
15348 15349 15350 0
-15351 -15352 0
-15351 -15353 0
15351 15352 15353 0
-15354 -15355 0
-15354 -15356 0
15354 15355 15356 0
-15357 -15358 0
-15357 -15359 0
15357 15358 15359 0
-15360 -15361 0
-15360 -15362 0
15360 15361 15362 0
-15368 -15364 0
-15368 -15365 0
15368 15364 15365 0
-15366 -15367 0
-15366 -15368 0
15366 15367 15368 0
-15369 -15370 0
-15369 -15371 0
15369 15370 15371 0
-15372 -15373 0
-15372 -15374 0
15372 15373 15374 0
-15375 -15376 0
-15375 -15377 0
15375 15376 15377 0
-15378 -15379 0
-15378 -15380 0
15378 15379 15380 0
-15381 -15382 0
-15381 -15383 0
15381 15382 15383 0
-15384 -15385 0
-15384 -15386 0
15384 15385 15386 0
-15387 -15388 0
-15387 -15389 0
15387 15388 15389 0
-15390 -15391 0
-15390 -15392 0
15390 15391 15392 0
-15398 -15394 0
-15398 -15395 0
15398 15394 15395 0
-15396 -15397 0
-15396 -15398 0
-15396 -15399 0
15396 15397 15398 15399 0
-15400 -15401 0
-15400 -15402 0
-15400 -15403 0
-15400 -15404 0
15400 15401 15402 15403 15404 0
-15405 -15406 0
-15405 -15407 0
15405 15406 15407 0
-15408 -15409 0
-15408 -15410 0
-15408 -15411 0
15408 15409 15410 15411 0
-15412 -15413 0
-15412 -15414 0
15412 15413 15414 0
-15415 -15416 0
-15415 -15417 0
15415 15416 15417 0
-15418 -15419 0
-15418 -15420 0
15418 15419 15420 0
-15421 -15422 0
-15421 -15423 0
15421 15422 15423 0
-15424 -15425 0
-15424 -15426 0
15424 15425 15426 0
-15427 -15428 0
-15427 -15429 0
15427 15428 15429 0
-15430 -15431 0
-15430 -15432 0
15430 15431 15432 0
-15433 -15434 0
-15433 -15435 0
15433 15434 15435 0
-15436 -15437 0
-15436 -15438 0
15436 15437 15438 0
-15439 -15440 0
-15439 -15441 0
15439 15440 15441 0
-15442 -15443 0
-15442 -15444 0
15442 15443 15444 0
-15445 -15446 0
-15445 -15447 0
15445 15446 15447 0
-15448 -15449 0
-15448 -15450 0
15448 15449 15450 0
-15451 -15452 0
-15451 -15453 0
15451 15452 15453 0
-15455 16140 0
15455 -16140 0
-15457 16143 0
15457 -16143 0
-15459 16146 0
15459 -16146 0
-15461 16149 0
15461 -16149 0
-15463 16152 0
15463 -16152 0
-15465 16155 0
15465 -16155 0
-15467 16158 0
15467 -16158 0
-15469 16161 0
15469 -16161 0
-15471 16607 0
15471 -16607 0
-15473 16095 0
15473 -16095 0
-15475 16098 0
15475 -16098 0
-15477 16101 0
15477 -16101 0
-15479 16104 0
15479 -16104 0
-15481 16107 0
15481 -16107 0
-15483 16110 0
15483 -16110 0
-15485 16113 0
15485 -16113 0
-15487 16044 0
15487 -16044 0
-15489 16047 0
15489 -16047 0
-15491 16050 0
15491 -16050 0
-15493 16053 0
15493 -16053 0
-15495 16056 0
15495 -16056 0
-15497 16059 0
15497 -16059 0
-15499 16062 0
15499 -16062 0
-15501 16606 0
15501 -16606 0
-15503 16869 0
15503 -16869 0
-15505 16624 0
15505 -16624 0
-15507 16915 0
15507 -16915 0
-15509 16610 0
15509 -16610 0
-15511 16628 0
15511 -16628 0
-15513 15778 0
15513 -15778 0
-15515 15514 0
15515 -15514 0
-15517 15796 0
15517 -15796 0
-15519 15850 0
15519 -15850 0
-15521 15943 0
15521 -15943 0
-15523 15823 0
15523 -15823 0
-15525 15790 0
15525 -15790 0
-15527 15814 0
15527 -15814 0
15993 15942 0
-15993 -15942 0
16669 16607 0
-16669 -16607 0
16918 16610 0
-16918 -16610 0
16858 16869 0
-16858 -16869 0
15967 15916 0
-15967 -15916 0
16642 15539 0
-16642 -15539 0
16861 16624 0
-16861 -16624 0
16662 16915 0
-16662 -16915 0
16868 16618 0
-16868 -16618 0
16878 16628 0
-16878 -16628 0
16631 16635 0
-16631 -16635 0
16492 16608 0
-16492 -16608 0
16654 16857 0
-16654 -16857 0
16664 16860 0
-16664 -16860 0
17193 16876 0
-17193 -16876 0
17157 16887 0
-17157 -16887 0
17159 16890 0
-17159 -16890 0
17161 16893 0
-17161 -16893 0
17163 16896 0
-17163 -16896 0
17165 16899 0
-17165 -16899 0
17167 16902 0
-17167 -16902 0
17169 16905 0
-17169 -16905 0
17171 16908 0
-17171 -16908 0
16659 16911 0
-16659 -16911 0
16682 16917 0
-16682 -16917 0
15585 16920 0
-15585 -16920 0
17177 16655 0
-17177 -16655 0
16751 15585 0
-16751 -15585 0
15591 15585 0
-15591 -15585 0
16018 16923 0
-16018 -16923 0
15595 16926 0
-15595 -16926 0
16822 15591 0
-16822 -15591 0
16330 15595 0
-16330 -15595 0
15637 15595 0
-15637 -15595 0
16951 16932 0
-16951 -16932 0
16066 16935 0
-16066 -16935 0
16686 16938 0
-16686 -16938 0
15645 16938 0
-15645 -16938 0
16237 16504 0
-16237 -16504 0
16068 16504 0
-16068 -16504 0
16243 16507 0
-16243 -16507 0
16071 16507 0
-16071 -16507 0
16249 16510 0
-16249 -16510 0
16074 16510 0
-16074 -16510 0
16255 16513 0
-16255 -16513 0
16077 16513 0
-16077 -16513 0
16261 16516 0
-16261 -16516 0
16080 16516 0
-16080 -16516 0
16267 16519 0
-16267 -16519 0
16083 16519 0
-16083 -16519 0
16273 16522 0
-16273 -16522 0
16086 16522 0
-16086 -16522 0
16279 16525 0
-16279 -16525 0
16089 16525 0
-16089 -16525 0
16357 15637 0
-16357 -15637 0
17185 16941 0
-17185 -16941 0
16333 16686 0
-16333 -16686 0
16390 15645 0
-16390 -15645 0
15663 15645 0
-15663 -15645 0
16164 16505 0
-16164 -16505 0
16167 16508 0
-16167 -16508 0
16170 16511 0
-16170 -16511 0
16173 16514 0
-16173 -16514 0
16176 16517 0
-16176 -16517 0
16179 16520 0
-16179 -16520 0
16182 16523 0
-16182 -16523 0
16185 16526 0
-16185 -16526 0
16234 15663 0
-16234 -15663 0
16189 16234 0
-16189 -16234 0
16192 16234 0
-16192 -16234 0
16195 16234 0
-16195 -16234 0
16198 16234 0
-16198 -16234 0
16201 16234 0
-16201 -16234 0
16204 16234 0
-16204 -16234 0
16207 16234 0
-16207 -16234 0
16210 16234 0
-16210 -16234 0
17141 16954 0
-17141 -16954 0
17143 16958 0
-17143 -16958 0
17145 16962 0
-17145 -16962 0
17147 16966 0
-17147 -16966 0
17149 16970 0
-17149 -16970 0
17151 16974 0
-17151 -16974 0
17153 16978 0
-17153 -16978 0
16284 16527 0
-16284 -16527 0
16290 16530 0
-16290 -16530 0
16296 16533 0
-16296 -16533 0
16302 16536 0
-16302 -16536 0
16308 16539 0
-16308 -16539 0
16314 16542 0
-16314 -16542 0
16320 16545 0
-16320 -16545 0
16326 16548 0
-16326 -16548 0
16700 16287 0
-16700 -16287 0
17016 16299 0
-17016 -16299 0
16770 16317 0
-16770 -16317 0
16798 16323 0
-16798 -16323 0
16362 16685 0
-16362 -16685 0
17034 16554 0
-17034 -16554 0
16365 16554 0
-16365 -16554 0
16395 16724 0
-16395 -16724 0
17064 16695 0
-17064 -16695 0
16401 16695 0
-16401 -16695 0
16428 16702 0
-16428 -16702 0
16431 16735 0
-16431 -16735 0
16594 16569 0
-16594 -16569 0
16419 16569 0
-16419 -16569 0
16452 16572 0
-16452 -16572 0
17074 16687 0
-17074 -16687 0
16712 16693 0
-16712 -16693 0
16393 16698 0
-16393 -16698 0
17072 16701 0
-17072 -16701 0
16396 17036 0
-16396 -17036 0
16772 16716 0
-16772 -16716 0
16399 16396 0
-16399 -16396 0
16773 16719 0
-16773 -16719 0
16423 16755 0
-16423 -16755 0
16776 16761 0
-16776 -16761 0
16426 16769 0
-16426 -16769 0
16429 17066 0
-16429 -17066 0
16432 17070 0
-16432 -17070 0
16435 16429 0
-16435 -16429 0
17155 17078 0
-17155 -17078 0
16595 16774 0
-16595 -16774 0
16444 16432 0
-16444 -16432 0
16462 16796 0
-16462 -16796 0
-16942 15942 0
-16942 15778 0
16942 -15942 -15778 0
-16880 15897 0
-16880 16113 0
16880 -15897 -16113 0
-17090 15921 0
-17090 16952 0
17090 -15921 -16952 0
-16854 15897 0
-16854 16607 0
16854 -15897 -16607 0
-16939 15942 0
-16939 15790 0
16939 -15942 -15790 0
-16873 15897 0
-16873 16104 0
16873 -15897 -16104 0
-16924 15942 0
-16924 15796 0
16924 -15942 -15796 0
-16843 15894 0
-16843 16062 0
16843 -15894 -16062 0
-16881 15894 0
-16881 16606 0
16881 -15894 -16606 0
-16846 15897 0
-16846 16101 0
16846 -15897 -16101 0
-17102 15933 0
-17102 16952 0
17102 -15933 -16952 0
-16865 15894 0
-16865 16059 0
16865 -15894 -16059 0
-16921 15942 0
-16921 15814 0
16921 -15942 -15814 0
-16844 15909 0
-16844 16158 0
16844 -15909 -16158 0
-16875 15909 0
-16875 16152 0
16875 -15909 -16152 0
-16927 15942 0
-16927 15823 0
16927 -15942 -15823 0
-16842 15897 0
-16842 16110 0
16842 -15897 -16110 0
-17114 15930 0
-17114 16952 0
17114 -15930 -16952 0
-16885 15894 0
-16885 16047 0
16885 -15894 -16047 0
-16848 15909 0
-16848 16149 0
16848 -15909 -16149 0
-17096 15924 0
-17096 16952 0
17096 -15924 -16952 0
-16847 15894 0
-16847 16053 0
16847 -15894 -16053 0
-16866 15909 0
-16866 16155 0
16866 -15909 -16155 0
-16852 15909 0
-16852 16146 0
16852 -15909 -16146 0
-16936 15942 0
-16936 15850 0
16936 -15942 -15850 0
-17120 15936 0
-17120 16952 0
17120 -15936 -16952 0
-16856 15909 0
-16856 16140 0
16856 -15909 -16140 0
-16851 15894 0
-16851 16050 0
16851 -15894 -16050 0
-16892 15921 0
-16892 15916 0
16892 -15921 -15916 0
-16895 15924 0
-16895 15916 0
16895 -15924 -15916 0
-16901 15930 0
-16901 15916 0
16901 -15930 -15916 0
-16904 15933 0
-16904 15916 0
16904 -15933 -15916 0
-16907 15936 0
-16907 15916 0
16907 -15936 -15916 0
-16850 15897 0
-16850 16098 0
16850 -15897 -16098 0
-16855 15894 0
-16855 16044 0
16855 -15894 -16044 0
-16859 16624 0
-16859 16915 0
16859 -16624 -16915 0
-16949 15939 0
-16949 16952 0
16949 -15939 -16952 0
-16910 15939 0
-16910 15916 0
16910 -15939 -15916 0
-16864 15897 0
-16864 16107 0
16864 -15897 -16107 0
-16874 15894 0
-16874 16056 0
16874 -15894 -16056 0
-16884 15897 0
-16884 16095 0
16884 -15897 -16095 0
-17084 15918 0
-17084 16952 0
17084 -15918 -16952 0
-16889 15918 0
-16889 15916 0
16889 -15918 -15916 0
-16882 15909 0
-16882 16161 0
16882 -15909 -16161 0
-16886 15909 0
-16886 16143 0
16886 -15909 -16143 0
-17108 15927 0
-17108 16952 0
17108 -15927 -16952 0
-16898 15927 0
-16898 15916 0
16898 -15927 -15916 0
-16956 15918 0
-16956 16945 0
16956 -15918 -16945 0
-16960 15921 0
-16960 16945 0
16960 -15921 -16945 0
-16964 15924 0
-16964 16945 0
16964 -15924 -16945 0
-16968 15927 0
-16968 16945 0
16968 -15927 -16945 0
-16972 15930 0
-16972 16945 0
16972 -15930 -16945 0
-16976 15933 0
-16976 16945 0
16976 -15933 -16945 0
-16980 15936 0
-16980 16945 0
16980 -15936 -16945 0
-17080 15939 0
-17080 16945 0
17080 -15939 -16945 0
-16933 15942 0
-16933 15943 0
16933 -15942 -15943 0
-16888 16044 0
-16888 15967 0
16888 -16044 -15967 0
-16891 16047 0
-16891 15967 0
16891 -16047 -15967 0
-16894 16050 0
-16894 15967 0
16894 -16050 -15967 0
-16897 16053 0
-16897 15967 0
16897 -16053 -15967 0
-16900 16056 0
-16900 15967 0
16900 -16056 -15967 0
-16903 16059 0
-16903 15967 0
16903 -16059 -15967 0
-16906 16062 0
-16906 15967 0
16906 -16062 -15967 0
-16909 16606 0
-16909 15967 0
16909 -16606 -15967 0
-16919 16614 0
-16919 16638 0
16919 -16614 -16638 0
-16922 15993 0
-16922 17197 0
16922 -15993 -17197 0
-16925 15993 0
-16925 17187 0
16925 -15993 -17187 0
-16928 15993 0
-16928 17193 0
16928 -15993 -17193 0
-16931 16670 0
-16931 16668 0
16931 -16670 -16668 0
-16934 15993 0
-16934 17191 0
16934 -15993 -17191 0
-16937 15993 0
-16937 17189 0
16937 -15993 -17189 0
-16940 15993 0
-16940 17195 0
16940 -15993 -17195 0
-16943 15993 0
-16943 17183 0
16943 -15993 -17183 0
-16504 16140 0
-16504 16018 0
16504 -16140 -16018 0
-16507 16143 0
-16507 16018 0
16507 -16143 -16018 0
-16510 16146 0
-16510 16018 0
16510 -16146 -16018 0
-16513 16149 0
-16513 16018 0
16513 -16149 -16018 0
-16516 16152 0
-16516 16018 0
16516 -16152 -16018 0
-16519 16155 0
-16519 16018 0
16519 -16155 -16018 0
-16522 16158 0
-16522 16018 0
16522 -16158 -16018 0
-16525 16161 0
-16525 16018 0
16525 -16161 -16018 0
-16948 16679 0
-16948 16951 0
16948 -16679 -16951 0
-16955 16095 0
-16955 16951 0
16955 -16095 -16951 0
-16959 16098 0
-16959 16951 0
16959 -16098 -16951 0
-16963 16101 0
-16963 16951 0
16963 -16101 -16951 0
-16967 16104 0
-16967 16951 0
16967 -16104 -16951 0
-16971 16107 0
-16971 16951 0
16971 -16107 -16951 0
-16975 16110 0
-16975 16951 0
16975 -16110 -16951 0
-16979 16113 0
-16979 16951 0
16979 -16113 -16951 0
-16505 16044 0
-16505 16066 0
16505 -16044 -16066 0
-16508 16047 0
-16508 16066 0
16508 -16047 -16066 0
-16511 16050 0
-16511 16066 0
16511 -16050 -16066 0
-16514 16053 0
-16514 16066 0
16514 -16053 -16066 0
-16517 16056 0
-16517 16066 0
16517 -16056 -16066 0
-16520 16059 0
-16520 16066 0
16520 -16059 -16066 0
-16523 16062 0
-16523 16066 0
16523 -16062 -16066 0
-16526 16606 0
-16526 16066 0
16526 -16606 -16066 0
-16984 16068 0
-16984 16357 0
16984 -16068 -16357 0
-16987 16071 0
-16987 16357 0
16987 -16071 -16357 0
-16990 16074 0
-16990 16357 0
16990 -16074 -16357 0
-16993 16077 0
-16993 16357 0
16993 -16077 -16357 0
-16996 16080 0
-16996 16357 0
16996 -16080 -16357 0
-16999 16083 0
-16999 16357 0
16999 -16083 -16357 0
-17002 16086 0
-17002 16357 0
17002 -16086 -16357 0
-17005 16089 0
-17005 16357 0
17005 -16089 -16357 0
-16957 16607 0
-16957 16944 0
16957 -16607 -16944 0
-16961 16095 0
-16961 16944 0
16961 -16095 -16944 0
-16965 16098 0
-16965 16944 0
16965 -16098 -16944 0
-16969 16101 0
-16969 16944 0
16969 -16101 -16944 0
-16973 16104 0
-16973 16944 0
16973 -16104 -16944 0
-16977 16107 0
-16977 16944 0
16977 -16107 -16944 0
-16981 16110 0
-16981 16944 0
16981 -16110 -16944 0
-17081 16113 0
-17081 16944 0
17081 -16113 -16944 0
-16983 16503 0
-16983 16330 0
16983 -16503 -16330 0
-16986 16506 0
-16986 16330 0
16986 -16506 -16330 0
-16989 16509 0
-16989 16330 0
16989 -16509 -16330 0
-16992 16512 0
-16992 16330 0
16992 -16512 -16330 0
-16995 16515 0
-16995 16330 0
16995 -16515 -16330 0
-16998 16518 0
-16998 16330 0
16998 -16518 -16330 0
-17001 16521 0
-17001 16330 0
17001 -16521 -16330 0
-17004 16524 0
-17004 16330 0
17004 -16524 -16330 0
-17076 16140 0
-17076 16950 0
17076 -16140 -16950 0
-17086 16143 0
-17086 16950 0
17086 -16143 -16950 0
-17092 16146 0
-17092 16950 0
17092 -16146 -16950 0
-17098 16149 0
-17098 16950 0
17098 -16149 -16950 0
-17110 16152 0
-17110 16950 0
17110 -16152 -16950 0
-17116 16155 0
-17116 16950 0
17116 -16155 -16950 0
-17104 16158 0
-17104 16950 0
17104 -16158 -16950 0
-17122 16161 0
-17122 16950 0
17122 -16161 -16950 0
-16529 16164 0
-16529 16234 0
16529 -16164 -16234 0
-16532 16167 0
-16532 16234 0
16532 -16167 -16234 0
-16535 16170 0
-16535 16234 0
16535 -16170 -16234 0
-16538 16173 0
-16538 16234 0
16538 -16173 -16234 0
-16541 16176 0
-16541 16234 0
16541 -16176 -16234 0
-16544 16179 0
-16544 16234 0
16544 -16179 -16234 0
-16547 16182 0
-16547 16234 0
16547 -16182 -16234 0
-16550 16185 0
-16550 16234 0
16550 -16185 -16234 0
-16528 16505 0
-16528 16189 0
16528 -16505 -16189 0
-16531 16508 0
-16531 16192 0
16531 -16508 -16192 0
-16534 16511 0
-16534 16195 0
16534 -16511 -16195 0
-16537 16514 0
-16537 16198 0
16537 -16514 -16198 0
-16540 16517 0
-16540 16201 0
16540 -16517 -16201 0
-16543 16520 0
-16543 16204 0
16543 -16520 -16204 0
-16546 16523 0
-16546 16207 0
16546 -16523 -16207 0
-16549 16526 0
-16549 16210 0
16549 -16526 -16210 0
-17041 16982 0
-17041 16234 0
17041 -16982 -16234 0
-17044 16985 0
-17044 16234 0
17044 -16985 -16234 0
-17047 16988 0
-17047 16234 0
17047 -16988 -16234 0
-17050 16991 0
-17050 16234 0
17050 -16991 -16234 0
-17053 16994 0
-17053 16234 0
17053 -16994 -16234 0
-17056 16997 0
-17056 16234 0
17056 -16997 -16234 0
-17059 17000 0
-17059 16234 0
17059 -17000 -16234 0
-17062 17003 0
-17062 16234 0
17062 -17003 -16234 0
-16552 16527 0
-16552 16237 0
16552 -16527 -16237 0
-16287 16527 0
-16287 16504 0
16287 -16527 -16504 0
-16555 16530 0
-16555 16243 0
16555 -16530 -16243 0
-17037 16530 0
-17037 16507 0
17037 -16530 -16507 0
-16558 16533 0
-16558 16249 0
16558 -16533 -16249 0
-16299 16533 0
-16299 16510 0
16299 -16533 -16510 0
-16561 16536 0
-16561 16255 0
16561 -16536 -16255 0
-17067 16536 0
-17067 16513 0
17067 -16536 -16513 0
-16564 16539 0
-16564 16261 0
16564 -16539 -16261 0
-17073 16539 0
-17073 16516 0
17073 -16539 -16516 0
-16567 16542 0
-16567 16267 0
16567 -16542 -16267 0
-16317 16542 0
-16317 16519 0
16317 -16542 -16519 0
-16570 16545 0
-16570 16273 0
16570 -16545 -16273 0
-16323 16545 0
-16323 16522 0
16323 -16545 -16522 0
-16573 16548 0
-16573 16279 0
16573 -16548 -16279 0
-16329 16548 0
-16329 16525 0
16329 -16548 -16525 0
-16553 16284 0
-16553 16504 0
16553 -16284 -16504 0
-17007 16287 0
-17007 16330 0
17007 -16287 -16330 0
-16556 16290 0
-16556 16507 0
16556 -16290 -16507 0
-17010 17037 0
-17010 16330 0
17010 -17037 -16330 0
-16559 16296 0
-16559 16510 0
16559 -16296 -16510 0
-17013 16299 0
-17013 16330 0
17013 -16299 -16330 0
-16562 16302 0
-16562 16513 0
16562 -16302 -16513 0
-17019 17067 0
-17019 16330 0
17019 -17067 -16330 0
-16565 16308 0
-16565 16516 0
16565 -16308 -16516 0
-17022 17073 0
-17022 16330 0
17022 -17073 -16330 0
-16568 16314 0
-16568 16519 0
16568 -16314 -16519 0
-17025 16317 0
-17025 16330 0
17025 -16317 -16330 0
-16571 16320 0
-16571 16522 0
16571 -16320 -16522 0
-17028 16323 0
-17028 16330 0
17028 -16323 -16330 0
-16574 16326 0
-16574 16525 0
16574 -16326 -16525 0
-17031 16329 0
-17031 16330 0
17031 -16329 -16330 0
-16576 16685 0
-16576 16333 0
16576 -16685 -16333 0
-17008 16685 0
-17008 16357 0
17008 -16685 -16357 0
-17011 16554 0
-17011 16357 0
17011 -16554 -16357 0
-17014 16724 0
-17014 16357 0
17014 -16724 -16357 0
-17020 16695 0
-17020 16357 0
17020 -16695 -16357 0
-17023 16702 0
-17023 16357 0
17023 -16702 -16357 0
-17026 16735 0
-17026 16357 0
17026 -16735 -16357 0
-17029 16569 0
-17029 16357 0
17029 -16569 -16357 0
-17032 16572 0
-17032 16357 0
17032 -16572 -16357 0
-17035 16700 0
-17035 16699 0
17035 -16700 -16699 0
-16577 16362 0
-16577 16686 0
16577 -16362 -16686 0
-16583 16365 0
-16583 16698 0
16583 -16365 -16698 0
-17040 17006 0
-17040 16390 0
17040 -17006 -16390 0
-17043 17009 0
-17043 16390 0
17043 -17009 -16390 0
-17046 17012 0
-17046 16390 0
17046 -17012 -16390 0
-17049 17018 0
-17049 16390 0
17049 -17018 -16390 0
-17052 17021 0
-17052 16390 0
17052 -17021 -16390 0
-17055 17024 0
-17055 16390 0
17055 -17024 -16390 0
-17058 17027 0
-17058 16390 0
17058 -17027 -16390 0
-17061 17030 0
-17061 16390 0
17061 -17030 -16390 0
-16582 16554 0
-16582 16393 0
16582 -16554 -16393 0
-16586 16395 0
-16586 16396 0
16586 -16395 -16396 0
-16585 16724 0
-16585 16399 0
16585 -16724 -16399 0
-16589 16401 0
-16589 16755 0
16589 -16401 -16755 0
-17071 16702 0
-17071 17068 0
17071 -16702 -17068 0
-17077 16758 0
-17077 17185 0
17077 -16758 -17185 0
-17079 16758 0
-17079 16951 0
17079 -16758 -16951 0
-17083 16766 0
-17083 16951 0
17083 -16766 -16951 0
-17087 16766 0
-17087 17185 0
17087 -16766 -17185 0
-16592 16419 0
-16592 16769 0
16592 -16419 -16769 0
-16588 16695 0
-16588 16423 0
16588 -16695 -16423 0
-16591 16569 0
-16591 16426 0
16591 -16569 -16426 0
-16598 16428 0
-16598 16429 0
16598 -16428 -16429 0
-16601 16431 0
-16601 16432 0
16601 -16431 -16432 0
-16597 16702 0
-16597 16435 0
16597 -16702 -16435 0
-17089 16784 0
-17089 16951 0
17089 -16784 -16951 0
-17093 16784 0
-17093 17185 0
17093 -16784 -17185 0
-16600 16735 0
-16600 16444 0
16600 -16735 -16444 0
-17095 16793 0
-17095 16951 0
17095 -16793 -16951 0
-17099 16793 0
-17099 17185 0
17099 -16793 -17185 0
-16604 16452 0
-16604 16796 0
16604 -16452 -16796 0
-17101 16799 0
-17101 16951 0
17101 -16799 -16951 0
-17105 16799 0
-17105 17185 0
17105 -16799 -17185 0
-16603 16572 0
-16603 16462 0
16603 -16572 -16462 0
-17107 16811 0
-17107 16951 0
17107 -16811 -16951 0
-17111 16811 0
-17111 17185 0
17111 -16811 -17185 0
-17113 16817 0
-17113 16951 0
17113 -16817 -16951 0
-17117 16817 0
-17117 17185 0
17117 -16817 -17185 0
-17119 16826 0
-17119 16951 0
17119 -16826 -16951 0
-17123 16826 0
-17123 17185 0
17123 -16826 -17185 0
16633 -16606 0
16633 -16607 0
-16633 16606 16607 0
16637 -16624 0
16637 -16662 0
-16637 16624 16662 0
16673 -16642 0
16673 -16878 0
-16673 16642 16878 0
16644 -16631 0
16644 -16492 0
-16644 16631 16492 0
16653 -16861 0
16653 -16614 0
-16653 16861 16614 0
16656 -16911 0
16656 -16916 0
-16656 16911 16916 0
16672 -16664 0
16672 -16669 0
16672 -16628 0
-16672 16664 16669 16628 0
16503 -16504 0
16503 -16505 0
-16503 16504 16505 0
16506 -16507 0
16506 -16508 0
-16506 16507 16508 0
16509 -16510 0
16509 -16511 0
-16509 16510 16511 0
16512 -16513 0
16512 -16514 0
-16512 16513 16514 0
16515 -16516 0
16515 -16517 0
-16515 16516 16517 0
16518 -16519 0
16518 -16520 0
-16518 16519 16520 0
16521 -16522 0
16521 -16523 0
-16521 16522 16523 0
16524 -16525 0
16524 -16526 0
-16524 16525 16526 0
16527 -16528 0
16527 -16529 0
-16527 16528 16529 0
16530 -16531 0
16530 -16532 0
-16530 16531 16532 0
16533 -16534 0
16533 -16535 0
-16533 16534 16535 0
16536 -16537 0
16536 -16538 0
-16536 16537 16538 0
16539 -16540 0
16539 -16541 0
-16539 16540 16541 0
16542 -16543 0
16542 -16544 0
-16542 16543 16544 0
16545 -16546 0
16545 -16547 0
-16545 16546 16547 0
16548 -16549 0
16548 -16550 0
-16548 16549 16550 0
16685 -16552 0
16685 -16553 0
-16685 16552 16553 0
16554 -16555 0
16554 -16556 0
-16554 16555 16556 0
16724 -16558 0
16724 -16559 0
-16724 16558 16559 0
16695 -16561 0
16695 -16562 0
-16695 16561 16562 0
16702 -16564 0
16702 -16565 0
-16702 16564 16565 0
16735 -16567 0
16735 -16568 0
-16735 16567 16568 0
16569 -16570 0
16569 -16571 0
-16569 16570 16571 0
16572 -16573 0
16572 -16574 0
-16572 16573 16574 0
16714 -16576 0
16714 -16577 0
-16714 16576 16577 0
16723 -17037 0
16723 -17038 0
-16723 17037 17038 0
16753 -16582 0
16753 -16583 0
-16753 16582 16583 0
16779 -16585 0
16779 -16586 0
-16779 16585 16586 0
16788 -16588 0
16788 -16589 0
-16788 16588 16589 0
16791 -16591 0
16791 -16592 0
-16791 16591 16592 0
16797 -16594 0
16797 -16595 0
-16797 16594 16595 0
16803 -16597 0
16803 -16598 0
-16803 16597 16598 0
16809 -16600 0
16809 -16601 0
-16809 16600 16601 0
16821 -16603 0
16821 -16604 0
-16821 16603 16604 0
16635 16606 0
16635 16607 0
-16635 -16606 -16607 0
16608 16869 0
16608 16610 0
-16608 -16869 -16610 0
16862 16869 0
16862 16915 0
-16862 -16869 -16915 0
16614 16858 0
16614 16915 0
-16614 -16858 -16915 0
16913 16618 0
16913 16642 0
-16913 -16618 -16642 0
16916 16858 0
16916 16861 0
-16916 -16858 -16861 0
16638 16624 0
16638 16662 0
-16638 -16624 -16662 0
17197 16868 0
17197 16628 0
-17197 -16868 -16628 0
16680 16862 0
16680 16631 0
-16680 -16862 -16631 0
16683 16633 0
16683 16860 0
16683 16635 0
-16683 -16633 -16860 -16635 0
17175 16637 0
17175 16638 0
-17175 -16637 -16638 0
17187 16861 0
17187 16867 0
17187 16642 0
-17187 -16861 -16867 -16642 0
16681 16644 0
16681 16861 0
-16681 -16644 -16861 0
16670 16912 0
16670 16914 0
-16670 -16912 -16914 0
16668 16913 0
16668 16914 0
-16668 -16913 -16914 0
17173 16653 0
17173 16654 0
-17173 -16653 -16654 0
16655 16656 0
16655 16662 0
-16655 -16656 -16662 0
17191 16659 0
17191 16861 0
17191 16858 0
17191 16662 0
-17191 -16659 -16861 -16858 -16662 0
17181 16664 0
17181 16670 0
17181 16668 0
-17181 -16664 -16670 -16668 0
17189 16668 0
17189 16669 0
17189 16670 0
-17189 -16668 -16669 -16670 0
17195 16672 0
17195 16673 0
-17195 -16672 -16673 0
17179 16680 0
17179 16682 0
17179 16681 0
17179 16683 0
-17179 -16680 -16682 -16681 -16683 0
16679 16680 0
16679 16681 0
16679 16682 0
16679 16683 0
-16679 -16680 -16681 -16682 -16683 0
16699 16685 0
16699 16686 0
-16699 -16685 -16686 0
16687 17067 0
16687 16702 0
-16687 -17067 -16702 0
16775 17073 0
16775 16735 0
-16775 -17073 -16735 0
16693 16735 0
16693 16695 0
16693 16702 0
16693 16724 0
-16693 -16735 -16695 -16702 -16724 0
16698 16699 0
16698 16700 0
-16698 -16699 -16700 0
16701 16702 0
16701 17069 0
-16701 -16702 -17069 0
16765 16735 0
16765 17074 0
-16765 -16735 -17074 0
16764 17037 0
16764 16712 0
-16764 -17037 -16712 0
16777 17038 0
16777 16712 0
-16777 -17038 -16712 0
16759 16714 0
16759 16822 0
-16759 -16714 -16822 0
16716 16775 0
16716 16764 0
-16716 -16775 -16764 0
16719 16765 0
16719 16777 0
-16719 -16765 -16777 0
17065 16723 0
17065 16724 0
-17065 -16723 -16724 0
16760 17039 0
16760 16751 0
-16760 -17039 -16751 0
16768 17042 0
16768 16751 0
-16768 -17042 -16751 0
16786 17045 0
16786 16751 0
-16786 -17045 -16751 0
16771 16735 0
16771 17072 0
-16771 -16735 -17072 0
16795 17048 0
16795 16751 0
-16795 -17048 -16751 0
16813 17051 0
16813 16751 0
-16813 -17051 -16751 0
16819 17054 0
16819 16751 0
-16819 -17054 -16751 0
16801 17057 0
16801 16751 0
-16801 -17057 -16751 0
16828 17060 0
16828 16751 0
-16828 -17060 -16751 0
16767 16753 0
16767 16822 0
-16767 -16753 -16822 0
16755 17016 0
16755 17065 0
-16755 -17016 -17065 0
16758 16759 0
16758 16760 0
-16758 -16759 -16760 0
16761 16770 0
16761 16771 0
16761 16764 0
16761 16765 0
-16761 -16770 -16771 -16764 -16765 0
16766 16767 0
16766 16768 0
-16766 -16767 -16768 0
16769 16770 0
16769 16771 0
16769 16772 0
16769 16773 0
-16769 -16770 -16771 -16772 -16773 0
16774 16775 0
16774 16776 0
16774 16777 0
-16774 -16775 -16776 -16777 0
16785 16779 0
16785 16822 0
-16785 -16779 -16822 0
17125 17082 0
17125 17075 0
-17125 -17082 -17075 0
16784 16785 0
16784 16786 0
-16784 -16785 -16786 0
16794 16788 0
16794 16822 0
-16794 -16788 -16822 0
16800 16791 0
16800 16822 0
-16800 -16791 -16822 0
16793 16794 0
16793 16795 0
-16793 -16794 -16795 0
16796 16797 0
16796 16798 0
-16796 -16797 -16798 0
16799 16800 0
16799 16801 0
-16799 -16800 -16801 0
16812 16803 0
16812 16822 0
-16812 -16803 -16822 0
17127 17088 0
17127 17085 0
-17127 -17088 -17085 0
16818 16809 0
16818 16822 0
-16818 -16809 -16822 0
16811 16812 0
16811 16813 0
-16811 -16812 -16813 0
17129 17094 0
17129 17091 0
-17129 -17094 -17091 0
16817 16818 0
16817 16819 0
-16817 -16818 -16819 0
16827 16821 0
16827 16822 0
-16827 -16821 -16822 0
17131 17106 0
17131 17097 0
-17131 -17106 -17097 0
16826 16827 0
16826 16828 0
-16826 -16827 -16828 0
17133 17112 0
17133 17109 0
-17133 -17112 -17109 0
17135 17100 0
17135 17115 0
-17135 -17100 -17115 0
17137 17118 0
17137 17103 0
-17137 -17118 -17103 0
17139 16947 0
17139 17121 0
-17139 -16947 -17121 0
-16841 -16842 0
-16841 -16843 0
-16841 -16844 0
16841 16842 16843 16844 0
-16845 -16846 0
-16845 -16847 0
-16845 -16848 0
16845 16846 16847 16848 0
-16849 -16850 0
-16849 -16851 0
-16849 -16852 0
16849 16850 16851 16852 0
-16853 -16854 0
-16853 -16855 0
-16853 -16856 0
16853 16854 16855 16856 0
-16857 -16858 0
-16857 -16859 0
16857 16858 16859 0
-16860 -16861 0
-16860 -16862 0
16860 16861 16862 0
-16863 -16864 0
-16863 -16865 0
-16863 -16866 0
16863 16864 16865 16866 0
-16867 -16868 0
-16867 -16869 0
-16867 -16912 0
-16867 -16915 0
16867 16868 16869 16912 16915 0
-16872 -16873 0
-16872 -16874 0
-16872 -16875 0
16872 16873 16874 16875 0
-16876 -16912 0
-16876 -16878 0
16876 16912 16878 0
-16879 -16880 0
-16879 -16881 0
-16879 -16882 0
16879 16880 16881 16882 0
-16883 -16884 0
-16883 -16885 0
-16883 -16886 0
16883 16884 16885 16886 0
-16887 -16888 0
-16887 -16889 0
16887 16888 16889 0
-16890 -16891 0
-16890 -16892 0
16890 16891 16892 0
-16893 -16894 0
-16893 -16895 0
16893 16894 16895 0
-16896 -16897 0
-16896 -16898 0
16896 16897 16898 0
-16899 -16900 0
-16899 -16901 0
16899 16900 16901 0
-16902 -16903 0
-16902 -16904 0
16902 16903 16904 0
-16905 -16906 0
-16905 -16907 0
16905 16906 16907 0
-16908 -16909 0
-16908 -16910 0
16908 16909 16910 0
-16911 -16912 0
-16911 -16913 0
16911 16912 16913 0
-16914 -16915 0
-16914 -16916 0
16914 16915 16916 0
-16917 -16918 0
-16917 -16919 0
16917 16918 16919 0
-16920 -16921 0
-16920 -16922 0
16920 16921 16922 0
-16923 -16924 0
-16923 -16925 0
16923 16924 16925 0
-16926 -16927 0
-16926 -16928 0
16926 16927 16928 0
-17183 -16952 0
-17183 -16931 0
17183 16952 16931 0
-16932 -16933 0
-16932 -16934 0
16932 16933 16934 0
-16935 -16936 0
-16935 -16937 0
16935 16936 16937 0
-16938 -16939 0
-16938 -16940 0
16938 16939 16940 0
-16941 -16942 0
-16941 -16943 0
16941 16942 16943 0
-16944 -16945 0
-16944 -16951 0
16944 16945 16951 0
-16947 -16948 0
-16947 -16949 0
16947 16948 16949 0
-16950 -16951 0
-16950 -16952 0
-16950 -17185 0
16950 16951 16952 17185 0
-16954 -16955 0
-16954 -16956 0
-16954 -16957 0
16954 16955 16956 16957 0
-16958 -16959 0
-16958 -16960 0
-16958 -16961 0
16958 16959 16960 16961 0
-16962 -16963 0
-16962 -16964 0
-16962 -16965 0
16962 16963 16964 16965 0
-16966 -16967 0
-16966 -16968 0
-16966 -16969 0
16966 16967 16968 16969 0
-16970 -16971 0
-16970 -16972 0
-16970 -16973 0
16970 16971 16972 16973 0
-16974 -16975 0
-16974 -16976 0
-16974 -16977 0
16974 16975 16976 16977 0
-16978 -16979 0
-16978 -16980 0
-16978 -16981 0
16978 16979 16980 16981 0
-16982 -16983 0
-16982 -16984 0
16982 16983 16984 0
-16985 -16986 0
-16985 -16987 0
16985 16986 16987 0
-16988 -16989 0
-16988 -16990 0
16988 16989 16990 0
-16991 -16992 0
-16991 -16993 0
16991 16992 16993 0
-16994 -16995 0
-16994 -16996 0
16994 16995 16996 0
-16997 -16998 0
-16997 -16999 0
16997 16998 16999 0
-17000 -17001 0
-17000 -17002 0
17000 17001 17002 0
-17003 -17004 0
-17003 -17005 0
17003 17004 17005 0
-17006 -17007 0
-17006 -17008 0
17006 17007 17008 0
-17009 -17010 0
-17009 -17011 0
17009 17010 17011 0
-17012 -17013 0
-17012 -17014 0
17012 17013 17014 0
-17069 -17016 0
-17069 -17064 0
17069 17016 17064 0
-17018 -17019 0
-17018 -17020 0
17018 17019 17020 0
-17021 -17022 0
-17021 -17023 0
17021 17022 17023 0
-17024 -17025 0
-17024 -17026 0
17024 17025 17026 0
-17027 -17028 0
-17027 -17029 0
17027 17028 17029 0
-17030 -17031 0
-17030 -17032 0
17030 17031 17032 0
-17038 -17034 0
-17038 -17035 0
17038 17034 17035 0
-17036 -17037 0
-17036 -17038 0
17036 17037 17038 0
-17039 -17040 0
-17039 -17041 0
17039 17040 17041 0
-17042 -17043 0
-17042 -17044 0
17042 17043 17044 0
-17045 -17046 0
-17045 -17047 0
17045 17046 17047 0
-17048 -17049 0
-17048 -17050 0
17048 17049 17050 0
-17051 -17052 0
-17051 -17053 0
17051 17052 17053 0
-17054 -17055 0
-17054 -17056 0
17054 17055 17056 0
-17057 -17058 0
-17057 -17059 0
17057 17058 17059 0
-17060 -17061 0
-17060 -17062 0
17060 17061 17062 0
-17068 -17064 0
-17068 -17065 0
17068 17064 17065 0
-17066 -17067 0
-17066 -17068 0
-17066 -17069 0
17066 17067 17068 17069 0
-17070 -17071 0
-17070 -17072 0
-17070 -17073 0
-17070 -17074 0
17070 17071 17072 17073 17074 0
-17075 -17076 0
-17075 -17077 0
17075 17076 17077 0
-17078 -17079 0
-17078 -17080 0
-17078 -17081 0
17078 17079 17080 17081 0
-17082 -17083 0
-17082 -17084 0
17082 17083 17084 0
-17085 -17086 0
-17085 -17087 0
17085 17086 17087 0
-17088 -17089 0
-17088 -17090 0
17088 17089 17090 0
-17091 -17092 0
-17091 -17093 0
17091 17092 17093 0
-17094 -17095 0
-17094 -17096 0
17094 17095 17096 0
-17097 -17098 0
-17097 -17099 0
17097 17098 17099 0
-17100 -17101 0
-17100 -17102 0
17100 17101 17102 0
-17103 -17104 0
-17103 -17105 0
17103 17104 17105 0
-17106 -17107 0
-17106 -17108 0
17106 17107 17108 0
-17109 -17110 0
-17109 -17111 0
17109 17110 17111 0
-17112 -17113 0
-17112 -17114 0
17112 17113 17114 0
-17115 -17116 0
-17115 -17117 0
17115 17116 17117 0
-17118 -17119 0
-17118 -17120 0
17118 17119 17120 0
-17121 -17122 0
-17121 -17123 0
17121 17122 17123 0
-17125 17810 0
17125 -17810 0
-17127 17813 0
17127 -17813 0
-17129 17816 0
17129 -17816 0
-17131 17819 0
17131 -17819 0
-17133 17822 0
17133 -17822 0
-17135 17825 0
17135 -17825 0
-17137 17828 0
17137 -17828 0
-17139 17831 0
17139 -17831 0
-17141 18277 0
17141 -18277 0
-17143 17765 0
17143 -17765 0
-17145 17768 0
17145 -17768 0
-17147 17771 0
17147 -17771 0
-17149 17774 0
17149 -17774 0
-17151 17777 0
17151 -17777 0
-17153 17780 0
17153 -17780 0
-17155 17783 0
17155 -17783 0
-17157 17714 0
17157 -17714 0
-17159 17717 0
17159 -17717 0
-17161 17720 0
17161 -17720 0
-17163 17723 0
17163 -17723 0
-17165 17726 0
17165 -17726 0
-17167 17729 0
17167 -17729 0
-17169 17732 0
17169 -17732 0
-17171 18276 0
17171 -18276 0
-17173 18539 0
17173 -18539 0
-17175 18294 0
17175 -18294 0
-17177 18585 0
17177 -18585 0
-17179 18280 0
17179 -18280 0
-17181 18298 0
17181 -18298 0
-17183 17448 0
17183 -17448 0
-17185 17184 0
17185 -17184 0
-17187 17466 0
17187 -17466 0
-17189 17520 0
17189 -17520 0
-17191 17613 0
17191 -17613 0
-17193 17493 0
17193 -17493 0
-17195 17460 0
17195 -17460 0
-17197 17484 0
17197 -17484 0
17663 17612 0
-17663 -17612 0
18339 18277 0
-18339 -18277 0
18588 18280 0
-18588 -18280 0
18528 18539 0
-18528 -18539 0
17637 17586 0
-17637 -17586 0
18312 17209 0
-18312 -17209 0
18531 18294 0
-18531 -18294 0
18332 18585 0
-18332 -18585 0
18538 18288 0
-18538 -18288 0
18548 18298 0
-18548 -18298 0
18301 18305 0
-18301 -18305 0
18162 18278 0
-18162 -18278 0
18324 18527 0
-18324 -18527 0
18334 18530 0
-18334 -18530 0
18863 18546 0
-18863 -18546 0
18827 18557 0
-18827 -18557 0
18829 18560 0
-18829 -18560 0
18831 18563 0
-18831 -18563 0
18833 18566 0
-18833 -18566 0
18835 18569 0
-18835 -18569 0
18837 18572 0
-18837 -18572 0
18839 18575 0
-18839 -18575 0
18841 18578 0
-18841 -18578 0
18329 18581 0
-18329 -18581 0
18352 18587 0
-18352 -18587 0
17255 18590 0
-17255 -18590 0
18847 18325 0
-18847 -18325 0
18421 17255 0
-18421 -17255 0
17261 17255 0
-17261 -17255 0
17688 18593 0
-17688 -18593 0
17265 18596 0
-17265 -18596 0
18492 17261 0
-18492 -17261 0
18000 17265 0
-18000 -17265 0
17307 17265 0
-17307 -17265 0
18621 18602 0
-18621 -18602 0
17736 18605 0
-17736 -18605 0
18356 18608 0
-18356 -18608 0
17315 18608 0
-17315 -18608 0
17907 18174 0
-17907 -18174 0
17738 18174 0
-17738 -18174 0
17913 18177 0
-17913 -18177 0
17741 18177 0
-17741 -18177 0
17919 18180 0
-17919 -18180 0
17744 18180 0
-17744 -18180 0
17925 18183 0
-17925 -18183 0
17747 18183 0
-17747 -18183 0
17931 18186 0
-17931 -18186 0
17750 18186 0
-17750 -18186 0
17937 18189 0
-17937 -18189 0
17753 18189 0
-17753 -18189 0
17943 18192 0
-17943 -18192 0
17756 18192 0
-17756 -18192 0
17949 18195 0
-17949 -18195 0
17759 18195 0
-17759 -18195 0
18027 17307 0
-18027 -17307 0
18855 18611 0
-18855 -18611 0
18003 18356 0
-18003 -18356 0
18060 17315 0
-18060 -17315 0
17333 17315 0
-17333 -17315 0
17834 18175 0
-17834 -18175 0
17837 18178 0
-17837 -18178 0
17840 18181 0
-17840 -18181 0
17843 18184 0
-17843 -18184 0
17846 18187 0
-17846 -18187 0
17849 18190 0
-17849 -18190 0
17852 18193 0
-17852 -18193 0
17855 18196 0
-17855 -18196 0
17904 17333 0
-17904 -17333 0
17859 17904 0
-17859 -17904 0
17862 17904 0
-17862 -17904 0
17865 17904 0
-17865 -17904 0
17868 17904 0
-17868 -17904 0
17871 17904 0
-17871 -17904 0
17874 17904 0
-17874 -17904 0
17877 17904 0
-17877 -17904 0
17880 17904 0
-17880 -17904 0
18811 18624 0
-18811 -18624 0
18813 18628 0
-18813 -18628 0
18815 18632 0
-18815 -18632 0
18817 18636 0
-18817 -18636 0
18819 18640 0
-18819 -18640 0
18821 18644 0
-18821 -18644 0
18823 18648 0
-18823 -18648 0
17954 18197 0
-17954 -18197 0
17960 18200 0
-17960 -18200 0
17966 18203 0
-17966 -18203 0
17972 18206 0
-17972 -18206 0
17978 18209 0
-17978 -18209 0
17984 18212 0
-17984 -18212 0
17990 18215 0
-17990 -18215 0
17996 18218 0
-17996 -18218 0
18370 17957 0
-18370 -17957 0
18686 17969 0
-18686 -17969 0
18440 17987 0
-18440 -17987 0
18468 17993 0
-18468 -17993 0
18032 18355 0
-18032 -18355 0
18704 18224 0
-18704 -18224 0
18035 18224 0
-18035 -18224 0
18065 18394 0
-18065 -18394 0
18734 18365 0
-18734 -18365 0
18071 18365 0
-18071 -18365 0
18098 18372 0
-18098 -18372 0
18101 18405 0
-18101 -18405 0
18264 18239 0
-18264 -18239 0
18089 18239 0
-18089 -18239 0
18122 18242 0
-18122 -18242 0
18744 18357 0
-18744 -18357 0
18382 18363 0
-18382 -18363 0
18063 18368 0
-18063 -18368 0
18742 18371 0
-18742 -18371 0
18066 18706 0
-18066 -18706 0
18442 18386 0
-18442 -18386 0
18069 18066 0
-18069 -18066 0
18443 18389 0
-18443 -18389 0
18093 18425 0
-18093 -18425 0
18446 18431 0
-18446 -18431 0
18096 18439 0
-18096 -18439 0
18099 18736 0
-18099 -18736 0
18102 18740 0
-18102 -18740 0
18105 18099 0
-18105 -18099 0
18825 18748 0
-18825 -18748 0
18265 18444 0
-18265 -18444 0
18114 18102 0
-18114 -18102 0
18132 18466 0
-18132 -18466 0
-18612 17612 0
-18612 17448 0
18612 -17612 -17448 0
-18550 17567 0
-18550 17783 0
18550 -17567 -17783 0
-18760 17591 0
-18760 18622 0
18760 -17591 -18622 0
-18524 17567 0
-18524 18277 0
18524 -17567 -18277 0
-18609 17612 0
-18609 17460 0
18609 -17612 -17460 0
-18543 17567 0
-18543 17774 0
18543 -17567 -17774 0
-18594 17612 0
-18594 17466 0
18594 -17612 -17466 0
-18513 17564 0
-18513 17732 0
18513 -17564 -17732 0
-18551 17564 0
-18551 18276 0
18551 -17564 -18276 0
-18516 17567 0
-18516 17771 0
18516 -17567 -17771 0
-18772 17603 0
-18772 18622 0
18772 -17603 -18622 0
-18535 17564 0
-18535 17729 0
18535 -17564 -17729 0
-18591 17612 0
-18591 17484 0
18591 -17612 -17484 0
-18514 17579 0
-18514 17828 0
18514 -17579 -17828 0
-18545 17579 0
-18545 17822 0
18545 -17579 -17822 0
-18597 17612 0
-18597 17493 0
18597 -17612 -17493 0
-18512 17567 0
-18512 17780 0
18512 -17567 -17780 0
-18784 17600 0
-18784 18622 0
18784 -17600 -18622 0
-18555 17564 0
-18555 17717 0
18555 -17564 -17717 0
-18518 17579 0
-18518 17819 0
18518 -17579 -17819 0
-18766 17594 0
-18766 18622 0
18766 -17594 -18622 0
-18517 17564 0
-18517 17723 0
18517 -17564 -17723 0
-18536 17579 0
-18536 17825 0
18536 -17579 -17825 0
-18522 17579 0
-18522 17816 0
18522 -17579 -17816 0
-18606 17612 0
-18606 17520 0
18606 -17612 -17520 0
-18790 17606 0
-18790 18622 0
18790 -17606 -18622 0
-18526 17579 0
-18526 17810 0
18526 -17579 -17810 0
-18521 17564 0
-18521 17720 0
18521 -17564 -17720 0
-18562 17591 0
-18562 17586 0
18562 -17591 -17586 0
-18565 17594 0
-18565 17586 0
18565 -17594 -17586 0
-18571 17600 0
-18571 17586 0
18571 -17600 -17586 0
-18574 17603 0
-18574 17586 0
18574 -17603 -17586 0
-18577 17606 0
-18577 17586 0
18577 -17606 -17586 0
-18520 17567 0
-18520 17768 0
18520 -17567 -17768 0
-18525 17564 0
-18525 17714 0
18525 -17564 -17714 0
-18529 18294 0
-18529 18585 0
18529 -18294 -18585 0
-18619 17609 0
-18619 18622 0
18619 -17609 -18622 0
-18580 17609 0
-18580 17586 0
18580 -17609 -17586 0
-18534 17567 0
-18534 17777 0
18534 -17567 -17777 0
-18544 17564 0
-18544 17726 0
18544 -17564 -17726 0
-18554 17567 0
-18554 17765 0
18554 -17567 -17765 0
-18754 17588 0
-18754 18622 0
18754 -17588 -18622 0
-18559 17588 0
-18559 17586 0
18559 -17588 -17586 0
-18552 17579 0
-18552 17831 0
18552 -17579 -17831 0
-18556 17579 0
-18556 17813 0
18556 -17579 -17813 0
-18778 17597 0
-18778 18622 0
18778 -17597 -18622 0
-18568 17597 0
-18568 17586 0
18568 -17597 -17586 0
-18626 17588 0
-18626 18615 0
18626 -17588 -18615 0
-18630 17591 0
-18630 18615 0
18630 -17591 -18615 0
-18634 17594 0
-18634 18615 0
18634 -17594 -18615 0
-18638 17597 0
-18638 18615 0
18638 -17597 -18615 0
-18642 17600 0
-18642 18615 0
18642 -17600 -18615 0
-18646 17603 0
-18646 18615 0
18646 -17603 -18615 0
-18650 17606 0
-18650 18615 0
18650 -17606 -18615 0
-18750 17609 0
-18750 18615 0
18750 -17609 -18615 0
-18603 17612 0
-18603 17613 0
18603 -17612 -17613 0
-18558 17714 0
-18558 17637 0
18558 -17714 -17637 0
-18561 17717 0
-18561 17637 0
18561 -17717 -17637 0
-18564 17720 0
-18564 17637 0
18564 -17720 -17637 0
-18567 17723 0
-18567 17637 0
18567 -17723 -17637 0
-18570 17726 0
-18570 17637 0
18570 -17726 -17637 0
-18573 17729 0
-18573 17637 0
18573 -17729 -17637 0
-18576 17732 0
-18576 17637 0
18576 -17732 -17637 0
-18579 18276 0
-18579 17637 0
18579 -18276 -17637 0
-18589 18284 0
-18589 18308 0
18589 -18284 -18308 0
-18592 17663 0
-18592 18867 0
18592 -17663 -18867 0
-18595 17663 0
-18595 18857 0
18595 -17663 -18857 0
-18598 17663 0
-18598 18863 0
18598 -17663 -18863 0
-18601 18340 0
-18601 18338 0
18601 -18340 -18338 0
-18604 17663 0
-18604 18861 0
18604 -17663 -18861 0
-18607 17663 0
-18607 18859 0
18607 -17663 -18859 0
-18610 17663 0
-18610 18865 0
18610 -17663 -18865 0
-18613 17663 0
-18613 18853 0
18613 -17663 -18853 0
-18174 17810 0
-18174 17688 0
18174 -17810 -17688 0
-18177 17813 0
-18177 17688 0
18177 -17813 -17688 0
-18180 17816 0
-18180 17688 0
18180 -17816 -17688 0
-18183 17819 0
-18183 17688 0
18183 -17819 -17688 0
-18186 17822 0
-18186 17688 0
18186 -17822 -17688 0
-18189 17825 0
-18189 17688 0
18189 -17825 -17688 0
-18192 17828 0
-18192 17688 0
18192 -17828 -17688 0
-18195 17831 0
-18195 17688 0
18195 -17831 -17688 0
-18618 18349 0
-18618 18621 0
18618 -18349 -18621 0
-18625 17765 0
-18625 18621 0
18625 -17765 -18621 0
-18629 17768 0
-18629 18621 0
18629 -17768 -18621 0
-18633 17771 0
-18633 18621 0
18633 -17771 -18621 0
-18637 17774 0
-18637 18621 0
18637 -17774 -18621 0
-18641 17777 0
-18641 18621 0
18641 -17777 -18621 0
-18645 17780 0
-18645 18621 0
18645 -17780 -18621 0
-18649 17783 0
-18649 18621 0
18649 -17783 -18621 0
-18175 17714 0
-18175 17736 0
18175 -17714 -17736 0
-18178 17717 0
-18178 17736 0
18178 -17717 -17736 0
-18181 17720 0
-18181 17736 0
18181 -17720 -17736 0
-18184 17723 0
-18184 17736 0
18184 -17723 -17736 0
-18187 17726 0
-18187 17736 0
18187 -17726 -17736 0
-18190 17729 0
-18190 17736 0
18190 -17729 -17736 0
-18193 17732 0
-18193 17736 0
18193 -17732 -17736 0
-18196 18276 0
-18196 17736 0
18196 -18276 -17736 0
-18654 17738 0
-18654 18027 0
18654 -17738 -18027 0
-18657 17741 0
-18657 18027 0
18657 -17741 -18027 0
-18660 17744 0
-18660 18027 0
18660 -17744 -18027 0
-18663 17747 0
-18663 18027 0
18663 -17747 -18027 0
-18666 17750 0
-18666 18027 0
18666 -17750 -18027 0
-18669 17753 0
-18669 18027 0
18669 -17753 -18027 0
-18672 17756 0
-18672 18027 0
18672 -17756 -18027 0
-18675 17759 0
-18675 18027 0
18675 -17759 -18027 0
-18627 18277 0
-18627 18614 0
18627 -18277 -18614 0
-18631 17765 0
-18631 18614 0
18631 -17765 -18614 0
-18635 17768 0
-18635 18614 0
18635 -17768 -18614 0
-18639 17771 0
-18639 18614 0
18639 -17771 -18614 0
-18643 17774 0
-18643 18614 0
18643 -17774 -18614 0
-18647 17777 0
-18647 18614 0
18647 -17777 -18614 0
-18651 17780 0
-18651 18614 0
18651 -17780 -18614 0
-18751 17783 0
-18751 18614 0
18751 -17783 -18614 0
-18653 18173 0
-18653 18000 0
18653 -18173 -18000 0
-18656 18176 0
-18656 18000 0
18656 -18176 -18000 0
-18659 18179 0
-18659 18000 0
18659 -18179 -18000 0
-18662 18182 0
-18662 18000 0
18662 -18182 -18000 0
-18665 18185 0
-18665 18000 0
18665 -18185 -18000 0
-18668 18188 0
-18668 18000 0
18668 -18188 -18000 0
-18671 18191 0
-18671 18000 0
18671 -18191 -18000 0
-18674 18194 0
-18674 18000 0
18674 -18194 -18000 0
-18746 17810 0
-18746 18620 0
18746 -17810 -18620 0
-18756 17813 0
-18756 18620 0
18756 -17813 -18620 0
-18762 17816 0
-18762 18620 0
18762 -17816 -18620 0
-18768 17819 0
-18768 18620 0
18768 -17819 -18620 0
-18780 17822 0
-18780 18620 0
18780 -17822 -18620 0
-18786 17825 0
-18786 18620 0
18786 -17825 -18620 0
-18774 17828 0
-18774 18620 0
18774 -17828 -18620 0
-18792 17831 0
-18792 18620 0
18792 -17831 -18620 0
-18199 17834 0
-18199 17904 0
18199 -17834 -17904 0
-18202 17837 0
-18202 17904 0
18202 -17837 -17904 0
-18205 17840 0
-18205 17904 0
18205 -17840 -17904 0
-18208 17843 0
-18208 17904 0
18208 -17843 -17904 0
-18211 17846 0
-18211 17904 0
18211 -17846 -17904 0
-18214 17849 0
-18214 17904 0
18214 -17849 -17904 0
-18217 17852 0
-18217 17904 0
18217 -17852 -17904 0
-18220 17855 0
-18220 17904 0
18220 -17855 -17904 0
-18198 18175 0
-18198 17859 0
18198 -18175 -17859 0
-18201 18178 0
-18201 17862 0
18201 -18178 -17862 0
-18204 18181 0
-18204 17865 0
18204 -18181 -17865 0
-18207 18184 0
-18207 17868 0
18207 -18184 -17868 0
-18210 18187 0
-18210 17871 0
18210 -18187 -17871 0
-18213 18190 0
-18213 17874 0
18213 -18190 -17874 0
-18216 18193 0
-18216 17877 0
18216 -18193 -17877 0
-18219 18196 0
-18219 17880 0
18219 -18196 -17880 0
-18711 18652 0
-18711 17904 0
18711 -18652 -17904 0
-18714 18655 0
-18714 17904 0
18714 -18655 -17904 0
-18717 18658 0
-18717 17904 0
18717 -18658 -17904 0
-18720 18661 0
-18720 17904 0
18720 -18661 -17904 0
-18723 18664 0
-18723 17904 0
18723 -18664 -17904 0
-18726 18667 0
-18726 17904 0
18726 -18667 -17904 0
-18729 18670 0
-18729 17904 0
18729 -18670 -17904 0
-18732 18673 0
-18732 17904 0
18732 -18673 -17904 0
-18222 18197 0
-18222 17907 0
18222 -18197 -17907 0
-17957 18197 0
-17957 18174 0
17957 -18197 -18174 0
-18225 18200 0
-18225 17913 0
18225 -18200 -17913 0
-18707 18200 0
-18707 18177 0
18707 -18200 -18177 0
-18228 18203 0
-18228 17919 0
18228 -18203 -17919 0
-17969 18203 0
-17969 18180 0
17969 -18203 -18180 0
-18231 18206 0
-18231 17925 0
18231 -18206 -17925 0
-18737 18206 0
-18737 18183 0
18737 -18206 -18183 0
-18234 18209 0
-18234 17931 0
18234 -18209 -17931 0
-18743 18209 0
-18743 18186 0
18743 -18209 -18186 0
-18237 18212 0
-18237 17937 0
18237 -18212 -17937 0
-17987 18212 0
-17987 18189 0
17987 -18212 -18189 0
-18240 18215 0
-18240 17943 0
18240 -18215 -17943 0
-17993 18215 0
-17993 18192 0
17993 -18215 -18192 0
-18243 18218 0
-18243 17949 0
18243 -18218 -17949 0
-17999 18218 0
-17999 18195 0
17999 -18218 -18195 0
-18223 17954 0
-18223 18174 0
18223 -17954 -18174 0
-18677 17957 0
-18677 18000 0
18677 -17957 -18000 0
-18226 17960 0
-18226 18177 0
18226 -17960 -18177 0
-18680 18707 0
-18680 18000 0
18680 -18707 -18000 0
-18229 17966 0
-18229 18180 0
18229 -17966 -18180 0
-18683 17969 0
-18683 18000 0
18683 -17969 -18000 0
-18232 17972 0
-18232 18183 0
18232 -17972 -18183 0
-18689 18737 0
-18689 18000 0
18689 -18737 -18000 0
-18235 17978 0
-18235 18186 0
18235 -17978 -18186 0
-18692 18743 0
-18692 18000 0
18692 -18743 -18000 0
-18238 17984 0
-18238 18189 0
18238 -17984 -18189 0
-18695 17987 0
-18695 18000 0
18695 -17987 -18000 0
-18241 17990 0
-18241 18192 0
18241 -17990 -18192 0
-18698 17993 0
-18698 18000 0
18698 -17993 -18000 0
-18244 17996 0
-18244 18195 0
18244 -17996 -18195 0
-18701 17999 0
-18701 18000 0
18701 -17999 -18000 0
-18246 18355 0
-18246 18003 0
18246 -18355 -18003 0
-18678 18355 0
-18678 18027 0
18678 -18355 -18027 0
-18681 18224 0
-18681 18027 0
18681 -18224 -18027 0
-18684 18394 0
-18684 18027 0
18684 -18394 -18027 0
-18690 18365 0
-18690 18027 0
18690 -18365 -18027 0
-18693 18372 0
-18693 18027 0
18693 -18372 -18027 0
-18696 18405 0
-18696 18027 0
18696 -18405 -18027 0
-18699 18239 0
-18699 18027 0
18699 -18239 -18027 0
-18702 18242 0
-18702 18027 0
18702 -18242 -18027 0
-18705 18370 0
-18705 18369 0
18705 -18370 -18369 0
-18247 18032 0
-18247 18356 0
18247 -18032 -18356 0
-18253 18035 0
-18253 18368 0
18253 -18035 -18368 0
-18710 18676 0
-18710 18060 0
18710 -18676 -18060 0
-18713 18679 0
-18713 18060 0
18713 -18679 -18060 0
-18716 18682 0
-18716 18060 0
18716 -18682 -18060 0
-18719 18688 0
-18719 18060 0
18719 -18688 -18060 0
-18722 18691 0
-18722 18060 0
18722 -18691 -18060 0
-18725 18694 0
-18725 18060 0
18725 -18694 -18060 0
-18728 18697 0
-18728 18060 0
18728 -18697 -18060 0
-18731 18700 0
-18731 18060 0
18731 -18700 -18060 0
-18252 18224 0
-18252 18063 0
18252 -18224 -18063 0
-18256 18065 0
-18256 18066 0
18256 -18065 -18066 0
-18255 18394 0
-18255 18069 0
18255 -18394 -18069 0
-18259 18071 0
-18259 18425 0
18259 -18071 -18425 0
-18741 18372 0
-18741 18738 0
18741 -18372 -18738 0
-18747 18428 0
-18747 18855 0
18747 -18428 -18855 0
-18749 18428 0
-18749 18621 0
18749 -18428 -18621 0
-18753 18436 0
-18753 18621 0
18753 -18436 -18621 0
-18757 18436 0
-18757 18855 0
18757 -18436 -18855 0
-18262 18089 0
-18262 18439 0
18262 -18089 -18439 0
-18258 18365 0
-18258 18093 0
18258 -18365 -18093 0
-18261 18239 0
-18261 18096 0
18261 -18239 -18096 0
-18268 18098 0
-18268 18099 0
18268 -18098 -18099 0
-18271 18101 0
-18271 18102 0
18271 -18101 -18102 0
-18267 18372 0
-18267 18105 0
18267 -18372 -18105 0
-18759 18454 0
-18759 18621 0
18759 -18454 -18621 0
-18763 18454 0
-18763 18855 0
18763 -18454 -18855 0
-18270 18405 0
-18270 18114 0
18270 -18405 -18114 0
-18765 18463 0
-18765 18621 0
18765 -18463 -18621 0
-18769 18463 0
-18769 18855 0
18769 -18463 -18855 0
-18274 18122 0
-18274 18466 0
18274 -18122 -18466 0
-18771 18469 0
-18771 18621 0
18771 -18469 -18621 0
-18775 18469 0
-18775 18855 0
18775 -18469 -18855 0
-18273 18242 0
-18273 18132 0
18273 -18242 -18132 0
-18777 18481 0
-18777 18621 0
18777 -18481 -18621 0
-18781 18481 0
-18781 18855 0
18781 -18481 -18855 0
-18783 18487 0
-18783 18621 0
18783 -18487 -18621 0
-18787 18487 0
-18787 18855 0
18787 -18487 -18855 0
-18789 18496 0
-18789 18621 0
18789 -18496 -18621 0
-18793 18496 0
-18793 18855 0
18793 -18496 -18855 0
18303 -18276 0
18303 -18277 0
-18303 18276 18277 0
18307 -18294 0
18307 -18332 0
-18307 18294 18332 0
18343 -18312 0
18343 -18548 0
-18343 18312 18548 0
18314 -18301 0
18314 -18162 0
-18314 18301 18162 0
18323 -18531 0
18323 -18284 0
-18323 18531 18284 0
18326 -18581 0
18326 -18586 0
-18326 18581 18586 0
18342 -18334 0
18342 -18339 0
18342 -18298 0
-18342 18334 18339 18298 0
18173 -18174 0
18173 -18175 0
-18173 18174 18175 0
18176 -18177 0
18176 -18178 0
-18176 18177 18178 0
18179 -18180 0
18179 -18181 0
-18179 18180 18181 0
18182 -18183 0
18182 -18184 0
-18182 18183 18184 0
18185 -18186 0
18185 -18187 0
-18185 18186 18187 0
18188 -18189 0
18188 -18190 0
-18188 18189 18190 0
18191 -18192 0
18191 -18193 0
-18191 18192 18193 0
18194 -18195 0
18194 -18196 0
-18194 18195 18196 0
18197 -18198 0
18197 -18199 0
-18197 18198 18199 0
18200 -18201 0
18200 -18202 0
-18200 18201 18202 0
18203 -18204 0
18203 -18205 0
-18203 18204 18205 0
18206 -18207 0
18206 -18208 0
-18206 18207 18208 0
18209 -18210 0
18209 -18211 0
-18209 18210 18211 0
18212 -18213 0
18212 -18214 0
-18212 18213 18214 0
18215 -18216 0
18215 -18217 0
-18215 18216 18217 0
18218 -18219 0
18218 -18220 0
-18218 18219 18220 0
18355 -18222 0
18355 -18223 0
-18355 18222 18223 0
18224 -18225 0
18224 -18226 0
-18224 18225 18226 0
18394 -18228 0
18394 -18229 0
-18394 18228 18229 0
18365 -18231 0
18365 -18232 0
-18365 18231 18232 0
18372 -18234 0
18372 -18235 0
-18372 18234 18235 0
18405 -18237 0
18405 -18238 0
-18405 18237 18238 0
18239 -18240 0
18239 -18241 0
-18239 18240 18241 0
18242 -18243 0
18242 -18244 0
-18242 18243 18244 0
18384 -18246 0
18384 -18247 0
-18384 18246 18247 0
18393 -18707 0
18393 -18708 0
-18393 18707 18708 0
18423 -18252 0
18423 -18253 0
-18423 18252 18253 0
18449 -18255 0
18449 -18256 0
-18449 18255 18256 0
18458 -18258 0
18458 -18259 0
-18458 18258 18259 0
18461 -18261 0
18461 -18262 0
-18461 18261 18262 0
18467 -18264 0
18467 -18265 0
-18467 18264 18265 0
18473 -18267 0
18473 -18268 0
-18473 18267 18268 0
18479 -18270 0
18479 -18271 0
-18479 18270 18271 0
18491 -18273 0
18491 -18274 0
-18491 18273 18274 0
18305 18276 0
18305 18277 0
-18305 -18276 -18277 0
18278 18539 0
18278 18280 0
-18278 -18539 -18280 0
18532 18539 0
18532 18585 0
-18532 -18539 -18585 0
18284 18528 0
18284 18585 0
-18284 -18528 -18585 0
18583 18288 0
18583 18312 0
-18583 -18288 -18312 0
18586 18528 0
18586 18531 0
-18586 -18528 -18531 0
18308 18294 0
18308 18332 0
-18308 -18294 -18332 0
18867 18538 0
18867 18298 0
-18867 -18538 -18298 0
18350 18532 0
18350 18301 0
-18350 -18532 -18301 0
18353 18303 0
18353 18530 0
18353 18305 0
-18353 -18303 -18530 -18305 0
18845 18307 0
18845 18308 0
-18845 -18307 -18308 0
18857 18531 0
18857 18537 0
18857 18312 0
-18857 -18531 -18537 -18312 0
18351 18314 0
18351 18531 0
-18351 -18314 -18531 0
18340 18582 0
18340 18584 0
-18340 -18582 -18584 0
18338 18583 0
18338 18584 0
-18338 -18583 -18584 0
18843 18323 0
18843 18324 0
-18843 -18323 -18324 0
18325 18326 0
18325 18332 0
-18325 -18326 -18332 0
18861 18329 0
18861 18531 0
18861 18528 0
18861 18332 0
-18861 -18329 -18531 -18528 -18332 0
18851 18334 0
18851 18340 0
18851 18338 0
-18851 -18334 -18340 -18338 0
18859 18338 0
18859 18339 0
18859 18340 0
-18859 -18338 -18339 -18340 0
18865 18342 0
18865 18343 0
-18865 -18342 -18343 0
18849 18350 0
18849 18352 0
18849 18351 0
18849 18353 0
-18849 -18350 -18352 -18351 -18353 0
18349 18350 0
18349 18351 0
18349 18352 0
18349 18353 0
-18349 -18350 -18351 -18352 -18353 0
18369 18355 0
18369 18356 0
-18369 -18355 -18356 0
18357 18737 0
18357 18372 0
-18357 -18737 -18372 0
18445 18743 0
18445 18405 0
-18445 -18743 -18405 0
18363 18405 0
18363 18365 0
18363 18372 0
18363 18394 0
-18363 -18405 -18365 -18372 -18394 0
18368 18369 0
18368 18370 0
-18368 -18369 -18370 0
18371 18372 0
18371 18739 0
-18371 -18372 -18739 0
18435 18405 0
18435 18744 0
-18435 -18405 -18744 0
18434 18707 0
18434 18382 0
-18434 -18707 -18382 0
18447 18708 0
18447 18382 0
-18447 -18708 -18382 0
18429 18384 0
18429 18492 0
-18429 -18384 -18492 0
18386 18445 0
18386 18434 0
-18386 -18445 -18434 0
18389 18435 0
18389 18447 0
-18389 -18435 -18447 0
18735 18393 0
18735 18394 0
-18735 -18393 -18394 0
18430 18709 0
18430 18421 0
-18430 -18709 -18421 0
18438 18712 0
18438 18421 0
-18438 -18712 -18421 0
18456 18715 0
18456 18421 0
-18456 -18715 -18421 0
18441 18405 0
18441 18742 0
-18441 -18405 -18742 0
18465 18718 0
18465 18421 0
-18465 -18718 -18421 0
18483 18721 0
18483 18421 0
-18483 -18721 -18421 0
18489 18724 0
18489 18421 0
-18489 -18724 -18421 0
18471 18727 0
18471 18421 0
-18471 -18727 -18421 0
18498 18730 0
18498 18421 0
-18498 -18730 -18421 0
18437 18423 0
18437 18492 0
-18437 -18423 -18492 0
18425 18686 0
18425 18735 0
-18425 -18686 -18735 0
18428 18429 0
18428 18430 0
-18428 -18429 -18430 0
18431 18440 0
18431 18441 0
18431 18434 0
18431 18435 0
-18431 -18440 -18441 -18434 -18435 0
18436 18437 0
18436 18438 0
-18436 -18437 -18438 0
18439 18440 0
18439 18441 0
18439 18442 0
18439 18443 0
-18439 -18440 -18441 -18442 -18443 0
18444 18445 0
18444 18446 0
18444 18447 0
-18444 -18445 -18446 -18447 0
18455 18449 0
18455 18492 0
-18455 -18449 -18492 0
18795 18752 0
18795 18745 0
-18795 -18752 -18745 0
18454 18455 0
18454 18456 0
-18454 -18455 -18456 0
18464 18458 0
18464 18492 0
-18464 -18458 -18492 0
18470 18461 0
18470 18492 0
-18470 -18461 -18492 0
18463 18464 0
18463 18465 0
-18463 -18464 -18465 0
18466 18467 0
18466 18468 0
-18466 -18467 -18468 0
18469 18470 0
18469 18471 0
-18469 -18470 -18471 0
18482 18473 0
18482 18492 0
-18482 -18473 -18492 0
18797 18758 0
18797 18755 0
-18797 -18758 -18755 0
18488 18479 0
18488 18492 0
-18488 -18479 -18492 0
18481 18482 0
18481 18483 0
-18481 -18482 -18483 0
18799 18764 0
18799 18761 0
-18799 -18764 -18761 0
18487 18488 0
18487 18489 0
-18487 -18488 -18489 0
18497 18491 0
18497 18492 0
-18497 -18491 -18492 0
18801 18776 0
18801 18767 0
-18801 -18776 -18767 0
18496 18497 0
18496 18498 0
-18496 -18497 -18498 0
18803 18782 0
18803 18779 0
-18803 -18782 -18779 0
18805 18770 0
18805 18785 0
-18805 -18770 -18785 0
18807 18788 0
18807 18773 0
-18807 -18788 -18773 0
18809 18617 0
18809 18791 0
-18809 -18617 -18791 0
-18511 -18512 0
-18511 -18513 0
-18511 -18514 0
18511 18512 18513 18514 0
-18515 -18516 0
-18515 -18517 0
-18515 -18518 0
18515 18516 18517 18518 0
-18519 -18520 0
-18519 -18521 0
-18519 -18522 0
18519 18520 18521 18522 0
-18523 -18524 0
-18523 -18525 0
-18523 -18526 0
18523 18524 18525 18526 0
-18527 -18528 0
-18527 -18529 0
18527 18528 18529 0
-18530 -18531 0
-18530 -18532 0
18530 18531 18532 0
-18533 -18534 0
-18533 -18535 0
-18533 -18536 0
18533 18534 18535 18536 0
-18537 -18538 0
-18537 -18539 0
-18537 -18582 0
-18537 -18585 0
18537 18538 18539 18582 18585 0
-18542 -18543 0
-18542 -18544 0
-18542 -18545 0
18542 18543 18544 18545 0
-18546 -18582 0
-18546 -18548 0
18546 18582 18548 0
-18549 -18550 0
-18549 -18551 0
-18549 -18552 0
18549 18550 18551 18552 0
-18553 -18554 0
-18553 -18555 0
-18553 -18556 0
18553 18554 18555 18556 0
-18557 -18558 0
-18557 -18559 0
18557 18558 18559 0
-18560 -18561 0
-18560 -18562 0
18560 18561 18562 0
-18563 -18564 0
-18563 -18565 0
18563 18564 18565 0
-18566 -18567 0
-18566 -18568 0
18566 18567 18568 0
-18569 -18570 0
-18569 -18571 0
18569 18570 18571 0
-18572 -18573 0
-18572 -18574 0
18572 18573 18574 0
-18575 -18576 0
-18575 -18577 0
18575 18576 18577 0
-18578 -18579 0
-18578 -18580 0
18578 18579 18580 0
-18581 -18582 0
-18581 -18583 0
18581 18582 18583 0
-18584 -18585 0
-18584 -18586 0
18584 18585 18586 0
-18587 -18588 0
-18587 -18589 0
18587 18588 18589 0
-18590 -18591 0
-18590 -18592 0
18590 18591 18592 0
-18593 -18594 0
-18593 -18595 0
18593 18594 18595 0
-18596 -18597 0
-18596 -18598 0
18596 18597 18598 0
-18853 -18622 0
-18853 -18601 0
18853 18622 18601 0
-18602 -18603 0
-18602 -18604 0
18602 18603 18604 0
-18605 -18606 0
-18605 -18607 0
18605 18606 18607 0
-18608 -18609 0
-18608 -18610 0
18608 18609 18610 0
-18611 -18612 0
-18611 -18613 0
18611 18612 18613 0
-18614 -18615 0
-18614 -18621 0
18614 18615 18621 0
-18617 -18618 0
-18617 -18619 0
18617 18618 18619 0
-18620 -18621 0
-18620 -18622 0
-18620 -18855 0
18620 18621 18622 18855 0
-18624 -18625 0
-18624 -18626 0
-18624 -18627 0
18624 18625 18626 18627 0
-18628 -18629 0
-18628 -18630 0
-18628 -18631 0
18628 18629 18630 18631 0
-18632 -18633 0
-18632 -18634 0
-18632 -18635 0
18632 18633 18634 18635 0
-18636 -18637 0
-18636 -18638 0
-18636 -18639 0
18636 18637 18638 18639 0
-18640 -18641 0
-18640 -18642 0
-18640 -18643 0
18640 18641 18642 18643 0
-18644 -18645 0
-18644 -18646 0
-18644 -18647 0
18644 18645 18646 18647 0
-18648 -18649 0
-18648 -18650 0
-18648 -18651 0
18648 18649 18650 18651 0
-18652 -18653 0
-18652 -18654 0
18652 18653 18654 0
-18655 -18656 0
-18655 -18657 0
18655 18656 18657 0
-18658 -18659 0
-18658 -18660 0
18658 18659 18660 0
-18661 -18662 0
-18661 -18663 0
18661 18662 18663 0
-18664 -18665 0
-18664 -18666 0
18664 18665 18666 0
-18667 -18668 0
-18667 -18669 0
18667 18668 18669 0
-18670 -18671 0
-18670 -18672 0
18670 18671 18672 0
-18673 -18674 0
-18673 -18675 0
18673 18674 18675 0
-18676 -18677 0
-18676 -18678 0
18676 18677 18678 0
-18679 -18680 0
-18679 -18681 0
18679 18680 18681 0
-18682 -18683 0
-18682 -18684 0
18682 18683 18684 0
-18739 -18686 0
-18739 -18734 0
18739 18686 18734 0
-18688 -18689 0
-18688 -18690 0
18688 18689 18690 0
-18691 -18692 0
-18691 -18693 0
18691 18692 18693 0
-18694 -18695 0
-18694 -18696 0
18694 18695 18696 0
-18697 -18698 0
-18697 -18699 0
18697 18698 18699 0
-18700 -18701 0
-18700 -18702 0
18700 18701 18702 0
-18708 -18704 0
-18708 -18705 0
18708 18704 18705 0
-18706 -18707 0
-18706 -18708 0
18706 18707 18708 0
-18709 -18710 0
-18709 -18711 0
18709 18710 18711 0
-18712 -18713 0
-18712 -18714 0
18712 18713 18714 0
-18715 -18716 0
-18715 -18717 0
18715 18716 18717 0
-18718 -18719 0
-18718 -18720 0
18718 18719 18720 0
-18721 -18722 0
-18721 -18723 0
18721 18722 18723 0
-18724 -18725 0
-18724 -18726 0
18724 18725 18726 0
-18727 -18728 0
-18727 -18729 0
18727 18728 18729 0
-18730 -18731 0
-18730 -18732 0
18730 18731 18732 0
-18738 -18734 0
-18738 -18735 0
18738 18734 18735 0
-18736 -18737 0
-18736 -18738 0
-18736 -18739 0
18736 18737 18738 18739 0
-18740 -18741 0
-18740 -18742 0
-18740 -18743 0
-18740 -18744 0
18740 18741 18742 18743 18744 0
-18745 -18746 0
-18745 -18747 0
18745 18746 18747 0
-18748 -18749 0
-18748 -18750 0
-18748 -18751 0
18748 18749 18750 18751 0
-18752 -18753 0
-18752 -18754 0
18752 18753 18754 0
-18755 -18756 0
-18755 -18757 0
18755 18756 18757 0
-18758 -18759 0
-18758 -18760 0
18758 18759 18760 0
-18761 -18762 0
-18761 -18763 0
18761 18762 18763 0
-18764 -18765 0
-18764 -18766 0
18764 18765 18766 0
-18767 -18768 0
-18767 -18769 0
18767 18768 18769 0
-18770 -18771 0
-18770 -18772 0
18770 18771 18772 0
-18773 -18774 0
-18773 -18775 0
18773 18774 18775 0
-18776 -18777 0
-18776 -18778 0
18776 18777 18778 0
-18779 -18780 0
-18779 -18781 0
18779 18780 18781 0
-18782 -18783 0
-18782 -18784 0
18782 18783 18784 0
-18785 -18786 0
-18785 -18787 0
18785 18786 18787 0
-18788 -18789 0
-18788 -18790 0
18788 18789 18790 0
-18791 -18792 0
-18791 -18793 0
18791 18792 18793 0
-18795 19480 0
18795 -19480 0
-18797 19483 0
18797 -19483 0
-18799 19486 0
18799 -19486 0
-18801 19489 0
18801 -19489 0
-18803 19492 0
18803 -19492 0
-18805 19495 0
18805 -19495 0
-18807 19498 0
18807 -19498 0
-18809 19501 0
18809 -19501 0
-18811 19947 0
18811 -19947 0
-18813 19435 0
18813 -19435 0
-18815 19438 0
18815 -19438 0
-18817 19441 0
18817 -19441 0
-18819 19444 0
18819 -19444 0
-18821 19447 0
18821 -19447 0
-18823 19450 0
18823 -19450 0
-18825 19453 0
18825 -19453 0
-18827 19384 0
18827 -19384 0
-18829 19387 0
18829 -19387 0
-18831 19390 0
18831 -19390 0
-18833 19393 0
18833 -19393 0
-18835 19396 0
18835 -19396 0
-18837 19399 0
18837 -19399 0
-18839 19402 0
18839 -19402 0
-18841 19946 0
18841 -19946 0
-18843 20209 0
18843 -20209 0
-18845 19964 0
18845 -19964 0
-18847 20255 0
18847 -20255 0
-18849 19950 0
18849 -19950 0
-18851 19968 0
18851 -19968 0
-18853 19118 0
18853 -19118 0
-18855 18854 0
18855 -18854 0
-18857 19136 0
18857 -19136 0
-18859 19190 0
18859 -19190 0
-18861 19283 0
18861 -19283 0
-18863 19163 0
18863 -19163 0
-18865 19130 0
18865 -19130 0
-18867 19154 0
18867 -19154 0
19333 19282 0
-19333 -19282 0
20009 19947 0
-20009 -19947 0
20258 19950 0
-20258 -19950 0
20198 20209 0
-20198 -20209 0
19307 19256 0
-19307 -19256 0
19982 18879 0
-19982 -18879 0
20201 19964 0
-20201 -19964 0
20002 20255 0
-20002 -20255 0
20208 19958 0
-20208 -19958 0
20218 19968 0
-20218 -19968 0
19971 19975 0
-19971 -19975 0
19832 19948 0
-19832 -19948 0
19994 20197 0
-19994 -20197 0
20004 20200 0
-20004 -20200 0
20533 20216 0
-20533 -20216 0
20497 20227 0
-20497 -20227 0
20499 20230 0
-20499 -20230 0
20501 20233 0
-20501 -20233 0
20503 20236 0
-20503 -20236 0
20505 20239 0
-20505 -20239 0
20507 20242 0
-20507 -20242 0
20509 20245 0
-20509 -20245 0
20511 20248 0
-20511 -20248 0
19999 20251 0
-19999 -20251 0
20022 20257 0
-20022 -20257 0
18925 20260 0
-18925 -20260 0
20517 19995 0
-20517 -19995 0
20091 18925 0
-20091 -18925 0
18931 18925 0
-18931 -18925 0
19358 20263 0
-19358 -20263 0
18935 20266 0
-18935 -20266 0
20162 18931 0
-20162 -18931 0
19670 18935 0
-19670 -18935 0
18977 18935 0
-18977 -18935 0
20291 20272 0
-20291 -20272 0
19406 20275 0
-19406 -20275 0
20026 20278 0
-20026 -20278 0
18985 20278 0
-18985 -20278 0
19577 19844 0
-19577 -19844 0
19408 19844 0
-19408 -19844 0
19583 19847 0
-19583 -19847 0
19411 19847 0
-19411 -19847 0
19589 19850 0
-19589 -19850 0
19414 19850 0
-19414 -19850 0
19595 19853 0
-19595 -19853 0
19417 19853 0
-19417 -19853 0
19601 19856 0
-19601 -19856 0
19420 19856 0
-19420 -19856 0
19607 19859 0
-19607 -19859 0
19423 19859 0
-19423 -19859 0
19613 19862 0
-19613 -19862 0
19426 19862 0
-19426 -19862 0
19619 19865 0
-19619 -19865 0
19429 19865 0
-19429 -19865 0
19697 18977 0
-19697 -18977 0
20525 20281 0
-20525 -20281 0
19673 20026 0
-19673 -20026 0
19730 18985 0
-19730 -18985 0
19003 18985 0
-19003 -18985 0
19504 19845 0
-19504 -19845 0
19507 19848 0
-19507 -19848 0
19510 19851 0
-19510 -19851 0
19513 19854 0
-19513 -19854 0
19516 19857 0
-19516 -19857 0
19519 19860 0
-19519 -19860 0
19522 19863 0
-19522 -19863 0
19525 19866 0
-19525 -19866 0
19574 19003 0
-19574 -19003 0
19529 19574 0
-19529 -19574 0
19532 19574 0
-19532 -19574 0
19535 19574 0
-19535 -19574 0
19538 19574 0
-19538 -19574 0
19541 19574 0
-19541 -19574 0
19544 19574 0
-19544 -19574 0
19547 19574 0
-19547 -19574 0
19550 19574 0
-19550 -19574 0
20481 20294 0
-20481 -20294 0
20483 20298 0
-20483 -20298 0
20485 20302 0
-20485 -20302 0
20487 20306 0
-20487 -20306 0
20489 20310 0
-20489 -20310 0
20491 20314 0
-20491 -20314 0
20493 20318 0
-20493 -20318 0
19624 19867 0
-19624 -19867 0
19630 19870 0
-19630 -19870 0
19636 19873 0
-19636 -19873 0
19642 19876 0
-19642 -19876 0
19648 19879 0
-19648 -19879 0
19654 19882 0
-19654 -19882 0
19660 19885 0
-19660 -19885 0
19666 19888 0
-19666 -19888 0
20040 19627 0
-20040 -19627 0
20356 19639 0
-20356 -19639 0
20110 19657 0
-20110 -19657 0
20138 19663 0
-20138 -19663 0
19702 20025 0
-19702 -20025 0
20374 19894 0
-20374 -19894 0
19705 19894 0
-19705 -19894 0
19735 20064 0
-19735 -20064 0
20404 20035 0
-20404 -20035 0
19741 20035 0
-19741 -20035 0
19768 20042 0
-19768 -20042 0
19771 20075 0
-19771 -20075 0
19934 19909 0
-19934 -19909 0
19759 19909 0
-19759 -19909 0
19792 19912 0
-19792 -19912 0
20414 20027 0
-20414 -20027 0
20052 20033 0
-20052 -20033 0
19733 20038 0
-19733 -20038 0
20412 20041 0
-20412 -20041 0
19736 20376 0
-19736 -20376 0
20112 20056 0
-20112 -20056 0
19739 19736 0
-19739 -19736 0
20113 20059 0
-20113 -20059 0
19763 20095 0
-19763 -20095 0
20116 20101 0
-20116 -20101 0
19766 20109 0
-19766 -20109 0
19769 20406 0
-19769 -20406 0
19772 20410 0
-19772 -20410 0
19775 19769 0
-19775 -19769 0
20495 20418 0
-20495 -20418 0
19935 20114 0
-19935 -20114 0
19784 19772 0
-19784 -19772 0
19802 20136 0
-19802 -20136 0
-20282 19282 0
-20282 19118 0
20282 -19282 -19118 0
-20220 19237 0
-20220 19453 0
20220 -19237 -19453 0
-20430 19261 0
-20430 20292 0
20430 -19261 -20292 0
-20194 19237 0
-20194 19947 0
20194 -19237 -19947 0
-20279 19282 0
-20279 19130 0
20279 -19282 -19130 0
-20213 19237 0
-20213 19444 0
20213 -19237 -19444 0
-20264 19282 0
-20264 19136 0
20264 -19282 -19136 0
-20183 19234 0
-20183 19402 0
20183 -19234 -19402 0
-20221 19234 0
-20221 19946 0
20221 -19234 -19946 0
-20186 19237 0
-20186 19441 0
20186 -19237 -19441 0
-20442 19273 0
-20442 20292 0
20442 -19273 -20292 0
-20205 19234 0
-20205 19399 0
20205 -19234 -19399 0
-20261 19282 0
-20261 19154 0
20261 -19282 -19154 0
-20184 19249 0
-20184 19498 0
20184 -19249 -19498 0
-20215 19249 0
-20215 19492 0
20215 -19249 -19492 0
-20267 19282 0
-20267 19163 0
20267 -19282 -19163 0
-20182 19237 0
-20182 19450 0
20182 -19237 -19450 0
-20454 19270 0
-20454 20292 0
20454 -19270 -20292 0
-20225 19234 0
-20225 19387 0
20225 -19234 -19387 0
-20188 19249 0
-20188 19489 0
20188 -19249 -19489 0
-20436 19264 0
-20436 20292 0
20436 -19264 -20292 0
-20187 19234 0
-20187 19393 0
20187 -19234 -19393 0
-20206 19249 0
-20206 19495 0
20206 -19249 -19495 0
-20192 19249 0
-20192 19486 0
20192 -19249 -19486 0
-20276 19282 0
-20276 19190 0
20276 -19282 -19190 0
-20460 19276 0
-20460 20292 0
20460 -19276 -20292 0
-20196 19249 0
-20196 19480 0
20196 -19249 -19480 0
-20191 19234 0
-20191 19390 0
20191 -19234 -19390 0
-20232 19261 0
-20232 19256 0
20232 -19261 -19256 0
-20235 19264 0
-20235 19256 0
20235 -19264 -19256 0
-20241 19270 0
-20241 19256 0
20241 -19270 -19256 0
-20244 19273 0
-20244 19256 0
20244 -19273 -19256 0
-20247 19276 0
-20247 19256 0
20247 -19276 -19256 0
-20190 19237 0
-20190 19438 0
20190 -19237 -19438 0
-20195 19234 0
-20195 19384 0
20195 -19234 -19384 0
-20199 19964 0
-20199 20255 0
20199 -19964 -20255 0
-20289 19279 0
-20289 20292 0
20289 -19279 -20292 0
-20250 19279 0
-20250 19256 0
20250 -19279 -19256 0
-20204 19237 0
-20204 19447 0
20204 -19237 -19447 0
-20214 19234 0
-20214 19396 0
20214 -19234 -19396 0
-20224 19237 0
-20224 19435 0
20224 -19237 -19435 0
-20424 19258 0
-20424 20292 0
20424 -19258 -20292 0
-20229 19258 0
-20229 19256 0
20229 -19258 -19256 0
-20222 19249 0
-20222 19501 0
20222 -19249 -19501 0
-20226 19249 0
-20226 19483 0
20226 -19249 -19483 0
-20448 19267 0
-20448 20292 0
20448 -19267 -20292 0
-20238 19267 0
-20238 19256 0
20238 -19267 -19256 0
-20296 19258 0
-20296 20285 0
20296 -19258 -20285 0
-20300 19261 0
-20300 20285 0
20300 -19261 -20285 0
-20304 19264 0
-20304 20285 0
20304 -19264 -20285 0
-20308 19267 0
-20308 20285 0
20308 -19267 -20285 0
-20312 19270 0
-20312 20285 0
20312 -19270 -20285 0
-20316 19273 0
-20316 20285 0
20316 -19273 -20285 0
-20320 19276 0
-20320 20285 0
20320 -19276 -20285 0
-20420 19279 0
-20420 20285 0
20420 -19279 -20285 0
-20273 19282 0
-20273 19283 0
20273 -19282 -19283 0
-20228 19384 0
-20228 19307 0
20228 -19384 -19307 0
-20231 19387 0
-20231 19307 0
20231 -19387 -19307 0
-20234 19390 0
-20234 19307 0
20234 -19390 -19307 0
-20237 19393 0
-20237 19307 0
20237 -19393 -19307 0
-20240 19396 0
-20240 19307 0
20240 -19396 -19307 0
-20243 19399 0
-20243 19307 0
20243 -19399 -19307 0
-20246 19402 0
-20246 19307 0
20246 -19402 -19307 0
-20249 19946 0
-20249 19307 0
20249 -19946 -19307 0
-20259 19954 0
-20259 19978 0
20259 -19954 -19978 0
-20262 19333 0
-20262 20537 0
20262 -19333 -20537 0
-20265 19333 0
-20265 20527 0
20265 -19333 -20527 0
-20268 19333 0
-20268 20533 0
20268 -19333 -20533 0
-20271 20010 0
-20271 20008 0
20271 -20010 -20008 0
-20274 19333 0
-20274 20531 0
20274 -19333 -20531 0
-20277 19333 0
-20277 20529 0
20277 -19333 -20529 0
-20280 19333 0
-20280 20535 0
20280 -19333 -20535 0
-20283 19333 0
-20283 20523 0
20283 -19333 -20523 0
-19844 19480 0
-19844 19358 0
19844 -19480 -19358 0
-19847 19483 0
-19847 19358 0
19847 -19483 -19358 0
-19850 19486 0
-19850 19358 0
19850 -19486 -19358 0
-19853 19489 0
-19853 19358 0
19853 -19489 -19358 0
-19856 19492 0
-19856 19358 0
19856 -19492 -19358 0
-19859 19495 0
-19859 19358 0
19859 -19495 -19358 0
-19862 19498 0
-19862 19358 0
19862 -19498 -19358 0
-19865 19501 0
-19865 19358 0
19865 -19501 -19358 0
-20288 20019 0
-20288 20291 0
20288 -20019 -20291 0
-20295 19435 0
-20295 20291 0
20295 -19435 -20291 0
-20299 19438 0
-20299 20291 0
20299 -19438 -20291 0
-20303 19441 0
-20303 20291 0
20303 -19441 -20291 0
-20307 19444 0
-20307 20291 0
20307 -19444 -20291 0
-20311 19447 0
-20311 20291 0
20311 -19447 -20291 0
-20315 19450 0
-20315 20291 0
20315 -19450 -20291 0
-20319 19453 0
-20319 20291 0
20319 -19453 -20291 0
-19845 19384 0
-19845 19406 0
19845 -19384 -19406 0
-19848 19387 0
-19848 19406 0
19848 -19387 -19406 0
-19851 19390 0
-19851 19406 0
19851 -19390 -19406 0
-19854 19393 0
-19854 19406 0
19854 -19393 -19406 0
-19857 19396 0
-19857 19406 0
19857 -19396 -19406 0
-19860 19399 0
-19860 19406 0
19860 -19399 -19406 0
-19863 19402 0
-19863 19406 0
19863 -19402 -19406 0
-19866 19946 0
-19866 19406 0
19866 -19946 -19406 0
-20324 19408 0
-20324 19697 0
20324 -19408 -19697 0
-20327 19411 0
-20327 19697 0
20327 -19411 -19697 0
-20330 19414 0
-20330 19697 0
20330 -19414 -19697 0
-20333 19417 0
-20333 19697 0
20333 -19417 -19697 0
-20336 19420 0
-20336 19697 0
20336 -19420 -19697 0
-20339 19423 0
-20339 19697 0
20339 -19423 -19697 0
-20342 19426 0
-20342 19697 0
20342 -19426 -19697 0
-20345 19429 0
-20345 19697 0
20345 -19429 -19697 0
-20297 19947 0
-20297 20284 0
20297 -19947 -20284 0
-20301 19435 0
-20301 20284 0
20301 -19435 -20284 0
-20305 19438 0
-20305 20284 0
20305 -19438 -20284 0
-20309 19441 0
-20309 20284 0
20309 -19441 -20284 0
-20313 19444 0
-20313 20284 0
20313 -19444 -20284 0
-20317 19447 0
-20317 20284 0
20317 -19447 -20284 0
-20321 19450 0
-20321 20284 0
20321 -19450 -20284 0
-20421 19453 0
-20421 20284 0
20421 -19453 -20284 0
-20323 19843 0
-20323 19670 0
20323 -19843 -19670 0
-20326 19846 0
-20326 19670 0
20326 -19846 -19670 0
-20329 19849 0
-20329 19670 0
20329 -19849 -19670 0
-20332 19852 0
-20332 19670 0
20332 -19852 -19670 0
-20335 19855 0
-20335 19670 0
20335 -19855 -19670 0
-20338 19858 0
-20338 19670 0
20338 -19858 -19670 0
-20341 19861 0
-20341 19670 0
20341 -19861 -19670 0
-20344 19864 0
-20344 19670 0
20344 -19864 -19670 0
-20416 19480 0
-20416 20290 0
20416 -19480 -20290 0
-20426 19483 0
-20426 20290 0
20426 -19483 -20290 0
-20432 19486 0
-20432 20290 0
20432 -19486 -20290 0
-20438 19489 0
-20438 20290 0
20438 -19489 -20290 0
-20450 19492 0
-20450 20290 0
20450 -19492 -20290 0
-20456 19495 0
-20456 20290 0
20456 -19495 -20290 0
-20444 19498 0
-20444 20290 0
20444 -19498 -20290 0
-20462 19501 0
-20462 20290 0
20462 -19501 -20290 0
-19869 19504 0
-19869 19574 0
19869 -19504 -19574 0
-19872 19507 0
-19872 19574 0
19872 -19507 -19574 0
-19875 19510 0
-19875 19574 0
19875 -19510 -19574 0
-19878 19513 0
-19878 19574 0
19878 -19513 -19574 0
-19881 19516 0
-19881 19574 0
19881 -19516 -19574 0
-19884 19519 0
-19884 19574 0
19884 -19519 -19574 0
-19887 19522 0
-19887 19574 0
19887 -19522 -19574 0
-19890 19525 0
-19890 19574 0
19890 -19525 -19574 0
-19868 19845 0
-19868 19529 0
19868 -19845 -19529 0
-19871 19848 0
-19871 19532 0
19871 -19848 -19532 0
-19874 19851 0
-19874 19535 0
19874 -19851 -19535 0
-19877 19854 0
-19877 19538 0
19877 -19854 -19538 0
-19880 19857 0
-19880 19541 0
19880 -19857 -19541 0
-19883 19860 0
-19883 19544 0
19883 -19860 -19544 0
-19886 19863 0
-19886 19547 0
19886 -19863 -19547 0
-19889 19866 0
-19889 19550 0
19889 -19866 -19550 0
-20381 20322 0
-20381 19574 0
20381 -20322 -19574 0
-20384 20325 0
-20384 19574 0
20384 -20325 -19574 0
-20387 20328 0
-20387 19574 0
20387 -20328 -19574 0
-20390 20331 0
-20390 19574 0
20390 -20331 -19574 0
-20393 20334 0
-20393 19574 0
20393 -20334 -19574 0
-20396 20337 0
-20396 19574 0
20396 -20337 -19574 0
-20399 20340 0
-20399 19574 0
20399 -20340 -19574 0
-20402 20343 0
-20402 19574 0
20402 -20343 -19574 0
-19892 19867 0
-19892 19577 0
19892 -19867 -19577 0
-19627 19867 0
-19627 19844 0
19627 -19867 -19844 0
-19895 19870 0
-19895 19583 0
19895 -19870 -19583 0
-20377 19870 0
-20377 19847 0
20377 -19870 -19847 0
-19898 19873 0
-19898 19589 0
19898 -19873 -19589 0
-19639 19873 0
-19639 19850 0
19639 -19873 -19850 0
-19901 19876 0
-19901 19595 0
19901 -19876 -19595 0
-20407 19876 0
-20407 19853 0
20407 -19876 -19853 0
-19904 19879 0
-19904 19601 0
19904 -19879 -19601 0
-20413 19879 0
-20413 19856 0
20413 -19879 -19856 0
-19907 19882 0
-19907 19607 0
19907 -19882 -19607 0
-19657 19882 0
-19657 19859 0
19657 -19882 -19859 0
-19910 19885 0
-19910 19613 0
19910 -19885 -19613 0
-19663 19885 0
-19663 19862 0
19663 -19885 -19862 0
-19913 19888 0
-19913 19619 0
19913 -19888 -19619 0
-19669 19888 0
-19669 19865 0
19669 -19888 -19865 0
-19893 19624 0
-19893 19844 0
19893 -19624 -19844 0
-20347 19627 0
-20347 19670 0
20347 -19627 -19670 0
-19896 19630 0
-19896 19847 0
19896 -19630 -19847 0
-20350 20377 0
-20350 19670 0
20350 -20377 -19670 0
-19899 19636 0
-19899 19850 0
19899 -19636 -19850 0
-20353 19639 0
-20353 19670 0
20353 -19639 -19670 0
-19902 19642 0
-19902 19853 0
19902 -19642 -19853 0
-20359 20407 0
-20359 19670 0
20359 -20407 -19670 0
-19905 19648 0
-19905 19856 0
19905 -19648 -19856 0
-20362 20413 0
-20362 19670 0
20362 -20413 -19670 0
-19908 19654 0
-19908 19859 0
19908 -19654 -19859 0
-20365 19657 0
-20365 19670 0
20365 -19657 -19670 0
-19911 19660 0
-19911 19862 0
19911 -19660 -19862 0
-20368 19663 0
-20368 19670 0
20368 -19663 -19670 0
-19914 19666 0
-19914 19865 0
19914 -19666 -19865 0
-20371 19669 0
-20371 19670 0
20371 -19669 -19670 0
-19916 20025 0
-19916 19673 0
19916 -20025 -19673 0
-20348 20025 0
-20348 19697 0
20348 -20025 -19697 0
-20351 19894 0
-20351 19697 0
20351 -19894 -19697 0
-20354 20064 0
-20354 19697 0
20354 -20064 -19697 0
-20360 20035 0
-20360 19697 0
20360 -20035 -19697 0
-20363 20042 0
-20363 19697 0
20363 -20042 -19697 0
-20366 20075 0
-20366 19697 0
20366 -20075 -19697 0
-20369 19909 0
-20369 19697 0
20369 -19909 -19697 0
-20372 19912 0
-20372 19697 0
20372 -19912 -19697 0
-20375 20040 0
-20375 20039 0
20375 -20040 -20039 0
-19917 19702 0
-19917 20026 0
19917 -19702 -20026 0
-19923 19705 0
-19923 20038 0
19923 -19705 -20038 0
-20380 20346 0
-20380 19730 0
20380 -20346 -19730 0
-20383 20349 0
-20383 19730 0
20383 -20349 -19730 0
-20386 20352 0
-20386 19730 0
20386 -20352 -19730 0
-20389 20358 0
-20389 19730 0
20389 -20358 -19730 0
-20392 20361 0
-20392 19730 0
20392 -20361 -19730 0
-20395 20364 0
-20395 19730 0
20395 -20364 -19730 0
-20398 20367 0
-20398 19730 0
20398 -20367 -19730 0
-20401 20370 0
-20401 19730 0
20401 -20370 -19730 0
-19922 19894 0
-19922 19733 0
19922 -19894 -19733 0
-19926 19735 0
-19926 19736 0
19926 -19735 -19736 0
-19925 20064 0
-19925 19739 0
19925 -20064 -19739 0
-19929 19741 0
-19929 20095 0
19929 -19741 -20095 0
-20411 20042 0
-20411 20408 0
20411 -20042 -20408 0
-20417 20098 0
-20417 20525 0
20417 -20098 -20525 0
-20419 20098 0
-20419 20291 0
20419 -20098 -20291 0
-20423 20106 0
-20423 20291 0
20423 -20106 -20291 0
-20427 20106 0
-20427 20525 0
20427 -20106 -20525 0
-19932 19759 0
-19932 20109 0
19932 -19759 -20109 0
-19928 20035 0
-19928 19763 0
19928 -20035 -19763 0
-19931 19909 0
-19931 19766 0
19931 -19909 -19766 0
-19938 19768 0
-19938 19769 0
19938 -19768 -19769 0
-19941 19771 0
-19941 19772 0
19941 -19771 -19772 0
-19937 20042 0
-19937 19775 0
19937 -20042 -19775 0
-20429 20124 0
-20429 20291 0
20429 -20124 -20291 0
-20433 20124 0
-20433 20525 0
20433 -20124 -20525 0
-19940 20075 0
-19940 19784 0
19940 -20075 -19784 0
-20435 20133 0
-20435 20291 0
20435 -20133 -20291 0
-20439 20133 0
-20439 20525 0
20439 -20133 -20525 0
-19944 19792 0
-19944 20136 0
19944 -19792 -20136 0
-20441 20139 0
-20441 20291 0
20441 -20139 -20291 0
-20445 20139 0
-20445 20525 0
20445 -20139 -20525 0
-19943 19912 0
-19943 19802 0
19943 -19912 -19802 0
-20447 20151 0
-20447 20291 0
20447 -20151 -20291 0
-20451 20151 0
-20451 20525 0
20451 -20151 -20525 0
-20453 20157 0
-20453 20291 0
20453 -20157 -20291 0
-20457 20157 0
-20457 20525 0
20457 -20157 -20525 0
-20459 20166 0
-20459 20291 0
20459 -20166 -20291 0
-20463 20166 0
-20463 20525 0
20463 -20166 -20525 0
19973 -19946 0
19973 -19947 0
-19973 19946 19947 0
19977 -19964 0
19977 -20002 0
-19977 19964 20002 0
20013 -19982 0
20013 -20218 0
-20013 19982 20218 0
19984 -19971 0
19984 -19832 0
-19984 19971 19832 0
19993 -20201 0
19993 -19954 0
-19993 20201 19954 0
19996 -20251 0
19996 -20256 0
-19996 20251 20256 0
20012 -20004 0
20012 -20009 0
20012 -19968 0
-20012 20004 20009 19968 0
19843 -19844 0
19843 -19845 0
-19843 19844 19845 0
19846 -19847 0
19846 -19848 0
-19846 19847 19848 0
19849 -19850 0
19849 -19851 0
-19849 19850 19851 0
19852 -19853 0
19852 -19854 0
-19852 19853 19854 0
19855 -19856 0
19855 -19857 0
-19855 19856 19857 0
19858 -19859 0
19858 -19860 0
-19858 19859 19860 0
19861 -19862 0
19861 -19863 0
-19861 19862 19863 0
19864 -19865 0
19864 -19866 0
-19864 19865 19866 0
19867 -19868 0
19867 -19869 0
-19867 19868 19869 0
19870 -19871 0
19870 -19872 0
-19870 19871 19872 0
19873 -19874 0
19873 -19875 0
-19873 19874 19875 0
19876 -19877 0
19876 -19878 0
-19876 19877 19878 0
19879 -19880 0
19879 -19881 0
-19879 19880 19881 0
19882 -19883 0
19882 -19884 0
-19882 19883 19884 0
19885 -19886 0
19885 -19887 0
-19885 19886 19887 0
19888 -19889 0
19888 -19890 0
-19888 19889 19890 0
20025 -19892 0
20025 -19893 0
-20025 19892 19893 0
19894 -19895 0
19894 -19896 0
-19894 19895 19896 0
20064 -19898 0
20064 -19899 0
-20064 19898 19899 0
20035 -19901 0
20035 -19902 0
-20035 19901 19902 0
20042 -19904 0
20042 -19905 0
-20042 19904 19905 0
20075 -19907 0
20075 -19908 0
-20075 19907 19908 0
19909 -19910 0
19909 -19911 0
-19909 19910 19911 0
19912 -19913 0
19912 -19914 0
-19912 19913 19914 0
20054 -19916 0
20054 -19917 0
-20054 19916 19917 0
20063 -20377 0
20063 -20378 0
-20063 20377 20378 0
20093 -19922 0
20093 -19923 0
-20093 19922 19923 0
20119 -19925 0
20119 -19926 0
-20119 19925 19926 0
20128 -19928 0
20128 -19929 0
-20128 19928 19929 0
20131 -19931 0
20131 -19932 0
-20131 19931 19932 0
20137 -19934 0
20137 -19935 0
-20137 19934 19935 0
20143 -19937 0
20143 -19938 0
-20143 19937 19938 0
20149 -19940 0
20149 -19941 0
-20149 19940 19941 0
20161 -19943 0
20161 -19944 0
-20161 19943 19944 0
19975 19946 0
19975 19947 0
-19975 -19946 -19947 0
19948 20209 0
19948 19950 0
-19948 -20209 -19950 0
20202 20209 0
20202 20255 0
-20202 -20209 -20255 0
19954 20198 0
19954 20255 0
-19954 -20198 -20255 0
20253 19958 0
20253 19982 0
-20253 -19958 -19982 0
20256 20198 0
20256 20201 0
-20256 -20198 -20201 0
19978 19964 0
19978 20002 0
-19978 -19964 -20002 0
20537 20208 0
20537 19968 0
-20537 -20208 -19968 0
20020 20202 0
20020 19971 0
-20020 -20202 -19971 0
20023 19973 0
20023 20200 0
20023 19975 0
-20023 -19973 -20200 -19975 0
20515 19977 0
20515 19978 0
-20515 -19977 -19978 0
20527 20201 0
20527 20207 0
20527 19982 0
-20527 -20201 -20207 -19982 0
20021 19984 0
20021 20201 0
-20021 -19984 -20201 0
20010 20252 0
20010 20254 0
-20010 -20252 -20254 0
20008 20253 0
20008 20254 0
-20008 -20253 -20254 0
20513 19993 0
20513 19994 0
-20513 -19993 -19994 0
19995 19996 0
19995 20002 0
-19995 -19996 -20002 0
20531 19999 0
20531 20201 0
20531 20198 0
20531 20002 0
-20531 -19999 -20201 -20198 -20002 0
20521 20004 0
20521 20010 0
20521 20008 0
-20521 -20004 -20010 -20008 0
20529 20008 0
20529 20009 0
20529 20010 0
-20529 -20008 -20009 -20010 0
20535 20012 0
20535 20013 0
-20535 -20012 -20013 0
20519 20020 0
20519 20022 0
20519 20021 0
20519 20023 0
-20519 -20020 -20022 -20021 -20023 0
20019 20020 0
20019 20021 0
20019 20022 0
20019 20023 0
-20019 -20020 -20021 -20022 -20023 0
20039 20025 0
20039 20026 0
-20039 -20025 -20026 0
20027 20407 0
20027 20042 0
-20027 -20407 -20042 0
20115 20413 0
20115 20075 0
-20115 -20413 -20075 0
20033 20075 0
20033 20035 0
20033 20042 0
20033 20064 0
-20033 -20075 -20035 -20042 -20064 0
20038 20039 0
20038 20040 0
-20038 -20039 -20040 0
20041 20042 0
20041 20409 0
-20041 -20042 -20409 0
20105 20075 0
20105 20414 0
-20105 -20075 -20414 0
20104 20377 0
20104 20052 0
-20104 -20377 -20052 0
20117 20378 0
20117 20052 0
-20117 -20378 -20052 0
20099 20054 0
20099 20162 0
-20099 -20054 -20162 0
20056 20115 0
20056 20104 0
-20056 -20115 -20104 0
20059 20105 0
20059 20117 0
-20059 -20105 -20117 0
20405 20063 0
20405 20064 0
-20405 -20063 -20064 0
20100 20379 0
20100 20091 0
-20100 -20379 -20091 0
20108 20382 0
20108 20091 0
-20108 -20382 -20091 0
20126 20385 0
20126 20091 0
-20126 -20385 -20091 0
20111 20075 0
20111 20412 0
-20111 -20075 -20412 0
20135 20388 0
20135 20091 0
-20135 -20388 -20091 0
20153 20391 0
20153 20091 0
-20153 -20391 -20091 0
20159 20394 0
20159 20091 0
-20159 -20394 -20091 0
20141 20397 0
20141 20091 0
-20141 -20397 -20091 0
20168 20400 0
20168 20091 0
-20168 -20400 -20091 0
20107 20093 0
20107 20162 0
-20107 -20093 -20162 0
20095 20356 0
20095 20405 0
-20095 -20356 -20405 0
20098 20099 0
20098 20100 0
-20098 -20099 -20100 0
20101 20110 0
20101 20111 0
20101 20104 0
20101 20105 0
-20101 -20110 -20111 -20104 -20105 0
20106 20107 0
20106 20108 0
-20106 -20107 -20108 0
20109 20110 0
20109 20111 0
20109 20112 0
20109 20113 0
-20109 -20110 -20111 -20112 -20113 0
20114 20115 0
20114 20116 0
20114 20117 0
-20114 -20115 -20116 -20117 0
20125 20119 0
20125 20162 0
-20125 -20119 -20162 0
20465 20422 0
20465 20415 0
-20465 -20422 -20415 0
20124 20125 0
20124 20126 0
-20124 -20125 -20126 0
20134 20128 0
20134 20162 0
-20134 -20128 -20162 0
20140 20131 0
20140 20162 0
-20140 -20131 -20162 0
20133 20134 0
20133 20135 0
-20133 -20134 -20135 0
20136 20137 0
20136 20138 0
-20136 -20137 -20138 0
20139 20140 0
20139 20141 0
-20139 -20140 -20141 0
20152 20143 0
20152 20162 0
-20152 -20143 -20162 0
20467 20428 0
20467 20425 0
-20467 -20428 -20425 0
20158 20149 0
20158 20162 0
-20158 -20149 -20162 0
20151 20152 0
20151 20153 0
-20151 -20152 -20153 0
20469 20434 0
20469 20431 0
-20469 -20434 -20431 0
20157 20158 0
20157 20159 0
-20157 -20158 -20159 0
20167 20161 0
20167 20162 0
-20167 -20161 -20162 0
20471 20446 0
20471 20437 0
-20471 -20446 -20437 0
20166 20167 0
20166 20168 0
-20166 -20167 -20168 0
20473 20452 0
20473 20449 0
-20473 -20452 -20449 0
20475 20440 0
20475 20455 0
-20475 -20440 -20455 0
20477 20458 0
20477 20443 0
-20477 -20458 -20443 0
20479 20287 0
20479 20461 0
-20479 -20287 -20461 0
-20181 -20182 0
-20181 -20183 0
-20181 -20184 0
20181 20182 20183 20184 0
-20185 -20186 0
-20185 -20187 0
-20185 -20188 0
20185 20186 20187 20188 0
-20189 -20190 0
-20189 -20191 0
-20189 -20192 0
20189 20190 20191 20192 0
-20193 -20194 0
-20193 -20195 0
-20193 -20196 0
20193 20194 20195 20196 0
-20197 -20198 0
-20197 -20199 0
20197 20198 20199 0
-20200 -20201 0
-20200 -20202 0
20200 20201 20202 0
-20203 -20204 0
-20203 -20205 0
-20203 -20206 0
20203 20204 20205 20206 0
-20207 -20208 0
-20207 -20209 0
-20207 -20252 0
-20207 -20255 0
20207 20208 20209 20252 20255 0
-20212 -20213 0
-20212 -20214 0
-20212 -20215 0
20212 20213 20214 20215 0
-20216 -20252 0
-20216 -20218 0
20216 20252 20218 0
-20219 -20220 0
-20219 -20221 0
-20219 -20222 0
20219 20220 20221 20222 0
-20223 -20224 0
-20223 -20225 0
-20223 -20226 0
20223 20224 20225 20226 0
-20227 -20228 0
-20227 -20229 0
20227 20228 20229 0
-20230 -20231 0
-20230 -20232 0
20230 20231 20232 0
-20233 -20234 0
-20233 -20235 0
20233 20234 20235 0
-20236 -20237 0
-20236 -20238 0
20236 20237 20238 0
-20239 -20240 0
-20239 -20241 0
20239 20240 20241 0
-20242 -20243 0
-20242 -20244 0
20242 20243 20244 0
-20245 -20246 0
-20245 -20247 0
20245 20246 20247 0
-20248 -20249 0
-20248 -20250 0
20248 20249 20250 0
-20251 -20252 0
-20251 -20253 0
20251 20252 20253 0
-20254 -20255 0
-20254 -20256 0
20254 20255 20256 0
-20257 -20258 0
-20257 -20259 0
20257 20258 20259 0
-20260 -20261 0
-20260 -20262 0
20260 20261 20262 0
-20263 -20264 0
-20263 -20265 0
20263 20264 20265 0
-20266 -20267 0
-20266 -20268 0
20266 20267 20268 0
-20523 -20292 0
-20523 -20271 0
20523 20292 20271 0
-20272 -20273 0
-20272 -20274 0
20272 20273 20274 0
-20275 -20276 0
-20275 -20277 0
20275 20276 20277 0
-20278 -20279 0
-20278 -20280 0
20278 20279 20280 0
-20281 -20282 0
-20281 -20283 0
20281 20282 20283 0
-20284 -20285 0
-20284 -20291 0
20284 20285 20291 0
-20287 -20288 0
-20287 -20289 0
20287 20288 20289 0
-20290 -20291 0
-20290 -20292 0
-20290 -20525 0
20290 20291 20292 20525 0
-20294 -20295 0
-20294 -20296 0
-20294 -20297 0
20294 20295 20296 20297 0
-20298 -20299 0
-20298 -20300 0
-20298 -20301 0
20298 20299 20300 20301 0
-20302 -20303 0
-20302 -20304 0
-20302 -20305 0
20302 20303 20304 20305 0
-20306 -20307 0
-20306 -20308 0
-20306 -20309 0
20306 20307 20308 20309 0
-20310 -20311 0
-20310 -20312 0
-20310 -20313 0
20310 20311 20312 20313 0
-20314 -20315 0
-20314 -20316 0
-20314 -20317 0
20314 20315 20316 20317 0
-20318 -20319 0
-20318 -20320 0
-20318 -20321 0
20318 20319 20320 20321 0
-20322 -20323 0
-20322 -20324 0
20322 20323 20324 0
-20325 -20326 0
-20325 -20327 0
20325 20326 20327 0
-20328 -20329 0
-20328 -20330 0
20328 20329 20330 0
-20331 -20332 0
-20331 -20333 0
20331 20332 20333 0
-20334 -20335 0
-20334 -20336 0
20334 20335 20336 0
-20337 -20338 0
-20337 -20339 0
20337 20338 20339 0
-20340 -20341 0
-20340 -20342 0
20340 20341 20342 0
-20343 -20344 0
-20343 -20345 0
20343 20344 20345 0
-20346 -20347 0
-20346 -20348 0
20346 20347 20348 0
-20349 -20350 0
-20349 -20351 0
20349 20350 20351 0
-20352 -20353 0
-20352 -20354 0
20352 20353 20354 0
-20409 -20356 0
-20409 -20404 0
20409 20356 20404 0
-20358 -20359 0
-20358 -20360 0
20358 20359 20360 0
-20361 -20362 0
-20361 -20363 0
20361 20362 20363 0
-20364 -20365 0
-20364 -20366 0
20364 20365 20366 0
-20367 -20368 0
-20367 -20369 0
20367 20368 20369 0
-20370 -20371 0
-20370 -20372 0
20370 20371 20372 0
-20378 -20374 0
-20378 -20375 0
20378 20374 20375 0
-20376 -20377 0
-20376 -20378 0
20376 20377 20378 0
-20379 -20380 0
-20379 -20381 0
20379 20380 20381 0
-20382 -20383 0
-20382 -20384 0
20382 20383 20384 0
-20385 -20386 0
-20385 -20387 0
20385 20386 20387 0
-20388 -20389 0
-20388 -20390 0
20388 20389 20390 0
-20391 -20392 0
-20391 -20393 0
20391 20392 20393 0
-20394 -20395 0
-20394 -20396 0
20394 20395 20396 0
-20397 -20398 0
-20397 -20399 0
20397 20398 20399 0
-20400 -20401 0
-20400 -20402 0
20400 20401 20402 0
-20408 -20404 0
-20408 -20405 0
20408 20404 20405 0
-20406 -20407 0
-20406 -20408 0
-20406 -20409 0
20406 20407 20408 20409 0
-20410 -20411 0
-20410 -20412 0
-20410 -20413 0
-20410 -20414 0
20410 20411 20412 20413 20414 0
-20415 -20416 0
-20415 -20417 0
20415 20416 20417 0
-20418 -20419 0
-20418 -20420 0
-20418 -20421 0
20418 20419 20420 20421 0
-20422 -20423 0
-20422 -20424 0
20422 20423 20424 0
-20425 -20426 0
-20425 -20427 0
20425 20426 20427 0
-20428 -20429 0
-20428 -20430 0
20428 20429 20430 0
-20431 -20432 0
-20431 -20433 0
20431 20432 20433 0
-20434 -20435 0
-20434 -20436 0
20434 20435 20436 0
-20437 -20438 0
-20437 -20439 0
20437 20438 20439 0
-20440 -20441 0
-20440 -20442 0
20440 20441 20442 0
-20443 -20444 0
-20443 -20445 0
20443 20444 20445 0
-20446 -20447 0
-20446 -20448 0
20446 20447 20448 0
-20449 -20450 0
-20449 -20451 0
20449 20450 20451 0
-20452 -20453 0
-20452 -20454 0
20452 20453 20454 0
-20455 -20456 0
-20455 -20457 0
20455 20456 20457 0
-20458 -20459 0
-20458 -20460 0
20458 20459 20460 0
-20461 -20462 0
-20461 -20463 0
20461 20462 20463 0
-20465 21150 0
20465 -21150 0
-20467 21153 0
20467 -21153 0
-20469 21156 0
20469 -21156 0
-20471 21159 0
20471 -21159 0
-20473 21162 0
20473 -21162 0
-20475 21165 0
20475 -21165 0
-20477 21168 0
20477 -21168 0
-20479 21171 0
20479 -21171 0
-20481 21617 0
20481 -21617 0
-20483 21105 0
20483 -21105 0
-20485 21108 0
20485 -21108 0
-20487 21111 0
20487 -21111 0
-20489 21114 0
20489 -21114 0
-20491 21117 0
20491 -21117 0
-20493 21120 0
20493 -21120 0
-20495 21123 0
20495 -21123 0
-20497 21054 0
20497 -21054 0
-20499 21057 0
20499 -21057 0
-20501 21060 0
20501 -21060 0
-20503 21063 0
20503 -21063 0
-20505 21066 0
20505 -21066 0
-20507 21069 0
20507 -21069 0
-20509 21072 0
20509 -21072 0
-20511 21616 0
20511 -21616 0
-20513 21879 0
20513 -21879 0
-20515 21634 0
20515 -21634 0
-20517 21925 0
20517 -21925 0
-20519 21620 0
20519 -21620 0
-20521 21638 0
20521 -21638 0
-20523 20788 0
20523 -20788 0
-20525 20524 0
20525 -20524 0
-20527 20806 0
20527 -20806 0
-20529 20860 0
20529 -20860 0
-20531 20953 0
20531 -20953 0
-20533 20833 0
20533 -20833 0
-20535 20800 0
20535 -20800 0
-20537 20824 0
20537 -20824 0
21003 20952 0
-21003 -20952 0
21679 21617 0
-21679 -21617 0
21928 21620 0
-21928 -21620 0
21868 21879 0
-21868 -21879 0
20977 20926 0
-20977 -20926 0
21652 20549 0
-21652 -20549 0
21871 21634 0
-21871 -21634 0
21672 21925 0
-21672 -21925 0
21878 21628 0
-21878 -21628 0
21888 21638 0
-21888 -21638 0
21641 21645 0
-21641 -21645 0
21502 21618 0
-21502 -21618 0
21664 21867 0
-21664 -21867 0
21674 21870 0
-21674 -21870 0
22203 21886 0
-22203 -21886 0
22167 21897 0
-22167 -21897 0
22169 21900 0
-22169 -21900 0
22171 21903 0
-22171 -21903 0
22173 21906 0
-22173 -21906 0
22175 21909 0
-22175 -21909 0
22177 21912 0
-22177 -21912 0
22179 21915 0
-22179 -21915 0
22181 21918 0
-22181 -21918 0
21669 21921 0
-21669 -21921 0
21692 21927 0
-21692 -21927 0
20595 21930 0
-20595 -21930 0
22187 21665 0
-22187 -21665 0
21761 20595 0
-21761 -20595 0
20601 20595 0
-20601 -20595 0
21028 21933 0
-21028 -21933 0
20605 21936 0
-20605 -21936 0
21832 20601 0
-21832 -20601 0
21340 20605 0
-21340 -20605 0
20647 20605 0
-20647 -20605 0
21961 21942 0
-21961 -21942 0
21076 21945 0
-21076 -21945 0
21696 21948 0
-21696 -21948 0
20655 21948 0
-20655 -21948 0
21247 21514 0
-21247 -21514 0
21078 21514 0
-21078 -21514 0
21253 21517 0
-21253 -21517 0
21081 21517 0
-21081 -21517 0
21259 21520 0
-21259 -21520 0
21084 21520 0
-21084 -21520 0
21265 21523 0
-21265 -21523 0
21087 21523 0
-21087 -21523 0
21271 21526 0
-21271 -21526 0
21090 21526 0
-21090 -21526 0
21277 21529 0
-21277 -21529 0
21093 21529 0
-21093 -21529 0
21283 21532 0
-21283 -21532 0
21096 21532 0
-21096 -21532 0
21289 21535 0
-21289 -21535 0
21099 21535 0
-21099 -21535 0
21367 20647 0
-21367 -20647 0
22195 21951 0
-22195 -21951 0
21343 21696 0
-21343 -21696 0
21400 20655 0
-21400 -20655 0
20673 20655 0
-20673 -20655 0
21174 21515 0
-21174 -21515 0
21177 21518 0
-21177 -21518 0
21180 21521 0
-21180 -21521 0
21183 21524 0
-21183 -21524 0
21186 21527 0
-21186 -21527 0
21189 21530 0
-21189 -21530 0
21192 21533 0
-21192 -21533 0
21195 21536 0
-21195 -21536 0
21244 20673 0
-21244 -20673 0
21199 21244 0
-21199 -21244 0
21202 21244 0
-21202 -21244 0
21205 21244 0
-21205 -21244 0
21208 21244 0
-21208 -21244 0
21211 21244 0
-21211 -21244 0
21214 21244 0
-21214 -21244 0
21217 21244 0
-21217 -21244 0
21220 21244 0
-21220 -21244 0
22151 21964 0
-22151 -21964 0
22153 21968 0
-22153 -21968 0
22155 21972 0
-22155 -21972 0
22157 21976 0
-22157 -21976 0
22159 21980 0
-22159 -21980 0
22161 21984 0
-22161 -21984 0
22163 21988 0
-22163 -21988 0
21294 21537 0
-21294 -21537 0
21300 21540 0
-21300 -21540 0
21306 21543 0
-21306 -21543 0
21312 21546 0
-21312 -21546 0
21318 21549 0
-21318 -21549 0
21324 21552 0
-21324 -21552 0
21330 21555 0
-21330 -21555 0
21336 21558 0
-21336 -21558 0
21710 21297 0
-21710 -21297 0
22026 21309 0
-22026 -21309 0
21780 21327 0
-21780 -21327 0
21808 21333 0
-21808 -21333 0
21372 21695 0
-21372 -21695 0
22044 21564 0
-22044 -21564 0
21375 21564 0
-21375 -21564 0
21405 21734 0
-21405 -21734 0
22074 21705 0
-22074 -21705 0
21411 21705 0
-21411 -21705 0
21438 21712 0
-21438 -21712 0
21441 21745 0
-21441 -21745 0
21604 21579 0
-21604 -21579 0
21429 21579 0
-21429 -21579 0
21462 21582 0
-21462 -21582 0
22084 21697 0
-22084 -21697 0
21722 21703 0
-21722 -21703 0
21403 21708 0
-21403 -21708 0
22082 21711 0
-22082 -21711 0
21406 22046 0
-21406 -22046 0
21782 21726 0
-21782 -21726 0
21409 21406 0
-21409 -21406 0
21783 21729 0
-21783 -21729 0
21433 21765 0
-21433 -21765 0
21786 21771 0
-21786 -21771 0
21436 21779 0
-21436 -21779 0
21439 22076 0
-21439 -22076 0
21442 22080 0
-21442 -22080 0
21445 21439 0
-21445 -21439 0
22165 22088 0
-22165 -22088 0
21605 21784 0
-21605 -21784 0
21454 21442 0
-21454 -21442 0
21472 21806 0
-21472 -21806 0
-21952 20952 0
-21952 20788 0
21952 -20952 -20788 0
-21890 20907 0
-21890 21123 0
21890 -20907 -21123 0
-22100 20931 0
-22100 21962 0
22100 -20931 -21962 0
-21864 20907 0
-21864 21617 0
21864 -20907 -21617 0
-21949 20952 0
-21949 20800 0
21949 -20952 -20800 0
-21883 20907 0
-21883 21114 0
21883 -20907 -21114 0
-21934 20952 0
-21934 20806 0
21934 -20952 -20806 0
-21853 20904 0
-21853 21072 0
21853 -20904 -21072 0
-21891 20904 0
-21891 21616 0
21891 -20904 -21616 0
-21856 20907 0
-21856 21111 0
21856 -20907 -21111 0
-22112 20943 0
-22112 21962 0
22112 -20943 -21962 0
-21875 20904 0
-21875 21069 0
21875 -20904 -21069 0
-21931 20952 0
-21931 20824 0
21931 -20952 -20824 0
-21854 20919 0
-21854 21168 0
21854 -20919 -21168 0
-21885 20919 0
-21885 21162 0
21885 -20919 -21162 0
-21937 20952 0
-21937 20833 0
21937 -20952 -20833 0
-21852 20907 0
-21852 21120 0
21852 -20907 -21120 0
-22124 20940 0
-22124 21962 0
22124 -20940 -21962 0
-21895 20904 0
-21895 21057 0
21895 -20904 -21057 0
-21858 20919 0
-21858 21159 0
21858 -20919 -21159 0
-22106 20934 0
-22106 21962 0
22106 -20934 -21962 0
-21857 20904 0
-21857 21063 0
21857 -20904 -21063 0
-21876 20919 0
-21876 21165 0
21876 -20919 -21165 0
-21862 20919 0
-21862 21156 0
21862 -20919 -21156 0
-21946 20952 0
-21946 20860 0
21946 -20952 -20860 0
-22130 20946 0
-22130 21962 0
22130 -20946 -21962 0
-21866 20919 0
-21866 21150 0
21866 -20919 -21150 0
-21861 20904 0
-21861 21060 0
21861 -20904 -21060 0
-21902 20931 0
-21902 20926 0
21902 -20931 -20926 0
-21905 20934 0
-21905 20926 0
21905 -20934 -20926 0
-21911 20940 0
-21911 20926 0
21911 -20940 -20926 0
-21914 20943 0
-21914 20926 0
21914 -20943 -20926 0
-21917 20946 0
-21917 20926 0
21917 -20946 -20926 0
-21860 20907 0
-21860 21108 0
21860 -20907 -21108 0
-21865 20904 0
-21865 21054 0
21865 -20904 -21054 0
-21869 21634 0
-21869 21925 0
21869 -21634 -21925 0
-21959 20949 0
-21959 21962 0
21959 -20949 -21962 0
-21920 20949 0
-21920 20926 0
21920 -20949 -20926 0
-21874 20907 0
-21874 21117 0
21874 -20907 -21117 0
-21884 20904 0
-21884 21066 0
21884 -20904 -21066 0
-21894 20907 0
-21894 21105 0
21894 -20907 -21105 0
-22094 20928 0
-22094 21962 0
22094 -20928 -21962 0
-21899 20928 0
-21899 20926 0
21899 -20928 -20926 0
-21892 20919 0
-21892 21171 0
21892 -20919 -21171 0
-21896 20919 0
-21896 21153 0
21896 -20919 -21153 0
-22118 20937 0
-22118 21962 0
22118 -20937 -21962 0
-21908 20937 0
-21908 20926 0
21908 -20937 -20926 0
-21966 20928 0
-21966 21955 0
21966 -20928 -21955 0
-21970 20931 0
-21970 21955 0
21970 -20931 -21955 0
-21974 20934 0
-21974 21955 0
21974 -20934 -21955 0
-21978 20937 0
-21978 21955 0
21978 -20937 -21955 0
-21982 20940 0
-21982 21955 0
21982 -20940 -21955 0
-21986 20943 0
-21986 21955 0
21986 -20943 -21955 0
-21990 20946 0
-21990 21955 0
21990 -20946 -21955 0
-22090 20949 0
-22090 21955 0
22090 -20949 -21955 0
-21943 20952 0
-21943 20953 0
21943 -20952 -20953 0
-21898 21054 0
-21898 20977 0
21898 -21054 -20977 0
-21901 21057 0
-21901 20977 0
21901 -21057 -20977 0
-21904 21060 0
-21904 20977 0
21904 -21060 -20977 0
-21907 21063 0
-21907 20977 0
21907 -21063 -20977 0
-21910 21066 0
-21910 20977 0
21910 -21066 -20977 0
-21913 21069 0
-21913 20977 0
21913 -21069 -20977 0
-21916 21072 0
-21916 20977 0
21916 -21072 -20977 0
-21919 21616 0
-21919 20977 0
21919 -21616 -20977 0
-21929 21624 0
-21929 21648 0
21929 -21624 -21648 0
-21932 21003 0
-21932 22207 0
21932 -21003 -22207 0
-21935 21003 0
-21935 22197 0
21935 -21003 -22197 0
-21938 21003 0
-21938 22203 0
21938 -21003 -22203 0
-21941 21680 0
-21941 21678 0
21941 -21680 -21678 0
-21944 21003 0
-21944 22201 0
21944 -21003 -22201 0
-21947 21003 0
-21947 22199 0
21947 -21003 -22199 0
-21950 21003 0
-21950 22205 0
21950 -21003 -22205 0
-21953 21003 0
-21953 22193 0
21953 -21003 -22193 0
-21514 21150 0
-21514 21028 0
21514 -21150 -21028 0
-21517 21153 0
-21517 21028 0
21517 -21153 -21028 0
-21520 21156 0
-21520 21028 0
21520 -21156 -21028 0
-21523 21159 0
-21523 21028 0
21523 -21159 -21028 0
-21526 21162 0
-21526 21028 0
21526 -21162 -21028 0
-21529 21165 0
-21529 21028 0
21529 -21165 -21028 0
-21532 21168 0
-21532 21028 0
21532 -21168 -21028 0
-21535 21171 0
-21535 21028 0
21535 -21171 -21028 0
-21958 21689 0
-21958 21961 0
21958 -21689 -21961 0
-21965 21105 0
-21965 21961 0
21965 -21105 -21961 0
-21969 21108 0
-21969 21961 0
21969 -21108 -21961 0
-21973 21111 0
-21973 21961 0
21973 -21111 -21961 0
-21977 21114 0
-21977 21961 0
21977 -21114 -21961 0
-21981 21117 0
-21981 21961 0
21981 -21117 -21961 0
-21985 21120 0
-21985 21961 0
21985 -21120 -21961 0
-21989 21123 0
-21989 21961 0
21989 -21123 -21961 0
-21515 21054 0
-21515 21076 0
21515 -21054 -21076 0
-21518 21057 0
-21518 21076 0
21518 -21057 -21076 0
-21521 21060 0
-21521 21076 0
21521 -21060 -21076 0
-21524 21063 0
-21524 21076 0
21524 -21063 -21076 0
-21527 21066 0
-21527 21076 0
21527 -21066 -21076 0
-21530 21069 0
-21530 21076 0
21530 -21069 -21076 0
-21533 21072 0
-21533 21076 0
21533 -21072 -21076 0
-21536 21616 0
-21536 21076 0
21536 -21616 -21076 0
-21994 21078 0
-21994 21367 0
21994 -21078 -21367 0
-21997 21081 0
-21997 21367 0
21997 -21081 -21367 0
-22000 21084 0
-22000 21367 0
22000 -21084 -21367 0
-22003 21087 0
-22003 21367 0
22003 -21087 -21367 0
-22006 21090 0
-22006 21367 0
22006 -21090 -21367 0
-22009 21093 0
-22009 21367 0
22009 -21093 -21367 0
-22012 21096 0
-22012 21367 0
22012 -21096 -21367 0
-22015 21099 0
-22015 21367 0
22015 -21099 -21367 0
-21967 21617 0
-21967 21954 0
21967 -21617 -21954 0
-21971 21105 0
-21971 21954 0
21971 -21105 -21954 0
-21975 21108 0
-21975 21954 0
21975 -21108 -21954 0
-21979 21111 0
-21979 21954 0
21979 -21111 -21954 0
-21983 21114 0
-21983 21954 0
21983 -21114 -21954 0
-21987 21117 0
-21987 21954 0
21987 -21117 -21954 0
-21991 21120 0
-21991 21954 0
21991 -21120 -21954 0
-22091 21123 0
-22091 21954 0
22091 -21123 -21954 0
-21993 21513 0
-21993 21340 0
21993 -21513 -21340 0
-21996 21516 0
-21996 21340 0
21996 -21516 -21340 0
-21999 21519 0
-21999 21340 0
21999 -21519 -21340 0
-22002 21522 0
-22002 21340 0
22002 -21522 -21340 0
-22005 21525 0
-22005 21340 0
22005 -21525 -21340 0
-22008 21528 0
-22008 21340 0
22008 -21528 -21340 0
-22011 21531 0
-22011 21340 0
22011 -21531 -21340 0
-22014 21534 0
-22014 21340 0
22014 -21534 -21340 0
-22086 21150 0
-22086 21960 0
22086 -21150 -21960 0
-22096 21153 0
-22096 21960 0
22096 -21153 -21960 0
-22102 21156 0
-22102 21960 0
22102 -21156 -21960 0
-22108 21159 0
-22108 21960 0
22108 -21159 -21960 0
-22120 21162 0
-22120 21960 0
22120 -21162 -21960 0
-22126 21165 0
-22126 21960 0
22126 -21165 -21960 0
-22114 21168 0
-22114 21960 0
22114 -21168 -21960 0
-22132 21171 0
-22132 21960 0
22132 -21171 -21960 0
-21539 21174 0
-21539 21244 0
21539 -21174 -21244 0
-21542 21177 0
-21542 21244 0
21542 -21177 -21244 0
-21545 21180 0
-21545 21244 0
21545 -21180 -21244 0
-21548 21183 0
-21548 21244 0
21548 -21183 -21244 0
-21551 21186 0
-21551 21244 0
21551 -21186 -21244 0
-21554 21189 0
-21554 21244 0
21554 -21189 -21244 0
-21557 21192 0
-21557 21244 0
21557 -21192 -21244 0
-21560 21195 0
-21560 21244 0
21560 -21195 -21244 0
-21538 21515 0
-21538 21199 0
21538 -21515 -21199 0
-21541 21518 0
-21541 21202 0
21541 -21518 -21202 0
-21544 21521 0
-21544 21205 0
21544 -21521 -21205 0
-21547 21524 0
-21547 21208 0
21547 -21524 -21208 0
-21550 21527 0
-21550 21211 0
21550 -21527 -21211 0
-21553 21530 0
-21553 21214 0
21553 -21530 -21214 0
-21556 21533 0
-21556 21217 0
21556 -21533 -21217 0
-21559 21536 0
-21559 21220 0
21559 -21536 -21220 0
-22051 21992 0
-22051 21244 0
22051 -21992 -21244 0
-22054 21995 0
-22054 21244 0
22054 -21995 -21244 0
-22057 21998 0
-22057 21244 0
22057 -21998 -21244 0
-22060 22001 0
-22060 21244 0
22060 -22001 -21244 0
-22063 22004 0
-22063 21244 0
22063 -22004 -21244 0
-22066 22007 0
-22066 21244 0
22066 -22007 -21244 0
-22069 22010 0
-22069 21244 0
22069 -22010 -21244 0
-22072 22013 0
-22072 21244 0
22072 -22013 -21244 0
-21562 21537 0
-21562 21247 0
21562 -21537 -21247 0
-21297 21537 0
-21297 21514 0
21297 -21537 -21514 0
-21565 21540 0
-21565 21253 0
21565 -21540 -21253 0
-22047 21540 0
-22047 21517 0
22047 -21540 -21517 0
-21568 21543 0
-21568 21259 0
21568 -21543 -21259 0
-21309 21543 0
-21309 21520 0
21309 -21543 -21520 0
-21571 21546 0
-21571 21265 0
21571 -21546 -21265 0
-22077 21546 0
-22077 21523 0
22077 -21546 -21523 0
-21574 21549 0
-21574 21271 0
21574 -21549 -21271 0
-22083 21549 0
-22083 21526 0
22083 -21549 -21526 0
-21577 21552 0
-21577 21277 0
21577 -21552 -21277 0
-21327 21552 0
-21327 21529 0
21327 -21552 -21529 0
-21580 21555 0
-21580 21283 0
21580 -21555 -21283 0
-21333 21555 0
-21333 21532 0
21333 -21555 -21532 0
-21583 21558 0
-21583 21289 0
21583 -21558 -21289 0
-21339 21558 0
-21339 21535 0
21339 -21558 -21535 0
-21563 21294 0
-21563 21514 0
21563 -21294 -21514 0
-22017 21297 0
-22017 21340 0
22017 -21297 -21340 0
-21566 21300 0
-21566 21517 0
21566 -21300 -21517 0
-22020 22047 0
-22020 21340 0
22020 -22047 -21340 0
-21569 21306 0
-21569 21520 0
21569 -21306 -21520 0
-22023 21309 0
-22023 21340 0
22023 -21309 -21340 0
-21572 21312 0
-21572 21523 0
21572 -21312 -21523 0
-22029 22077 0
-22029 21340 0
22029 -22077 -21340 0
-21575 21318 0
-21575 21526 0
21575 -21318 -21526 0
-22032 22083 0
-22032 21340 0
22032 -22083 -21340 0
-21578 21324 0
-21578 21529 0
21578 -21324 -21529 0
-22035 21327 0
-22035 21340 0
22035 -21327 -21340 0
-21581 21330 0
-21581 21532 0
21581 -21330 -21532 0
-22038 21333 0
-22038 21340 0
22038 -21333 -21340 0
-21584 21336 0
-21584 21535 0
21584 -21336 -21535 0
-22041 21339 0
-22041 21340 0
22041 -21339 -21340 0
-21586 21695 0
-21586 21343 0
21586 -21695 -21343 0
-22018 21695 0
-22018 21367 0
22018 -21695 -21367 0
-22021 21564 0
-22021 21367 0
22021 -21564 -21367 0
-22024 21734 0
-22024 21367 0
22024 -21734 -21367 0
-22030 21705 0
-22030 21367 0
22030 -21705 -21367 0
-22033 21712 0
-22033 21367 0
22033 -21712 -21367 0
-22036 21745 0
-22036 21367 0
22036 -21745 -21367 0
-22039 21579 0
-22039 21367 0
22039 -21579 -21367 0
-22042 21582 0
-22042 21367 0
22042 -21582 -21367 0
-22045 21710 0
-22045 21709 0
22045 -21710 -21709 0
-21587 21372 0
-21587 21696 0
21587 -21372 -21696 0
-21593 21375 0
-21593 21708 0
21593 -21375 -21708 0
-22050 22016 0
-22050 21400 0
22050 -22016 -21400 0
-22053 22019 0
-22053 21400 0
22053 -22019 -21400 0
-22056 22022 0
-22056 21400 0
22056 -22022 -21400 0
-22059 22028 0
-22059 21400 0
22059 -22028 -21400 0
-22062 22031 0
-22062 21400 0
22062 -22031 -21400 0
-22065 22034 0
-22065 21400 0
22065 -22034 -21400 0
-22068 22037 0
-22068 21400 0
22068 -22037 -21400 0
-22071 22040 0
-22071 21400 0
22071 -22040 -21400 0
-21592 21564 0
-21592 21403 0
21592 -21564 -21403 0
-21596 21405 0
-21596 21406 0
21596 -21405 -21406 0
-21595 21734 0
-21595 21409 0
21595 -21734 -21409 0
-21599 21411 0
-21599 21765 0
21599 -21411 -21765 0
-22081 21712 0
-22081 22078 0
22081 -21712 -22078 0
-22087 21768 0
-22087 22195 0
22087 -21768 -22195 0
-22089 21768 0
-22089 21961 0
22089 -21768 -21961 0
-22093 21776 0
-22093 21961 0
22093 -21776 -21961 0
-22097 21776 0
-22097 22195 0
22097 -21776 -22195 0
-21602 21429 0
-21602 21779 0
21602 -21429 -21779 0
-21598 21705 0
-21598 21433 0
21598 -21705 -21433 0
-21601 21579 0
-21601 21436 0
21601 -21579 -21436 0
-21608 21438 0
-21608 21439 0
21608 -21438 -21439 0
-21611 21441 0
-21611 21442 0
21611 -21441 -21442 0
-21607 21712 0
-21607 21445 0
21607 -21712 -21445 0
-22099 21794 0
-22099 21961 0
22099 -21794 -21961 0
-22103 21794 0
-22103 22195 0
22103 -21794 -22195 0
-21610 21745 0
-21610 21454 0
21610 -21745 -21454 0
-22105 21803 0
-22105 21961 0
22105 -21803 -21961 0
-22109 21803 0
-22109 22195 0
22109 -21803 -22195 0
-21614 21462 0
-21614 21806 0
21614 -21462 -21806 0
-22111 21809 0
-22111 21961 0
22111 -21809 -21961 0
-22115 21809 0
-22115 22195 0
22115 -21809 -22195 0
-21613 21582 0
-21613 21472 0
21613 -21582 -21472 0
-22117 21821 0
-22117 21961 0
22117 -21821 -21961 0
-22121 21821 0
-22121 22195 0
22121 -21821 -22195 0
-22123 21827 0
-22123 21961 0
22123 -21827 -21961 0
-22127 21827 0
-22127 22195 0
22127 -21827 -22195 0
-22129 21836 0
-22129 21961 0
22129 -21836 -21961 0
-22133 21836 0
-22133 22195 0
22133 -21836 -22195 0
21643 -21616 0
21643 -21617 0
-21643 21616 21617 0
21647 -21634 0
21647 -21672 0
-21647 21634 21672 0
21683 -21652 0
21683 -21888 0
-21683 21652 21888 0
21654 -21641 0
21654 -21502 0
-21654 21641 21502 0
21663 -21871 0
21663 -21624 0
-21663 21871 21624 0
21666 -21921 0
21666 -21926 0
-21666 21921 21926 0
21682 -21674 0
21682 -21679 0
21682 -21638 0
-21682 21674 21679 21638 0
21513 -21514 0
21513 -21515 0
-21513 21514 21515 0
21516 -21517 0
21516 -21518 0
-21516 21517 21518 0
21519 -21520 0
21519 -21521 0
-21519 21520 21521 0
21522 -21523 0
21522 -21524 0
-21522 21523 21524 0
21525 -21526 0
21525 -21527 0
-21525 21526 21527 0
21528 -21529 0
21528 -21530 0
-21528 21529 21530 0
21531 -21532 0
21531 -21533 0
-21531 21532 21533 0
21534 -21535 0
21534 -21536 0
-21534 21535 21536 0
21537 -21538 0
21537 -21539 0
-21537 21538 21539 0
21540 -21541 0
21540 -21542 0
-21540 21541 21542 0
21543 -21544 0
21543 -21545 0
-21543 21544 21545 0
21546 -21547 0
21546 -21548 0
-21546 21547 21548 0
21549 -21550 0
21549 -21551 0
-21549 21550 21551 0
21552 -21553 0
21552 -21554 0
-21552 21553 21554 0
21555 -21556 0
21555 -21557 0
-21555 21556 21557 0
21558 -21559 0
21558 -21560 0
-21558 21559 21560 0
21695 -21562 0
21695 -21563 0
-21695 21562 21563 0
21564 -21565 0
21564 -21566 0
-21564 21565 21566 0
21734 -21568 0
21734 -21569 0
-21734 21568 21569 0
21705 -21571 0
21705 -21572 0
-21705 21571 21572 0
21712 -21574 0
21712 -21575 0
-21712 21574 21575 0
21745 -21577 0
21745 -21578 0
-21745 21577 21578 0
21579 -21580 0
21579 -21581 0
-21579 21580 21581 0
21582 -21583 0
21582 -21584 0
-21582 21583 21584 0
21724 -21586 0
21724 -21587 0
-21724 21586 21587 0
21733 -22047 0
21733 -22048 0
-21733 22047 22048 0
21763 -21592 0
21763 -21593 0
-21763 21592 21593 0
21789 -21595 0
21789 -21596 0
-21789 21595 21596 0
21798 -21598 0
21798 -21599 0
-21798 21598 21599 0
21801 -21601 0
21801 -21602 0
-21801 21601 21602 0
21807 -21604 0
21807 -21605 0
-21807 21604 21605 0
21813 -21607 0
21813 -21608 0
-21813 21607 21608 0
21819 -21610 0
21819 -21611 0
-21819 21610 21611 0
21831 -21613 0
21831 -21614 0
-21831 21613 21614 0
21645 21616 0
21645 21617 0
-21645 -21616 -21617 0
21618 21879 0
21618 21620 0
-21618 -21879 -21620 0
21872 21879 0
21872 21925 0
-21872 -21879 -21925 0
21624 21868 0
21624 21925 0
-21624 -21868 -21925 0
21923 21628 0
21923 21652 0
-21923 -21628 -21652 0
21926 21868 0
21926 21871 0
-21926 -21868 -21871 0
21648 21634 0
21648 21672 0
-21648 -21634 -21672 0
22207 21878 0
22207 21638 0
-22207 -21878 -21638 0
21690 21872 0
21690 21641 0
-21690 -21872 -21641 0
21693 21643 0
21693 21870 0
21693 21645 0
-21693 -21643 -21870 -21645 0
22185 21647 0
22185 21648 0
-22185 -21647 -21648 0
22197 21871 0
22197 21877 0
22197 21652 0
-22197 -21871 -21877 -21652 0
21691 21654 0
21691 21871 0
-21691 -21654 -21871 0
21680 21922 0
21680 21924 0
-21680 -21922 -21924 0
21678 21923 0
21678 21924 0
-21678 -21923 -21924 0
22183 21663 0
22183 21664 0
-22183 -21663 -21664 0
21665 21666 0
21665 21672 0
-21665 -21666 -21672 0
22201 21669 0
22201 21871 0
22201 21868 0
22201 21672 0
-22201 -21669 -21871 -21868 -21672 0
22191 21674 0
22191 21680 0
22191 21678 0
-22191 -21674 -21680 -21678 0
22199 21678 0
22199 21679 0
22199 21680 0
-22199 -21678 -21679 -21680 0
22205 21682 0
22205 21683 0
-22205 -21682 -21683 0
22189 21690 0
22189 21692 0
22189 21691 0
22189 21693 0
-22189 -21690 -21692 -21691 -21693 0
21689 21690 0
21689 21691 0
21689 21692 0
21689 21693 0
-21689 -21690 -21691 -21692 -21693 0
21709 21695 0
21709 21696 0
-21709 -21695 -21696 0
21697 22077 0
21697 21712 0
-21697 -22077 -21712 0
21785 22083 0
21785 21745 0
-21785 -22083 -21745 0
21703 21745 0
21703 21705 0
21703 21712 0
21703 21734 0
-21703 -21745 -21705 -21712 -21734 0
21708 21709 0
21708 21710 0
-21708 -21709 -21710 0
21711 21712 0
21711 22079 0
-21711 -21712 -22079 0
21775 21745 0
21775 22084 0
-21775 -21745 -22084 0
21774 22047 0
21774 21722 0
-21774 -22047 -21722 0
21787 22048 0
21787 21722 0
-21787 -22048 -21722 0
21769 21724 0
21769 21832 0
-21769 -21724 -21832 0
21726 21785 0
21726 21774 0
-21726 -21785 -21774 0
21729 21775 0
21729 21787 0
-21729 -21775 -21787 0
22075 21733 0
22075 21734 0
-22075 -21733 -21734 0
21770 22049 0
21770 21761 0
-21770 -22049 -21761 0
21778 22052 0
21778 21761 0
-21778 -22052 -21761 0
21796 22055 0
21796 21761 0
-21796 -22055 -21761 0
21781 21745 0
21781 22082 0
-21781 -21745 -22082 0
21805 22058 0
21805 21761 0
-21805 -22058 -21761 0
21823 22061 0
21823 21761 0
-21823 -22061 -21761 0
21829 22064 0
21829 21761 0
-21829 -22064 -21761 0
21811 22067 0
21811 21761 0
-21811 -22067 -21761 0
21838 22070 0
21838 21761 0
-21838 -22070 -21761 0
21777 21763 0
21777 21832 0
-21777 -21763 -21832 0
21765 22026 0
21765 22075 0
-21765 -22026 -22075 0
21768 21769 0
21768 21770 0
-21768 -21769 -21770 0
21771 21780 0
21771 21781 0
21771 21774 0
21771 21775 0
-21771 -21780 -21781 -21774 -21775 0
21776 21777 0
21776 21778 0
-21776 -21777 -21778 0
21779 21780 0
21779 21781 0
21779 21782 0
21779 21783 0
-21779 -21780 -21781 -21782 -21783 0
21784 21785 0
21784 21786 0
21784 21787 0
-21784 -21785 -21786 -21787 0
21795 21789 0
21795 21832 0
-21795 -21789 -21832 0
22135 22092 0
22135 22085 0
-22135 -22092 -22085 0
21794 21795 0
21794 21796 0
-21794 -21795 -21796 0
21804 21798 0
21804 21832 0
-21804 -21798 -21832 0
21810 21801 0
21810 21832 0
-21810 -21801 -21832 0
21803 21804 0
21803 21805 0
-21803 -21804 -21805 0
21806 21807 0
21806 21808 0
-21806 -21807 -21808 0
21809 21810 0
21809 21811 0
-21809 -21810 -21811 0
21822 21813 0
21822 21832 0
-21822 -21813 -21832 0
22137 22098 0
22137 22095 0
-22137 -22098 -22095 0
21828 21819 0
21828 21832 0
-21828 -21819 -21832 0
21821 21822 0
21821 21823 0
-21821 -21822 -21823 0
22139 22104 0
22139 22101 0
-22139 -22104 -22101 0
21827 21828 0
21827 21829 0
-21827 -21828 -21829 0
21837 21831 0
21837 21832 0
-21837 -21831 -21832 0
22141 22116 0
22141 22107 0
-22141 -22116 -22107 0
21836 21837 0
21836 21838 0
-21836 -21837 -21838 0
22143 22122 0
22143 22119 0
-22143 -22122 -22119 0
22145 22110 0
22145 22125 0
-22145 -22110 -22125 0
22147 22128 0
22147 22113 0
-22147 -22128 -22113 0
22149 21957 0
22149 22131 0
-22149 -21957 -22131 0
-21851 -21852 0
-21851 -21853 0
-21851 -21854 0
21851 21852 21853 21854 0
-21855 -21856 0
-21855 -21857 0
-21855 -21858 0
21855 21856 21857 21858 0
-21859 -21860 0
-21859 -21861 0
-21859 -21862 0
21859 21860 21861 21862 0
-21863 -21864 0
-21863 -21865 0
-21863 -21866 0
21863 21864 21865 21866 0
-21867 -21868 0
-21867 -21869 0
21867 21868 21869 0
-21870 -21871 0
-21870 -21872 0
21870 21871 21872 0
-21873 -21874 0
-21873 -21875 0
-21873 -21876 0
21873 21874 21875 21876 0
-21877 -21878 0
-21877 -21879 0
-21877 -21922 0
-21877 -21925 0
21877 21878 21879 21922 21925 0
-21882 -21883 0
-21882 -21884 0
-21882 -21885 0
21882 21883 21884 21885 0
-21886 -21922 0
-21886 -21888 0
21886 21922 21888 0
-21889 -21890 0
-21889 -21891 0
-21889 -21892 0
21889 21890 21891 21892 0
-21893 -21894 0
-21893 -21895 0
-21893 -21896 0
21893 21894 21895 21896 0
-21897 -21898 0
-21897 -21899 0
21897 21898 21899 0
-21900 -21901 0
-21900 -21902 0
21900 21901 21902 0
-21903 -21904 0
-21903 -21905 0
21903 21904 21905 0
-21906 -21907 0
-21906 -21908 0
21906 21907 21908 0
-21909 -21910 0
-21909 -21911 0
21909 21910 21911 0
-21912 -21913 0
-21912 -21914 0
21912 21913 21914 0
-21915 -21916 0
-21915 -21917 0
21915 21916 21917 0
-21918 -21919 0
-21918 -21920 0
21918 21919 21920 0
-21921 -21922 0
-21921 -21923 0
21921 21922 21923 0
-21924 -21925 0
-21924 -21926 0
21924 21925 21926 0
-21927 -21928 0
-21927 -21929 0
21927 21928 21929 0
-21930 -21931 0
-21930 -21932 0
21930 21931 21932 0
-21933 -21934 0
-21933 -21935 0
21933 21934 21935 0
-21936 -21937 0
-21936 -21938 0
21936 21937 21938 0
-22193 -21962 0
-22193 -21941 0
22193 21962 21941 0
-21942 -21943 0
-21942 -21944 0
21942 21943 21944 0
-21945 -21946 0
-21945 -21947 0
21945 21946 21947 0
-21948 -21949 0
-21948 -21950 0
21948 21949 21950 0
-21951 -21952 0
-21951 -21953 0
21951 21952 21953 0
-21954 -21955 0
-21954 -21961 0
21954 21955 21961 0
-21957 -21958 0
-21957 -21959 0
21957 21958 21959 0
-21960 -21961 0
-21960 -21962 0
-21960 -22195 0
21960 21961 21962 22195 0
-21964 -21965 0
-21964 -21966 0
-21964 -21967 0
21964 21965 21966 21967 0
-21968 -21969 0
-21968 -21970 0
-21968 -21971 0
21968 21969 21970 21971 0
-21972 -21973 0
-21972 -21974 0
-21972 -21975 0
21972 21973 21974 21975 0
-21976 -21977 0
-21976 -21978 0
-21976 -21979 0
21976 21977 21978 21979 0
-21980 -21981 0
-21980 -21982 0
-21980 -21983 0
21980 21981 21982 21983 0
-21984 -21985 0
-21984 -21986 0
-21984 -21987 0
21984 21985 21986 21987 0
-21988 -21989 0
-21988 -21990 0
-21988 -21991 0
21988 21989 21990 21991 0
-21992 -21993 0
-21992 -21994 0
21992 21993 21994 0
-21995 -21996 0
-21995 -21997 0
21995 21996 21997 0
-21998 -21999 0
-21998 -22000 0
21998 21999 22000 0
-22001 -22002 0
-22001 -22003 0
22001 22002 22003 0
-22004 -22005 0
-22004 -22006 0
22004 22005 22006 0
-22007 -22008 0
-22007 -22009 0
22007 22008 22009 0
-22010 -22011 0
-22010 -22012 0
22010 22011 22012 0
-22013 -22014 0
-22013 -22015 0
22013 22014 22015 0
-22016 -22017 0
-22016 -22018 0
22016 22017 22018 0
-22019 -22020 0
-22019 -22021 0
22019 22020 22021 0
-22022 -22023 0
-22022 -22024 0
22022 22023 22024 0
-22079 -22026 0
-22079 -22074 0
22079 22026 22074 0
-22028 -22029 0
-22028 -22030 0
22028 22029 22030 0
-22031 -22032 0
-22031 -22033 0
22031 22032 22033 0
-22034 -22035 0
-22034 -22036 0
22034 22035 22036 0
-22037 -22038 0
-22037 -22039 0
22037 22038 22039 0
-22040 -22041 0
-22040 -22042 0
22040 22041 22042 0
-22048 -22044 0
-22048 -22045 0
22048 22044 22045 0
-22046 -22047 0
-22046 -22048 0
22046 22047 22048 0
-22049 -22050 0
-22049 -22051 0
22049 22050 22051 0
-22052 -22053 0
-22052 -22054 0
22052 22053 22054 0
-22055 -22056 0
-22055 -22057 0
22055 22056 22057 0
-22058 -22059 0
-22058 -22060 0
22058 22059 22060 0
-22061 -22062 0
-22061 -22063 0
22061 22062 22063 0
-22064 -22065 0
-22064 -22066 0
22064 22065 22066 0
-22067 -22068 0
-22067 -22069 0
22067 22068 22069 0
-22070 -22071 0
-22070 -22072 0
22070 22071 22072 0
-22078 -22074 0
-22078 -22075 0
22078 22074 22075 0
-22076 -22077 0
-22076 -22078 0
-22076 -22079 0
22076 22077 22078 22079 0
-22080 -22081 0
-22080 -22082 0
-22080 -22083 0
-22080 -22084 0
22080 22081 22082 22083 22084 0
-22085 -22086 0
-22085 -22087 0
22085 22086 22087 0
-22088 -22089 0
-22088 -22090 0
-22088 -22091 0
22088 22089 22090 22091 0
-22092 -22093 0
-22092 -22094 0
22092 22093 22094 0
-22095 -22096 0
-22095 -22097 0
22095 22096 22097 0
-22098 -22099 0
-22098 -22100 0
22098 22099 22100 0
-22101 -22102 0
-22101 -22103 0
22101 22102 22103 0
-22104 -22105 0
-22104 -22106 0
22104 22105 22106 0
-22107 -22108 0
-22107 -22109 0
22107 22108 22109 0
-22110 -22111 0
-22110 -22112 0
22110 22111 22112 0
-22113 -22114 0
-22113 -22115 0
22113 22114 22115 0
-22116 -22117 0
-22116 -22118 0
22116 22117 22118 0
-22119 -22120 0
-22119 -22121 0
22119 22120 22121 0
-22122 -22123 0
-22122 -22124 0
22122 22123 22124 0
-22125 -22126 0
-22125 -22127 0
22125 22126 22127 0
-22128 -22129 0
-22128 -22130 0
22128 22129 22130 0
-22131 -22132 0
-22131 -22133 0
22131 22132 22133 0
-22135 22820 0
22135 -22820 0
-22137 22823 0
22137 -22823 0
-22139 22826 0
22139 -22826 0
-22141 22829 0
22141 -22829 0
-22143 22832 0
22143 -22832 0
-22145 22835 0
22145 -22835 0
-22147 22838 0
22147 -22838 0
-22149 22841 0
22149 -22841 0
-22151 23287 0
22151 -23287 0
-22153 22775 0
22153 -22775 0
-22155 22778 0
22155 -22778 0
-22157 22781 0
22157 -22781 0
-22159 22784 0
22159 -22784 0
-22161 22787 0
22161 -22787 0
-22163 22790 0
22163 -22790 0
-22165 22793 0
22165 -22793 0
-22167 22724 0
22167 -22724 0
-22169 22727 0
22169 -22727 0
-22171 22730 0
22171 -22730 0
-22173 22733 0
22173 -22733 0
-22175 22736 0
22175 -22736 0
-22177 22739 0
22177 -22739 0
-22179 22742 0
22179 -22742 0
-22181 23286 0
22181 -23286 0
-22183 23549 0
22183 -23549 0
-22185 23304 0
22185 -23304 0
-22187 23595 0
22187 -23595 0
-22189 23290 0
22189 -23290 0
-22191 23308 0
22191 -23308 0
-22193 22458 0
22193 -22458 0
-22195 22194 0
22195 -22194 0
-22197 22476 0
22197 -22476 0
-22199 22530 0
22199 -22530 0
-22201 22623 0
22201 -22623 0
-22203 22503 0
22203 -22503 0
-22205 22470 0
22205 -22470 0
-22207 22494 0
22207 -22494 0
22673 22622 0
-22673 -22622 0
23349 23287 0
-23349 -23287 0
23598 23290 0
-23598 -23290 0
23538 23549 0
-23538 -23549 0
22647 22596 0
-22647 -22596 0
23322 22219 0
-23322 -22219 0
23541 23304 0
-23541 -23304 0
23342 23595 0
-23342 -23595 0
23548 23298 0
-23548 -23298 0
23558 23308 0
-23558 -23308 0
23311 23315 0
-23311 -23315 0
23172 23288 0
-23172 -23288 0
23334 23537 0
-23334 -23537 0
23344 23540 0
-23344 -23540 0
23873 23556 0
-23873 -23556 0
23837 23567 0
-23837 -23567 0
23839 23570 0
-23839 -23570 0
23841 23573 0
-23841 -23573 0
23843 23576 0
-23843 -23576 0
23845 23579 0
-23845 -23579 0
23847 23582 0
-23847 -23582 0
23849 23585 0
-23849 -23585 0
23851 23588 0
-23851 -23588 0
23339 23591 0
-23339 -23591 0
23362 23597 0
-23362 -23597 0
22265 23600 0
-22265 -23600 0
23857 23335 0
-23857 -23335 0
23431 22265 0
-23431 -22265 0
22271 22265 0
-22271 -22265 0
22698 23603 0
-22698 -23603 0
22275 23606 0
-22275 -23606 0
23502 22271 0
-23502 -22271 0
23010 22275 0
-23010 -22275 0
22317 22275 0
-22317 -22275 0
23631 23612 0
-23631 -23612 0
22746 23615 0
-22746 -23615 0
23366 23618 0
-23366 -23618 0
22325 23618 0
-22325 -23618 0
22917 23184 0
-22917 -23184 0
22748 23184 0
-22748 -23184 0
22923 23187 0
-22923 -23187 0
22751 23187 0
-22751 -23187 0
22929 23190 0
-22929 -23190 0
22754 23190 0
-22754 -23190 0
22935 23193 0
-22935 -23193 0
22757 23193 0
-22757 -23193 0
22941 23196 0
-22941 -23196 0
22760 23196 0
-22760 -23196 0
22947 23199 0
-22947 -23199 0
22763 23199 0
-22763 -23199 0
22953 23202 0
-22953 -23202 0
22766 23202 0
-22766 -23202 0
22959 23205 0
-22959 -23205 0
22769 23205 0
-22769 -23205 0
23037 22317 0
-23037 -22317 0
23865 23621 0
-23865 -23621 0
23013 23366 0
-23013 -23366 0
23070 22325 0
-23070 -22325 0
22343 22325 0
-22343 -22325 0
22844 23185 0
-22844 -23185 0
22847 23188 0
-22847 -23188 0
22850 23191 0
-22850 -23191 0
22853 23194 0
-22853 -23194 0
22856 23197 0
-22856 -23197 0
22859 23200 0
-22859 -23200 0
22862 23203 0
-22862 -23203 0
22865 23206 0
-22865 -23206 0
22914 22343 0
-22914 -22343 0
22869 22914 0
-22869 -22914 0
22872 22914 0
-22872 -22914 0
22875 22914 0
-22875 -22914 0
22878 22914 0
-22878 -22914 0
22881 22914 0
-22881 -22914 0
22884 22914 0
-22884 -22914 0
22887 22914 0
-22887 -22914 0
22890 22914 0
-22890 -22914 0
23821 23634 0
-23821 -23634 0
23823 23638 0
-23823 -23638 0
23825 23642 0
-23825 -23642 0
23827 23646 0
-23827 -23646 0
23829 23650 0
-23829 -23650 0
23831 23654 0
-23831 -23654 0
23833 23658 0
-23833 -23658 0
22964 23207 0
-22964 -23207 0
22970 23210 0
-22970 -23210 0
22976 23213 0
-22976 -23213 0
22982 23216 0
-22982 -23216 0
22988 23219 0
-22988 -23219 0
22994 23222 0
-22994 -23222 0
23000 23225 0
-23000 -23225 0
23006 23228 0
-23006 -23228 0
23380 22967 0
-23380 -22967 0
23696 22979 0
-23696 -22979 0
23450 22997 0
-23450 -22997 0
23478 23003 0
-23478 -23003 0
23042 23365 0
-23042 -23365 0
23714 23234 0
-23714 -23234 0
23045 23234 0
-23045 -23234 0
23075 23404 0
-23075 -23404 0
23744 23375 0
-23744 -23375 0
23081 23375 0
-23081 -23375 0
23108 23382 0
-23108 -23382 0
23111 23415 0
-23111 -23415 0
23274 23249 0
-23274 -23249 0
23099 23249 0
-23099 -23249 0
23132 23252 0
-23132 -23252 0
23754 23367 0
-23754 -23367 0
23392 23373 0
-23392 -23373 0
23073 23378 0
-23073 -23378 0
23752 23381 0
-23752 -23381 0
23076 23716 0
-23076 -23716 0
23452 23396 0
-23452 -23396 0
23079 23076 0
-23079 -23076 0
23453 23399 0
-23453 -23399 0
23103 23435 0
-23103 -23435 0
23456 23441 0
-23456 -23441 0
23106 23449 0
-23106 -23449 0
23109 23746 0
-23109 -23746 0
23112 23750 0
-23112 -23750 0
23115 23109 0
-23115 -23109 0
23835 23758 0
-23835 -23758 0
23275 23454 0
-23275 -23454 0
23124 23112 0
-23124 -23112 0
23142 23476 0
-23142 -23476 0
-23622 22622 0
-23622 22458 0
23622 -22622 -22458 0
-23560 22577 0
-23560 22793 0
23560 -22577 -22793 0
-23770 22601 0
-23770 23632 0
23770 -22601 -23632 0
-23534 22577 0
-23534 23287 0
23534 -22577 -23287 0
-23619 22622 0
-23619 22470 0
23619 -22622 -22470 0
-23553 22577 0
-23553 22784 0
23553 -22577 -22784 0
-23604 22622 0
-23604 22476 0
23604 -22622 -22476 0
-23523 22574 0
-23523 22742 0
23523 -22574 -22742 0
-23561 22574 0
-23561 23286 0
23561 -22574 -23286 0
-23526 22577 0
-23526 22781 0
23526 -22577 -22781 0
-23782 22613 0
-23782 23632 0
23782 -22613 -23632 0
-23545 22574 0
-23545 22739 0
23545 -22574 -22739 0
-23601 22622 0
-23601 22494 0
23601 -22622 -22494 0
-23524 22589 0
-23524 22838 0
23524 -22589 -22838 0
-23555 22589 0
-23555 22832 0
23555 -22589 -22832 0
-23607 22622 0
-23607 22503 0
23607 -22622 -22503 0
-23522 22577 0
-23522 22790 0
23522 -22577 -22790 0
-23794 22610 0
-23794 23632 0
23794 -22610 -23632 0
-23565 22574 0
-23565 22727 0
23565 -22574 -22727 0
-23528 22589 0
-23528 22829 0
23528 -22589 -22829 0
-23776 22604 0
-23776 23632 0
23776 -22604 -23632 0
-23527 22574 0
-23527 22733 0
23527 -22574 -22733 0
-23546 22589 0
-23546 22835 0
23546 -22589 -22835 0
-23532 22589 0
-23532 22826 0
23532 -22589 -22826 0
-23616 22622 0
-23616 22530 0
23616 -22622 -22530 0
-23800 22616 0
-23800 23632 0
23800 -22616 -23632 0
-23536 22589 0
-23536 22820 0
23536 -22589 -22820 0
-23531 22574 0
-23531 22730 0
23531 -22574 -22730 0
-23572 22601 0
-23572 22596 0
23572 -22601 -22596 0
-23575 22604 0
-23575 22596 0
23575 -22604 -22596 0
-23581 22610 0
-23581 22596 0
23581 -22610 -22596 0
-23584 22613 0
-23584 22596 0
23584 -22613 -22596 0
-23587 22616 0
-23587 22596 0
23587 -22616 -22596 0
-23530 22577 0
-23530 22778 0
23530 -22577 -22778 0
-23535 22574 0
-23535 22724 0
23535 -22574 -22724 0
-23539 23304 0
-23539 23595 0
23539 -23304 -23595 0
-23629 22619 0
-23629 23632 0
23629 -22619 -23632 0
-23590 22619 0
-23590 22596 0
23590 -22619 -22596 0
-23544 22577 0
-23544 22787 0
23544 -22577 -22787 0
-23554 22574 0
-23554 22736 0
23554 -22574 -22736 0
-23564 22577 0
-23564 22775 0
23564 -22577 -22775 0
-23764 22598 0
-23764 23632 0
23764 -22598 -23632 0
-23569 22598 0
-23569 22596 0
23569 -22598 -22596 0
-23562 22589 0
-23562 22841 0
23562 -22589 -22841 0
-23566 22589 0
-23566 22823 0
23566 -22589 -22823 0
-23788 22607 0
-23788 23632 0
23788 -22607 -23632 0
-23578 22607 0
-23578 22596 0
23578 -22607 -22596 0
-23636 22598 0
-23636 23625 0
23636 -22598 -23625 0
-23640 22601 0
-23640 23625 0
23640 -22601 -23625 0
-23644 22604 0
-23644 23625 0
23644 -22604 -23625 0
-23648 22607 0
-23648 23625 0
23648 -22607 -23625 0
-23652 22610 0
-23652 23625 0
23652 -22610 -23625 0
-23656 22613 0
-23656 23625 0
23656 -22613 -23625 0
-23660 22616 0
-23660 23625 0
23660 -22616 -23625 0
-23760 22619 0
-23760 23625 0
23760 -22619 -23625 0
-23613 22622 0
-23613 22623 0
23613 -22622 -22623 0
-23568 22724 0
-23568 22647 0
23568 -22724 -22647 0
-23571 22727 0
-23571 22647 0
23571 -22727 -22647 0
-23574 22730 0
-23574 22647 0
23574 -22730 -22647 0
-23577 22733 0
-23577 22647 0
23577 -22733 -22647 0
-23580 22736 0
-23580 22647 0
23580 -22736 -22647 0
-23583 22739 0
-23583 22647 0
23583 -22739 -22647 0
-23586 22742 0
-23586 22647 0
23586 -22742 -22647 0
-23589 23286 0
-23589 22647 0
23589 -23286 -22647 0
-23599 23294 0
-23599 23318 0
23599 -23294 -23318 0
-23602 22673 0
-23602 23877 0
23602 -22673 -23877 0
-23605 22673 0
-23605 23867 0
23605 -22673 -23867 0
-23608 22673 0
-23608 23873 0
23608 -22673 -23873 0
-23611 23350 0
-23611 23348 0
23611 -23350 -23348 0
-23614 22673 0
-23614 23871 0
23614 -22673 -23871 0
-23617 22673 0
-23617 23869 0
23617 -22673 -23869 0
-23620 22673 0
-23620 23875 0
23620 -22673 -23875 0
-23623 22673 0
-23623 23863 0
23623 -22673 -23863 0
-23184 22820 0
-23184 22698 0
23184 -22820 -22698 0
-23187 22823 0
-23187 22698 0
23187 -22823 -22698 0
-23190 22826 0
-23190 22698 0
23190 -22826 -22698 0
-23193 22829 0
-23193 22698 0
23193 -22829 -22698 0
-23196 22832 0
-23196 22698 0
23196 -22832 -22698 0
-23199 22835 0
-23199 22698 0
23199 -22835 -22698 0
-23202 22838 0
-23202 22698 0
23202 -22838 -22698 0
-23205 22841 0
-23205 22698 0
23205 -22841 -22698 0
-23628 23359 0
-23628 23631 0
23628 -23359 -23631 0
-23635 22775 0
-23635 23631 0
23635 -22775 -23631 0
-23639 22778 0
-23639 23631 0
23639 -22778 -23631 0
-23643 22781 0
-23643 23631 0
23643 -22781 -23631 0
-23647 22784 0
-23647 23631 0
23647 -22784 -23631 0
-23651 22787 0
-23651 23631 0
23651 -22787 -23631 0
-23655 22790 0
-23655 23631 0
23655 -22790 -23631 0
-23659 22793 0
-23659 23631 0
23659 -22793 -23631 0
-23185 22724 0
-23185 22746 0
23185 -22724 -22746 0
-23188 22727 0
-23188 22746 0
23188 -22727 -22746 0
-23191 22730 0
-23191 22746 0
23191 -22730 -22746 0
-23194 22733 0
-23194 22746 0
23194 -22733 -22746 0
-23197 22736 0
-23197 22746 0
23197 -22736 -22746 0
-23200 22739 0
-23200 22746 0
23200 -22739 -22746 0
-23203 22742 0
-23203 22746 0
23203 -22742 -22746 0
-23206 23286 0
-23206 22746 0
23206 -23286 -22746 0
-23664 22748 0
-23664 23037 0
23664 -22748 -23037 0
-23667 22751 0
-23667 23037 0
23667 -22751 -23037 0
-23670 22754 0
-23670 23037 0
23670 -22754 -23037 0
-23673 22757 0
-23673 23037 0
23673 -22757 -23037 0
-23676 22760 0
-23676 23037 0
23676 -22760 -23037 0
-23679 22763 0
-23679 23037 0
23679 -22763 -23037 0
-23682 22766 0
-23682 23037 0
23682 -22766 -23037 0
-23685 22769 0
-23685 23037 0
23685 -22769 -23037 0
-23637 23287 0
-23637 23624 0
23637 -23287 -23624 0
-23641 22775 0
-23641 23624 0
23641 -22775 -23624 0
-23645 22778 0
-23645 23624 0
23645 -22778 -23624 0
-23649 22781 0
-23649 23624 0
23649 -22781 -23624 0
-23653 22784 0
-23653 23624 0
23653 -22784 -23624 0
-23657 22787 0
-23657 23624 0
23657 -22787 -23624 0
-23661 22790 0
-23661 23624 0
23661 -22790 -23624 0
-23761 22793 0
-23761 23624 0
23761 -22793 -23624 0
-23663 23183 0
-23663 23010 0
23663 -23183 -23010 0
-23666 23186 0
-23666 23010 0
23666 -23186 -23010 0
-23669 23189 0
-23669 23010 0
23669 -23189 -23010 0
-23672 23192 0
-23672 23010 0
23672 -23192 -23010 0
-23675 23195 0
-23675 23010 0
23675 -23195 -23010 0
-23678 23198 0
-23678 23010 0
23678 -23198 -23010 0
-23681 23201 0
-23681 23010 0
23681 -23201 -23010 0
-23684 23204 0
-23684 23010 0
23684 -23204 -23010 0
-23756 22820 0
-23756 23630 0
23756 -22820 -23630 0
-23766 22823 0
-23766 23630 0
23766 -22823 -23630 0
-23772 22826 0
-23772 23630 0
23772 -22826 -23630 0
-23778 22829 0
-23778 23630 0
23778 -22829 -23630 0
-23790 22832 0
-23790 23630 0
23790 -22832 -23630 0
-23796 22835 0
-23796 23630 0
23796 -22835 -23630 0
-23784 22838 0
-23784 23630 0
23784 -22838 -23630 0
-23802 22841 0
-23802 23630 0
23802 -22841 -23630 0
-23209 22844 0
-23209 22914 0
23209 -22844 -22914 0
-23212 22847 0
-23212 22914 0
23212 -22847 -22914 0
-23215 22850 0
-23215 22914 0
23215 -22850 -22914 0
-23218 22853 0
-23218 22914 0
23218 -22853 -22914 0
-23221 22856 0
-23221 22914 0
23221 -22856 -22914 0
-23224 22859 0
-23224 22914 0
23224 -22859 -22914 0
-23227 22862 0
-23227 22914 0
23227 -22862 -22914 0
-23230 22865 0
-23230 22914 0
23230 -22865 -22914 0
-23208 23185 0
-23208 22869 0
23208 -23185 -22869 0
-23211 23188 0
-23211 22872 0
23211 -23188 -22872 0
-23214 23191 0
-23214 22875 0
23214 -23191 -22875 0
-23217 23194 0
-23217 22878 0
23217 -23194 -22878 0
-23220 23197 0
-23220 22881 0
23220 -23197 -22881 0
-23223 23200 0
-23223 22884 0
23223 -23200 -22884 0
-23226 23203 0
-23226 22887 0
23226 -23203 -22887 0
-23229 23206 0
-23229 22890 0
23229 -23206 -22890 0
-23721 23662 0
-23721 22914 0
23721 -23662 -22914 0
-23724 23665 0
-23724 22914 0
23724 -23665 -22914 0
-23727 23668 0
-23727 22914 0
23727 -23668 -22914 0
-23730 23671 0
-23730 22914 0
23730 -23671 -22914 0
-23733 23674 0
-23733 22914 0
23733 -23674 -22914 0
-23736 23677 0
-23736 22914 0
23736 -23677 -22914 0
-23739 23680 0
-23739 22914 0
23739 -23680 -22914 0
-23742 23683 0
-23742 22914 0
23742 -23683 -22914 0
-23232 23207 0
-23232 22917 0
23232 -23207 -22917 0
-22967 23207 0
-22967 23184 0
22967 -23207 -23184 0
-23235 23210 0
-23235 22923 0
23235 -23210 -22923 0
-23717 23210 0
-23717 23187 0
23717 -23210 -23187 0
-23238 23213 0
-23238 22929 0
23238 -23213 -22929 0
-22979 23213 0
-22979 23190 0
22979 -23213 -23190 0
-23241 23216 0
-23241 22935 0
23241 -23216 -22935 0
-23747 23216 0
-23747 23193 0
23747 -23216 -23193 0
-23244 23219 0
-23244 22941 0
23244 -23219 -22941 0
-23753 23219 0
-23753 23196 0
23753 -23219 -23196 0
-23247 23222 0
-23247 22947 0
23247 -23222 -22947 0
-22997 23222 0
-22997 23199 0
22997 -23222 -23199 0
-23250 23225 0
-23250 22953 0
23250 -23225 -22953 0
-23003 23225 0
-23003 23202 0
23003 -23225 -23202 0
-23253 23228 0
-23253 22959 0
23253 -23228 -22959 0
-23009 23228 0
-23009 23205 0
23009 -23228 -23205 0
-23233 22964 0
-23233 23184 0
23233 -22964 -23184 0
-23687 22967 0
-23687 23010 0
23687 -22967 -23010 0
-23236 22970 0
-23236 23187 0
23236 -22970 -23187 0
-23690 23717 0
-23690 23010 0
23690 -23717 -23010 0
-23239 22976 0
-23239 23190 0
23239 -22976 -23190 0
-23693 22979 0
-23693 23010 0
23693 -22979 -23010 0
-23242 22982 0
-23242 23193 0
23242 -22982 -23193 0
-23699 23747 0
-23699 23010 0
23699 -23747 -23010 0
-23245 22988 0
-23245 23196 0
23245 -22988 -23196 0
-23702 23753 0
-23702 23010 0
23702 -23753 -23010 0
-23248 22994 0
-23248 23199 0
23248 -22994 -23199 0
-23705 22997 0
-23705 23010 0
23705 -22997 -23010 0
-23251 23000 0
-23251 23202 0
23251 -23000 -23202 0
-23708 23003 0
-23708 23010 0
23708 -23003 -23010 0
-23254 23006 0
-23254 23205 0
23254 -23006 -23205 0
-23711 23009 0
-23711 23010 0
23711 -23009 -23010 0
-23256 23365 0
-23256 23013 0
23256 -23365 -23013 0
-23688 23365 0
-23688 23037 0
23688 -23365 -23037 0
-23691 23234 0
-23691 23037 0
23691 -23234 -23037 0
-23694 23404 0
-23694 23037 0
23694 -23404 -23037 0
-23700 23375 0
-23700 23037 0
23700 -23375 -23037 0
-23703 23382 0
-23703 23037 0
23703 -23382 -23037 0
-23706 23415 0
-23706 23037 0
23706 -23415 -23037 0
-23709 23249 0
-23709 23037 0
23709 -23249 -23037 0
-23712 23252 0
-23712 23037 0
23712 -23252 -23037 0
-23715 23380 0
-23715 23379 0
23715 -23380 -23379 0
-23257 23042 0
-23257 23366 0
23257 -23042 -23366 0
-23263 23045 0
-23263 23378 0
23263 -23045 -23378 0
-23720 23686 0
-23720 23070 0
23720 -23686 -23070 0
-23723 23689 0
-23723 23070 0
23723 -23689 -23070 0
-23726 23692 0
-23726 23070 0
23726 -23692 -23070 0
-23729 23698 0
-23729 23070 0
23729 -23698 -23070 0
-23732 23701 0
-23732 23070 0
23732 -23701 -23070 0
-23735 23704 0
-23735 23070 0
23735 -23704 -23070 0
-23738 23707 0
-23738 23070 0
23738 -23707 -23070 0
-23741 23710 0
-23741 23070 0
23741 -23710 -23070 0
-23262 23234 0
-23262 23073 0
23262 -23234 -23073 0
-23266 23075 0
-23266 23076 0
23266 -23075 -23076 0
-23265 23404 0
-23265 23079 0
23265 -23404 -23079 0
-23269 23081 0
-23269 23435 0
23269 -23081 -23435 0
-23751 23382 0
-23751 23748 0
23751 -23382 -23748 0
-23757 23438 0
-23757 23865 0
23757 -23438 -23865 0
-23759 23438 0
-23759 23631 0
23759 -23438 -23631 0
-23763 23446 0
-23763 23631 0
23763 -23446 -23631 0
-23767 23446 0
-23767 23865 0
23767 -23446 -23865 0
-23272 23099 0
-23272 23449 0
23272 -23099 -23449 0
-23268 23375 0
-23268 23103 0
23268 -23375 -23103 0
-23271 23249 0
-23271 23106 0
23271 -23249 -23106 0
-23278 23108 0
-23278 23109 0
23278 -23108 -23109 0
-23281 23111 0
-23281 23112 0
23281 -23111 -23112 0
-23277 23382 0
-23277 23115 0
23277 -23382 -23115 0
-23769 23464 0
-23769 23631 0
23769 -23464 -23631 0
-23773 23464 0
-23773 23865 0
23773 -23464 -23865 0
-23280 23415 0
-23280 23124 0
23280 -23415 -23124 0
-23775 23473 0
-23775 23631 0
23775 -23473 -23631 0
-23779 23473 0
-23779 23865 0
23779 -23473 -23865 0
-23284 23132 0
-23284 23476 0
23284 -23132 -23476 0
-23781 23479 0
-23781 23631 0
23781 -23479 -23631 0
-23785 23479 0
-23785 23865 0
23785 -23479 -23865 0
-23283 23252 0
-23283 23142 0
23283 -23252 -23142 0
-23787 23491 0
-23787 23631 0
23787 -23491 -23631 0
-23791 23491 0
-23791 23865 0
23791 -23491 -23865 0
-23793 23497 0
-23793 23631 0
23793 -23497 -23631 0
-23797 23497 0
-23797 23865 0
23797 -23497 -23865 0
-23799 23506 0
-23799 23631 0
23799 -23506 -23631 0
-23803 23506 0
-23803 23865 0
23803 -23506 -23865 0
23313 -23286 0
23313 -23287 0
-23313 23286 23287 0
23317 -23304 0
23317 -23342 0
-23317 23304 23342 0
23353 -23322 0
23353 -23558 0
-23353 23322 23558 0
23324 -23311 0
23324 -23172 0
-23324 23311 23172 0
23333 -23541 0
23333 -23294 0
-23333 23541 23294 0
23336 -23591 0
23336 -23596 0
-23336 23591 23596 0
23352 -23344 0
23352 -23349 0
23352 -23308 0
-23352 23344 23349 23308 0
23183 -23184 0
23183 -23185 0
-23183 23184 23185 0
23186 -23187 0
23186 -23188 0
-23186 23187 23188 0
23189 -23190 0
23189 -23191 0
-23189 23190 23191 0
23192 -23193 0
23192 -23194 0
-23192 23193 23194 0
23195 -23196 0
23195 -23197 0
-23195 23196 23197 0
23198 -23199 0
23198 -23200 0
-23198 23199 23200 0
23201 -23202 0
23201 -23203 0
-23201 23202 23203 0
23204 -23205 0
23204 -23206 0
-23204 23205 23206 0
23207 -23208 0
23207 -23209 0
-23207 23208 23209 0
23210 -23211 0
23210 -23212 0
-23210 23211 23212 0
23213 -23214 0
23213 -23215 0
-23213 23214 23215 0
23216 -23217 0
23216 -23218 0
-23216 23217 23218 0
23219 -23220 0
23219 -23221 0
-23219 23220 23221 0
23222 -23223 0
23222 -23224 0
-23222 23223 23224 0
23225 -23226 0
23225 -23227 0
-23225 23226 23227 0
23228 -23229 0
23228 -23230 0
-23228 23229 23230 0
23365 -23232 0
23365 -23233 0
-23365 23232 23233 0
23234 -23235 0
23234 -23236 0
-23234 23235 23236 0
23404 -23238 0
23404 -23239 0
-23404 23238 23239 0
23375 -23241 0
23375 -23242 0
-23375 23241 23242 0
23382 -23244 0
23382 -23245 0
-23382 23244 23245 0
23415 -23247 0
23415 -23248 0
-23415 23247 23248 0
23249 -23250 0
23249 -23251 0
-23249 23250 23251 0
23252 -23253 0
23252 -23254 0
-23252 23253 23254 0
23394 -23256 0
23394 -23257 0
-23394 23256 23257 0
23403 -23717 0
23403 -23718 0
-23403 23717 23718 0
23433 -23262 0
23433 -23263 0
-23433 23262 23263 0
23459 -23265 0
23459 -23266 0
-23459 23265 23266 0
23468 -23268 0
23468 -23269 0
-23468 23268 23269 0
23471 -23271 0
23471 -23272 0
-23471 23271 23272 0
23477 -23274 0
23477 -23275 0
-23477 23274 23275 0
23483 -23277 0
23483 -23278 0
-23483 23277 23278 0
23489 -23280 0
23489 -23281 0
-23489 23280 23281 0
23501 -23283 0
23501 -23284 0
-23501 23283 23284 0
23315 23286 0
23315 23287 0
-23315 -23286 -23287 0
23288 23549 0
23288 23290 0
-23288 -23549 -23290 0
23542 23549 0
23542 23595 0
-23542 -23549 -23595 0
23294 23538 0
23294 23595 0
-23294 -23538 -23595 0
23593 23298 0
23593 23322 0
-23593 -23298 -23322 0
23596 23538 0
23596 23541 0
-23596 -23538 -23541 0
23318 23304 0
23318 23342 0
-23318 -23304 -23342 0
23877 23548 0
23877 23308 0
-23877 -23548 -23308 0
23360 23542 0
23360 23311 0
-23360 -23542 -23311 0
23363 23313 0
23363 23540 0
23363 23315 0
-23363 -23313 -23540 -23315 0
23855 23317 0
23855 23318 0
-23855 -23317 -23318 0
23867 23541 0
23867 23547 0
23867 23322 0
-23867 -23541 -23547 -23322 0
23361 23324 0
23361 23541 0
-23361 -23324 -23541 0
23350 23592 0
23350 23594 0
-23350 -23592 -23594 0
23348 23593 0
23348 23594 0
-23348 -23593 -23594 0
23853 23333 0
23853 23334 0
-23853 -23333 -23334 0
23335 23336 0
23335 23342 0
-23335 -23336 -23342 0
23871 23339 0
23871 23541 0
23871 23538 0
23871 23342 0
-23871 -23339 -23541 -23538 -23342 0
23861 23344 0
23861 23350 0
23861 23348 0
-23861 -23344 -23350 -23348 0
23869 23348 0
23869 23349 0
23869 23350 0
-23869 -23348 -23349 -23350 0
23875 23352 0
23875 23353 0
-23875 -23352 -23353 0
23859 23360 0
23859 23362 0
23859 23361 0
23859 23363 0
-23859 -23360 -23362 -23361 -23363 0
23359 23360 0
23359 23361 0
23359 23362 0
23359 23363 0
-23359 -23360 -23361 -23362 -23363 0
23379 23365 0
23379 23366 0
-23379 -23365 -23366 0
23367 23747 0
23367 23382 0
-23367 -23747 -23382 0
23455 23753 0
23455 23415 0
-23455 -23753 -23415 0
23373 23415 0
23373 23375 0
23373 23382 0
23373 23404 0
-23373 -23415 -23375 -23382 -23404 0
23378 23379 0
23378 23380 0
-23378 -23379 -23380 0
23381 23382 0
23381 23749 0
-23381 -23382 -23749 0
23445 23415 0
23445 23754 0
-23445 -23415 -23754 0
23444 23717 0
23444 23392 0
-23444 -23717 -23392 0
23457 23718 0
23457 23392 0
-23457 -23718 -23392 0
23439 23394 0
23439 23502 0
-23439 -23394 -23502 0
23396 23455 0
23396 23444 0
-23396 -23455 -23444 0
23399 23445 0
23399 23457 0
-23399 -23445 -23457 0
23745 23403 0
23745 23404 0
-23745 -23403 -23404 0
23440 23719 0
23440 23431 0
-23440 -23719 -23431 0
23448 23722 0
23448 23431 0
-23448 -23722 -23431 0
23466 23725 0
23466 23431 0
-23466 -23725 -23431 0
23451 23415 0
23451 23752 0
-23451 -23415 -23752 0
23475 23728 0
23475 23431 0
-23475 -23728 -23431 0
23493 23731 0
23493 23431 0
-23493 -23731 -23431 0
23499 23734 0
23499 23431 0
-23499 -23734 -23431 0
23481 23737 0
23481 23431 0
-23481 -23737 -23431 0
23508 23740 0
23508 23431 0
-23508 -23740 -23431 0
23447 23433 0
23447 23502 0
-23447 -23433 -23502 0
23435 23696 0
23435 23745 0
-23435 -23696 -23745 0
23438 23439 0
23438 23440 0
-23438 -23439 -23440 0
23441 23450 0
23441 23451 0
23441 23444 0
23441 23445 0
-23441 -23450 -23451 -23444 -23445 0
23446 23447 0
23446 23448 0
-23446 -23447 -23448 0
23449 23450 0
23449 23451 0
23449 23452 0
23449 23453 0
-23449 -23450 -23451 -23452 -23453 0
23454 23455 0
23454 23456 0
23454 23457 0
-23454 -23455 -23456 -23457 0
23465 23459 0
23465 23502 0
-23465 -23459 -23502 0
23805 23762 0
23805 23755 0
-23805 -23762 -23755 0
23464 23465 0
23464 23466 0
-23464 -23465 -23466 0
23474 23468 0
23474 23502 0
-23474 -23468 -23502 0
23480 23471 0
23480 23502 0
-23480 -23471 -23502 0
23473 23474 0
23473 23475 0
-23473 -23474 -23475 0
23476 23477 0
23476 23478 0
-23476 -23477 -23478 0
23479 23480 0
23479 23481 0
-23479 -23480 -23481 0
23492 23483 0
23492 23502 0
-23492 -23483 -23502 0
23807 23768 0
23807 23765 0
-23807 -23768 -23765 0
23498 23489 0
23498 23502 0
-23498 -23489 -23502 0
23491 23492 0
23491 23493 0
-23491 -23492 -23493 0
23809 23774 0
23809 23771 0
-23809 -23774 -23771 0
23497 23498 0
23497 23499 0
-23497 -23498 -23499 0
23507 23501 0
23507 23502 0
-23507 -23501 -23502 0
23811 23786 0
23811 23777 0
-23811 -23786 -23777 0
23506 23507 0
23506 23508 0
-23506 -23507 -23508 0
23813 23792 0
23813 23789 0
-23813 -23792 -23789 0
23815 23780 0
23815 23795 0
-23815 -23780 -23795 0
23817 23798 0
23817 23783 0
-23817 -23798 -23783 0
23819 23627 0
23819 23801 0
-23819 -23627 -23801 0
-23521 -23522 0
-23521 -23523 0
-23521 -23524 0
23521 23522 23523 23524 0
-23525 -23526 0
-23525 -23527 0
-23525 -23528 0
23525 23526 23527 23528 0
-23529 -23530 0
-23529 -23531 0
-23529 -23532 0
23529 23530 23531 23532 0
-23533 -23534 0
-23533 -23535 0
-23533 -23536 0
23533 23534 23535 23536 0
-23537 -23538 0
-23537 -23539 0
23537 23538 23539 0
-23540 -23541 0
-23540 -23542 0
23540 23541 23542 0
-23543 -23544 0
-23543 -23545 0
-23543 -23546 0
23543 23544 23545 23546 0
-23547 -23548 0
-23547 -23549 0
-23547 -23592 0
-23547 -23595 0
23547 23548 23549 23592 23595 0
-23552 -23553 0
-23552 -23554 0
-23552 -23555 0
23552 23553 23554 23555 0
-23556 -23592 0
-23556 -23558 0
23556 23592 23558 0
-23559 -23560 0
-23559 -23561 0
-23559 -23562 0
23559 23560 23561 23562 0
-23563 -23564 0
-23563 -23565 0
-23563 -23566 0
23563 23564 23565 23566 0
-23567 -23568 0
-23567 -23569 0
23567 23568 23569 0
-23570 -23571 0
-23570 -23572 0
23570 23571 23572 0
-23573 -23574 0
-23573 -23575 0
23573 23574 23575 0
-23576 -23577 0
-23576 -23578 0
23576 23577 23578 0
-23579 -23580 0
-23579 -23581 0
23579 23580 23581 0
-23582 -23583 0
-23582 -23584 0
23582 23583 23584 0
-23585 -23586 0
-23585 -23587 0
23585 23586 23587 0
-23588 -23589 0
-23588 -23590 0
23588 23589 23590 0
-23591 -23592 0
-23591 -23593 0
23591 23592 23593 0
-23594 -23595 0
-23594 -23596 0
23594 23595 23596 0
-23597 -23598 0
-23597 -23599 0
23597 23598 23599 0
-23600 -23601 0
-23600 -23602 0
23600 23601 23602 0
-23603 -23604 0
-23603 -23605 0
23603 23604 23605 0
-23606 -23607 0
-23606 -23608 0
23606 23607 23608 0
-23863 -23632 0
-23863 -23611 0
23863 23632 23611 0
-23612 -23613 0
-23612 -23614 0
23612 23613 23614 0
-23615 -23616 0
-23615 -23617 0
23615 23616 23617 0
-23618 -23619 0
-23618 -23620 0
23618 23619 23620 0
-23621 -23622 0
-23621 -23623 0
23621 23622 23623 0
-23624 -23625 0
-23624 -23631 0
23624 23625 23631 0
-23627 -23628 0
-23627 -23629 0
23627 23628 23629 0
-23630 -23631 0
-23630 -23632 0
-23630 -23865 0
23630 23631 23632 23865 0
-23634 -23635 0
-23634 -23636 0
-23634 -23637 0
23634 23635 23636 23637 0
-23638 -23639 0
-23638 -23640 0
-23638 -23641 0
23638 23639 23640 23641 0
-23642 -23643 0
-23642 -23644 0
-23642 -23645 0
23642 23643 23644 23645 0
-23646 -23647 0
-23646 -23648 0
-23646 -23649 0
23646 23647 23648 23649 0
-23650 -23651 0
-23650 -23652 0
-23650 -23653 0
23650 23651 23652 23653 0
-23654 -23655 0
-23654 -23656 0
-23654 -23657 0
23654 23655 23656 23657 0
-23658 -23659 0
-23658 -23660 0
-23658 -23661 0
23658 23659 23660 23661 0
-23662 -23663 0
-23662 -23664 0
23662 23663 23664 0
-23665 -23666 0
-23665 -23667 0
23665 23666 23667 0
-23668 -23669 0
-23668 -23670 0
23668 23669 23670 0
-23671 -23672 0
-23671 -23673 0
23671 23672 23673 0
-23674 -23675 0
-23674 -23676 0
23674 23675 23676 0
-23677 -23678 0
-23677 -23679 0
23677 23678 23679 0
-23680 -23681 0
-23680 -23682 0
23680 23681 23682 0
-23683 -23684 0
-23683 -23685 0
23683 23684 23685 0
-23686 -23687 0
-23686 -23688 0
23686 23687 23688 0
-23689 -23690 0
-23689 -23691 0
23689 23690 23691 0
-23692 -23693 0
-23692 -23694 0
23692 23693 23694 0
-23749 -23696 0
-23749 -23744 0
23749 23696 23744 0
-23698 -23699 0
-23698 -23700 0
23698 23699 23700 0
-23701 -23702 0
-23701 -23703 0
23701 23702 23703 0
-23704 -23705 0
-23704 -23706 0
23704 23705 23706 0
-23707 -23708 0
-23707 -23709 0
23707 23708 23709 0
-23710 -23711 0
-23710 -23712 0
23710 23711 23712 0
-23718 -23714 0
-23718 -23715 0
23718 23714 23715 0
-23716 -23717 0
-23716 -23718 0
23716 23717 23718 0
-23719 -23720 0
-23719 -23721 0
23719 23720 23721 0
-23722 -23723 0
-23722 -23724 0
23722 23723 23724 0
-23725 -23726 0
-23725 -23727 0
23725 23726 23727 0
-23728 -23729 0
-23728 -23730 0
23728 23729 23730 0
-23731 -23732 0
-23731 -23733 0
23731 23732 23733 0
-23734 -23735 0
-23734 -23736 0
23734 23735 23736 0
-23737 -23738 0
-23737 -23739 0
23737 23738 23739 0
-23740 -23741 0
-23740 -23742 0
23740 23741 23742 0
-23748 -23744 0
-23748 -23745 0
23748 23744 23745 0
-23746 -23747 0
-23746 -23748 0
-23746 -23749 0
23746 23747 23748 23749 0
-23750 -23751 0
-23750 -23752 0
-23750 -23753 0
-23750 -23754 0
23750 23751 23752 23753 23754 0
-23755 -23756 0
-23755 -23757 0
23755 23756 23757 0
-23758 -23759 0
-23758 -23760 0
-23758 -23761 0
23758 23759 23760 23761 0
-23762 -23763 0
-23762 -23764 0
23762 23763 23764 0
-23765 -23766 0
-23765 -23767 0
23765 23766 23767 0
-23768 -23769 0
-23768 -23770 0
23768 23769 23770 0
-23771 -23772 0
-23771 -23773 0
23771 23772 23773 0
-23774 -23775 0
-23774 -23776 0
23774 23775 23776 0
-23777 -23778 0
-23777 -23779 0
23777 23778 23779 0
-23780 -23781 0
-23780 -23782 0
23780 23781 23782 0
-23783 -23784 0
-23783 -23785 0
23783 23784 23785 0
-23786 -23787 0
-23786 -23788 0
23786 23787 23788 0
-23789 -23790 0
-23789 -23791 0
23789 23790 23791 0
-23792 -23793 0
-23792 -23794 0
23792 23793 23794 0
-23795 -23796 0
-23795 -23797 0
23795 23796 23797 0
-23798 -23799 0
-23798 -23800 0
23798 23799 23800 0
-23801 -23802 0
-23801 -23803 0
23801 23802 23803 0
-23805 24490 0
23805 -24490 0
-23807 24493 0
23807 -24493 0
-23809 24496 0
23809 -24496 0
-23811 24499 0
23811 -24499 0
-23813 24502 0
23813 -24502 0
-23815 24505 0
23815 -24505 0
-23817 24508 0
23817 -24508 0
-23819 24511 0
23819 -24511 0
-23821 24957 0
23821 -24957 0
-23823 24445 0
23823 -24445 0
-23825 24448 0
23825 -24448 0
-23827 24451 0
23827 -24451 0
-23829 24454 0
23829 -24454 0
-23831 24457 0
23831 -24457 0
-23833 24460 0
23833 -24460 0
-23835 24463 0
23835 -24463 0
-23837 24394 0
23837 -24394 0
-23839 24397 0
23839 -24397 0
-23841 24400 0
23841 -24400 0
-23843 24403 0
23843 -24403 0
-23845 24406 0
23845 -24406 0
-23847 24409 0
23847 -24409 0
-23849 24412 0
23849 -24412 0
-23851 24956 0
23851 -24956 0
-23853 25219 0
23853 -25219 0
-23855 24974 0
23855 -24974 0
-23857 25265 0
23857 -25265 0
-23859 24960 0
23859 -24960 0
-23861 24978 0
23861 -24978 0
-23863 24128 0
23863 -24128 0
-23865 23864 0
23865 -23864 0
-23867 24146 0
23867 -24146 0
-23869 24200 0
23869 -24200 0
-23871 24293 0
23871 -24293 0
-23873 24173 0
23873 -24173 0
-23875 24140 0
23875 -24140 0
-23877 24164 0
23877 -24164 0
24343 24292 0
-24343 -24292 0
25019 24957 0
-25019 -24957 0
25268 24960 0
-25268 -24960 0
25208 25219 0
-25208 -25219 0
24317 24266 0
-24317 -24266 0
24992 23889 0
-24992 -23889 0
25211 24974 0
-25211 -24974 0
25012 25265 0
-25012 -25265 0
25218 24968 0
-25218 -24968 0
25228 24978 0
-25228 -24978 0
24981 24985 0
-24981 -24985 0
24842 24958 0
-24842 -24958 0
25004 25207 0
-25004 -25207 0
25014 25210 0
-25014 -25210 0
25543 25226 0
-25543 -25226 0
25507 25237 0
-25507 -25237 0
25509 25240 0
-25509 -25240 0
25511 25243 0
-25511 -25243 0
25513 25246 0
-25513 -25246 0
25515 25249 0
-25515 -25249 0
25517 25252 0
-25517 -25252 0
25519 25255 0
-25519 -25255 0
25521 25258 0
-25521 -25258 0
25009 25261 0
-25009 -25261 0
25032 25267 0
-25032 -25267 0
23935 25270 0
-23935 -25270 0
25527 25005 0
-25527 -25005 0
25101 23935 0
-25101 -23935 0
23941 23935 0
-23941 -23935 0
24368 25273 0
-24368 -25273 0
23945 25276 0
-23945 -25276 0
25172 23941 0
-25172 -23941 0
24680 23945 0
-24680 -23945 0
23987 23945 0
-23987 -23945 0
25301 25282 0
-25301 -25282 0
24416 25285 0
-24416 -25285 0
25036 25288 0
-25036 -25288 0
23995 25288 0
-23995 -25288 0
24587 24854 0
-24587 -24854 0
24418 24854 0
-24418 -24854 0
24593 24857 0
-24593 -24857 0
24421 24857 0
-24421 -24857 0
24599 24860 0
-24599 -24860 0
24424 24860 0
-24424 -24860 0
24605 24863 0
-24605 -24863 0
24427 24863 0
-24427 -24863 0
24611 24866 0
-24611 -24866 0
24430 24866 0
-24430 -24866 0
24617 24869 0
-24617 -24869 0
24433 24869 0
-24433 -24869 0
24623 24872 0
-24623 -24872 0
24436 24872 0
-24436 -24872 0
24629 24875 0
-24629 -24875 0
24439 24875 0
-24439 -24875 0
24707 23987 0
-24707 -23987 0
25535 25291 0
-25535 -25291 0
24683 25036 0
-24683 -25036 0
24740 23995 0
-24740 -23995 0
24013 23995 0
-24013 -23995 0
24514 24855 0
-24514 -24855 0
24517 24858 0
-24517 -24858 0
24520 24861 0
-24520 -24861 0
24523 24864 0
-24523 -24864 0
24526 24867 0
-24526 -24867 0
24529 24870 0
-24529 -24870 0
24532 24873 0
-24532 -24873 0
24535 24876 0
-24535 -24876 0
24584 24013 0
-24584 -24013 0
24539 24584 0
-24539 -24584 0
24542 24584 0
-24542 -24584 0
24545 24584 0
-24545 -24584 0
24548 24584 0
-24548 -24584 0
24551 24584 0
-24551 -24584 0
24554 24584 0
-24554 -24584 0
24557 24584 0
-24557 -24584 0
24560 24584 0
-24560 -24584 0
25491 25304 0
-25491 -25304 0
25493 25308 0
-25493 -25308 0
25495 25312 0
-25495 -25312 0
25497 25316 0
-25497 -25316 0
25499 25320 0
-25499 -25320 0
25501 25324 0
-25501 -25324 0
25503 25328 0
-25503 -25328 0
24634 24877 0
-24634 -24877 0
24640 24880 0
-24640 -24880 0
24646 24883 0
-24646 -24883 0
24652 24886 0
-24652 -24886 0
24658 24889 0
-24658 -24889 0
24664 24892 0
-24664 -24892 0
24670 24895 0
-24670 -24895 0
24676 24898 0
-24676 -24898 0
25050 24637 0
-25050 -24637 0
25366 24649 0
-25366 -24649 0
25120 24667 0
-25120 -24667 0
25148 24673 0
-25148 -24673 0
24712 25035 0
-24712 -25035 0
25384 24904 0
-25384 -24904 0
24715 24904 0
-24715 -24904 0
24745 25074 0
-24745 -25074 0
25414 25045 0
-25414 -25045 0
24751 25045 0
-24751 -25045 0
24778 25052 0
-24778 -25052 0
24781 25085 0
-24781 -25085 0
24944 24919 0
-24944 -24919 0
24769 24919 0
-24769 -24919 0
24802 24922 0
-24802 -24922 0
25424 25037 0
-25424 -25037 0
25062 25043 0
-25062 -25043 0
24743 25048 0
-24743 -25048 0
25422 25051 0
-25422 -25051 0
24746 25386 0
-24746 -25386 0
25122 25066 0
-25122 -25066 0
24749 24746 0
-24749 -24746 0
25123 25069 0
-25123 -25069 0
24773 25105 0
-24773 -25105 0
25126 25111 0
-25126 -25111 0
24776 25119 0
-24776 -25119 0
24779 25416 0
-24779 -25416 0
24782 25420 0
-24782 -25420 0
24785 24779 0
-24785 -24779 0
25505 25428 0
-25505 -25428 0
24945 25124 0
-24945 -25124 0
24794 24782 0
-24794 -24782 0
24812 25146 0
-24812 -25146 0
-25292 24292 0
-25292 24128 0
25292 -24292 -24128 0
-25230 24247 0
-25230 24463 0
25230 -24247 -24463 0
-25440 24271 0
-25440 25302 0
25440 -24271 -25302 0
-25204 24247 0
-25204 24957 0
25204 -24247 -24957 0
-25289 24292 0
-25289 24140 0
25289 -24292 -24140 0
-25223 24247 0
-25223 24454 0
25223 -24247 -24454 0
-25274 24292 0
-25274 24146 0
25274 -24292 -24146 0
-25193 24244 0
-25193 24412 0
25193 -24244 -24412 0
-25231 24244 0
-25231 24956 0
25231 -24244 -24956 0
-25196 24247 0
-25196 24451 0
25196 -24247 -24451 0
-25452 24283 0
-25452 25302 0
25452 -24283 -25302 0
-25215 24244 0
-25215 24409 0
25215 -24244 -24409 0
-25271 24292 0
-25271 24164 0
25271 -24292 -24164 0
-25194 24259 0
-25194 24508 0
25194 -24259 -24508 0
-25225 24259 0
-25225 24502 0
25225 -24259 -24502 0
-25277 24292 0
-25277 24173 0
25277 -24292 -24173 0
-25192 24247 0
-25192 24460 0
25192 -24247 -24460 0
-25464 24280 0
-25464 25302 0
25464 -24280 -25302 0
-25235 24244 0
-25235 24397 0
25235 -24244 -24397 0
-25198 24259 0
-25198 24499 0
25198 -24259 -24499 0
-25446 24274 0
-25446 25302 0
25446 -24274 -25302 0
-25197 24244 0
-25197 24403 0
25197 -24244 -24403 0
-25216 24259 0
-25216 24505 0
25216 -24259 -24505 0
-25202 24259 0
-25202 24496 0
25202 -24259 -24496 0
-25286 24292 0
-25286 24200 0
25286 -24292 -24200 0
-25470 24286 0
-25470 25302 0
25470 -24286 -25302 0
-25206 24259 0
-25206 24490 0
25206 -24259 -24490 0
-25201 24244 0
-25201 24400 0
25201 -24244 -24400 0
-25242 24271 0
-25242 24266 0
25242 -24271 -24266 0
-25245 24274 0
-25245 24266 0
25245 -24274 -24266 0
-25251 24280 0
-25251 24266 0
25251 -24280 -24266 0
-25254 24283 0
-25254 24266 0
25254 -24283 -24266 0
-25257 24286 0
-25257 24266 0
25257 -24286 -24266 0
-25200 24247 0
-25200 24448 0
25200 -24247 -24448 0
-25205 24244 0
-25205 24394 0
25205 -24244 -24394 0
-25209 24974 0
-25209 25265 0
25209 -24974 -25265 0
-25299 24289 0
-25299 25302 0
25299 -24289 -25302 0
-25260 24289 0
-25260 24266 0
25260 -24289 -24266 0
-25214 24247 0
-25214 24457 0
25214 -24247 -24457 0
-25224 24244 0
-25224 24406 0
25224 -24244 -24406 0
-25234 24247 0
-25234 24445 0
25234 -24247 -24445 0
-25434 24268 0
-25434 25302 0
25434 -24268 -25302 0
-25239 24268 0
-25239 24266 0
25239 -24268 -24266 0
-25232 24259 0
-25232 24511 0
25232 -24259 -24511 0
-25236 24259 0
-25236 24493 0
25236 -24259 -24493 0
-25458 24277 0
-25458 25302 0
25458 -24277 -25302 0
-25248 24277 0
-25248 24266 0
25248 -24277 -24266 0
-25306 24268 0
-25306 25295 0
25306 -24268 -25295 0
-25310 24271 0
-25310 25295 0
25310 -24271 -25295 0
-25314 24274 0
-25314 25295 0
25314 -24274 -25295 0
-25318 24277 0
-25318 25295 0
25318 -24277 -25295 0
-25322 24280 0
-25322 25295 0
25322 -24280 -25295 0
-25326 24283 0
-25326 25295 0
25326 -24283 -25295 0
-25330 24286 0
-25330 25295 0
25330 -24286 -25295 0
-25430 24289 0
-25430 25295 0
25430 -24289 -25295 0
-25283 24292 0
-25283 24293 0
25283 -24292 -24293 0
-25238 24394 0
-25238 24317 0
25238 -24394 -24317 0
-25241 24397 0
-25241 24317 0
25241 -24397 -24317 0
-25244 24400 0
-25244 24317 0
25244 -24400 -24317 0
-25247 24403 0
-25247 24317 0
25247 -24403 -24317 0
-25250 24406 0
-25250 24317 0
25250 -24406 -24317 0
-25253 24409 0
-25253 24317 0
25253 -24409 -24317 0
-25256 24412 0
-25256 24317 0
25256 -24412 -24317 0
-25259 24956 0
-25259 24317 0
25259 -24956 -24317 0
-25269 24964 0
-25269 24988 0
25269 -24964 -24988 0
-25272 24343 0
-25272 25547 0
25272 -24343 -25547 0
-25275 24343 0
-25275 25537 0
25275 -24343 -25537 0
-25278 24343 0
-25278 25543 0
25278 -24343 -25543 0
-25281 25020 0
-25281 25018 0
25281 -25020 -25018 0
-25284 24343 0
-25284 25541 0
25284 -24343 -25541 0
-25287 24343 0
-25287 25539 0
25287 -24343 -25539 0
-25290 24343 0
-25290 25545 0
25290 -24343 -25545 0
-25293 24343 0
-25293 25533 0
25293 -24343 -25533 0
-24854 24490 0
-24854 24368 0
24854 -24490 -24368 0
-24857 24493 0
-24857 24368 0
24857 -24493 -24368 0
-24860 24496 0
-24860 24368 0
24860 -24496 -24368 0
-24863 24499 0
-24863 24368 0
24863 -24499 -24368 0
-24866 24502 0
-24866 24368 0
24866 -24502 -24368 0
-24869 24505 0
-24869 24368 0
24869 -24505 -24368 0
-24872 24508 0
-24872 24368 0
24872 -24508 -24368 0
-24875 24511 0
-24875 24368 0
24875 -24511 -24368 0
-25298 25029 0
-25298 25301 0
25298 -25029 -25301 0
-25305 24445 0
-25305 25301 0
25305 -24445 -25301 0
-25309 24448 0
-25309 25301 0
25309 -24448 -25301 0
-25313 24451 0
-25313 25301 0
25313 -24451 -25301 0
-25317 24454 0
-25317 25301 0
25317 -24454 -25301 0
-25321 24457 0
-25321 25301 0
25321 -24457 -25301 0
-25325 24460 0
-25325 25301 0
25325 -24460 -25301 0
-25329 24463 0
-25329 25301 0
25329 -24463 -25301 0
-24855 24394 0
-24855 24416 0
24855 -24394 -24416 0
-24858 24397 0
-24858 24416 0
24858 -24397 -24416 0
-24861 24400 0
-24861 24416 0
24861 -24400 -24416 0
-24864 24403 0
-24864 24416 0
24864 -24403 -24416 0
-24867 24406 0
-24867 24416 0
24867 -24406 -24416 0
-24870 24409 0
-24870 24416 0
24870 -24409 -24416 0
-24873 24412 0
-24873 24416 0
24873 -24412 -24416 0
-24876 24956 0
-24876 24416 0
24876 -24956 -24416 0
-25334 24418 0
-25334 24707 0
25334 -24418 -24707 0
-25337 24421 0
-25337 24707 0
25337 -24421 -24707 0
-25340 24424 0
-25340 24707 0
25340 -24424 -24707 0
-25343 24427 0
-25343 24707 0
25343 -24427 -24707 0
-25346 24430 0
-25346 24707 0
25346 -24430 -24707 0
-25349 24433 0
-25349 24707 0
25349 -24433 -24707 0
-25352 24436 0
-25352 24707 0
25352 -24436 -24707 0
-25355 24439 0
-25355 24707 0
25355 -24439 -24707 0
-25307 24957 0
-25307 25294 0
25307 -24957 -25294 0
-25311 24445 0
-25311 25294 0
25311 -24445 -25294 0
-25315 24448 0
-25315 25294 0
25315 -24448 -25294 0
-25319 24451 0
-25319 25294 0
25319 -24451 -25294 0
-25323 24454 0
-25323 25294 0
25323 -24454 -25294 0
-25327 24457 0
-25327 25294 0
25327 -24457 -25294 0
-25331 24460 0
-25331 25294 0
25331 -24460 -25294 0
-25431 24463 0
-25431 25294 0
25431 -24463 -25294 0
-25333 24853 0
-25333 24680 0
25333 -24853 -24680 0
-25336 24856 0
-25336 24680 0
25336 -24856 -24680 0
-25339 24859 0
-25339 24680 0
25339 -24859 -24680 0
-25342 24862 0
-25342 24680 0
25342 -24862 -24680 0
-25345 24865 0
-25345 24680 0
25345 -24865 -24680 0
-25348 24868 0
-25348 24680 0
25348 -24868 -24680 0
-25351 24871 0
-25351 24680 0
25351 -24871 -24680 0
-25354 24874 0
-25354 24680 0
25354 -24874 -24680 0
-25426 24490 0
-25426 25300 0
25426 -24490 -25300 0
-25436 24493 0
-25436 25300 0
25436 -24493 -25300 0
-25442 24496 0
-25442 25300 0
25442 -24496 -25300 0
-25448 24499 0
-25448 25300 0
25448 -24499 -25300 0
-25460 24502 0
-25460 25300 0
25460 -24502 -25300 0
-25466 24505 0
-25466 25300 0
25466 -24505 -25300 0
-25454 24508 0
-25454 25300 0
25454 -24508 -25300 0
-25472 24511 0
-25472 25300 0
25472 -24511 -25300 0
-24879 24514 0
-24879 24584 0
24879 -24514 -24584 0
-24882 24517 0
-24882 24584 0
24882 -24517 -24584 0
-24885 24520 0
-24885 24584 0
24885 -24520 -24584 0
-24888 24523 0
-24888 24584 0
24888 -24523 -24584 0
-24891 24526 0
-24891 24584 0
24891 -24526 -24584 0
-24894 24529 0
-24894 24584 0
24894 -24529 -24584 0
-24897 24532 0
-24897 24584 0
24897 -24532 -24584 0
-24900 24535 0
-24900 24584 0
24900 -24535 -24584 0
-24878 24855 0
-24878 24539 0
24878 -24855 -24539 0
-24881 24858 0
-24881 24542 0
24881 -24858 -24542 0
-24884 24861 0
-24884 24545 0
24884 -24861 -24545 0
-24887 24864 0
-24887 24548 0
24887 -24864 -24548 0
-24890 24867 0
-24890 24551 0
24890 -24867 -24551 0
-24893 24870 0
-24893 24554 0
24893 -24870 -24554 0
-24896 24873 0
-24896 24557 0
24896 -24873 -24557 0
-24899 24876 0
-24899 24560 0
24899 -24876 -24560 0
-25391 25332 0
-25391 24584 0
25391 -25332 -24584 0
-25394 25335 0
-25394 24584 0
25394 -25335 -24584 0
-25397 25338 0
-25397 24584 0
25397 -25338 -24584 0
-25400 25341 0
-25400 24584 0
25400 -25341 -24584 0
-25403 25344 0
-25403 24584 0
25403 -25344 -24584 0
-25406 25347 0
-25406 24584 0
25406 -25347 -24584 0
-25409 25350 0
-25409 24584 0
25409 -25350 -24584 0
-25412 25353 0
-25412 24584 0
25412 -25353 -24584 0
-24902 24877 0
-24902 24587 0
24902 -24877 -24587 0
-24637 24877 0
-24637 24854 0
24637 -24877 -24854 0
-24905 24880 0
-24905 24593 0
24905 -24880 -24593 0
-25387 24880 0
-25387 24857 0
25387 -24880 -24857 0
-24908 24883 0
-24908 24599 0
24908 -24883 -24599 0
-24649 24883 0
-24649 24860 0
24649 -24883 -24860 0
-24911 24886 0
-24911 24605 0
24911 -24886 -24605 0
-25417 24886 0
-25417 24863 0
25417 -24886 -24863 0
-24914 24889 0
-24914 24611 0
24914 -24889 -24611 0
-25423 24889 0
-25423 24866 0
25423 -24889 -24866 0
-24917 24892 0
-24917 24617 0
24917 -24892 -24617 0
-24667 24892 0
-24667 24869 0
24667 -24892 -24869 0
-24920 24895 0
-24920 24623 0
24920 -24895 -24623 0
-24673 24895 0
-24673 24872 0
24673 -24895 -24872 0
-24923 24898 0
-24923 24629 0
24923 -24898 -24629 0
-24679 24898 0
-24679 24875 0
24679 -24898 -24875 0
-24903 24634 0
-24903 24854 0
24903 -24634 -24854 0
-25357 24637 0
-25357 24680 0
25357 -24637 -24680 0
-24906 24640 0
-24906 24857 0
24906 -24640 -24857 0
-25360 25387 0
-25360 24680 0
25360 -25387 -24680 0
-24909 24646 0
-24909 24860 0
24909 -24646 -24860 0
-25363 24649 0
-25363 24680 0
25363 -24649 -24680 0
-24912 24652 0
-24912 24863 0
24912 -24652 -24863 0
-25369 25417 0
-25369 24680 0
25369 -25417 -24680 0
-24915 24658 0
-24915 24866 0
24915 -24658 -24866 0
-25372 25423 0
-25372 24680 0
25372 -25423 -24680 0
-24918 24664 0
-24918 24869 0
24918 -24664 -24869 0
-25375 24667 0
-25375 24680 0
25375 -24667 -24680 0
-24921 24670 0
-24921 24872 0
24921 -24670 -24872 0
-25378 24673 0
-25378 24680 0
25378 -24673 -24680 0
-24924 24676 0
-24924 24875 0
24924 -24676 -24875 0
-25381 24679 0
-25381 24680 0
25381 -24679 -24680 0
-24926 25035 0
-24926 24683 0
24926 -25035 -24683 0
-25358 25035 0
-25358 24707 0
25358 -25035 -24707 0
-25361 24904 0
-25361 24707 0
25361 -24904 -24707 0
-25364 25074 0
-25364 24707 0
25364 -25074 -24707 0
-25370 25045 0
-25370 24707 0
25370 -25045 -24707 0
-25373 25052 0
-25373 24707 0
25373 -25052 -24707 0
-25376 25085 0
-25376 24707 0
25376 -25085 -24707 0
-25379 24919 0
-25379 24707 0
25379 -24919 -24707 0
-25382 24922 0
-25382 24707 0
25382 -24922 -24707 0
-25385 25050 0
-25385 25049 0
25385 -25050 -25049 0
-24927 24712 0
-24927 25036 0
24927 -24712 -25036 0
-24933 24715 0
-24933 25048 0
24933 -24715 -25048 0
-25390 25356 0
-25390 24740 0
25390 -25356 -24740 0
-25393 25359 0
-25393 24740 0
25393 -25359 -24740 0
-25396 25362 0
-25396 24740 0
25396 -25362 -24740 0
-25399 25368 0
-25399 24740 0
25399 -25368 -24740 0
-25402 25371 0
-25402 24740 0
25402 -25371 -24740 0
-25405 25374 0
-25405 24740 0
25405 -25374 -24740 0
-25408 25377 0
-25408 24740 0
25408 -25377 -24740 0
-25411 25380 0
-25411 24740 0
25411 -25380 -24740 0
-24932 24904 0
-24932 24743 0
24932 -24904 -24743 0
-24936 24745 0
-24936 24746 0
24936 -24745 -24746 0
-24935 25074 0
-24935 24749 0
24935 -25074 -24749 0
-24939 24751 0
-24939 25105 0
24939 -24751 -25105 0
-25421 25052 0
-25421 25418 0
25421 -25052 -25418 0
-25427 25108 0
-25427 25535 0
25427 -25108 -25535 0
-25429 25108 0
-25429 25301 0
25429 -25108 -25301 0
-25433 25116 0
-25433 25301 0
25433 -25116 -25301 0
-25437 25116 0
-25437 25535 0
25437 -25116 -25535 0
-24942 24769 0
-24942 25119 0
24942 -24769 -25119 0
-24938 25045 0
-24938 24773 0
24938 -25045 -24773 0
-24941 24919 0
-24941 24776 0
24941 -24919 -24776 0
-24948 24778 0
-24948 24779 0
24948 -24778 -24779 0
-24951 24781 0
-24951 24782 0
24951 -24781 -24782 0
-24947 25052 0
-24947 24785 0
24947 -25052 -24785 0
-25439 25134 0
-25439 25301 0
25439 -25134 -25301 0
-25443 25134 0
-25443 25535 0
25443 -25134 -25535 0
-24950 25085 0
-24950 24794 0
24950 -25085 -24794 0
-25445 25143 0
-25445 25301 0
25445 -25143 -25301 0
-25449 25143 0
-25449 25535 0
25449 -25143 -25535 0
-24954 24802 0
-24954 25146 0
24954 -24802 -25146 0
-25451 25149 0
-25451 25301 0
25451 -25149 -25301 0
-25455 25149 0
-25455 25535 0
25455 -25149 -25535 0
-24953 24922 0
-24953 24812 0
24953 -24922 -24812 0
-25457 25161 0
-25457 25301 0
25457 -25161 -25301 0
-25461 25161 0
-25461 25535 0
25461 -25161 -25535 0
-25463 25167 0
-25463 25301 0
25463 -25167 -25301 0
-25467 25167 0
-25467 25535 0
25467 -25167 -25535 0
-25469 25176 0
-25469 25301 0
25469 -25176 -25301 0
-25473 25176 0
-25473 25535 0
25473 -25176 -25535 0
24983 -24956 0
24983 -24957 0
-24983 24956 24957 0
24987 -24974 0
24987 -25012 0
-24987 24974 25012 0
25023 -24992 0
25023 -25228 0
-25023 24992 25228 0
24994 -24981 0
24994 -24842 0
-24994 24981 24842 0
25003 -25211 0
25003 -24964 0
-25003 25211 24964 0
25006 -25261 0
25006 -25266 0
-25006 25261 25266 0
25022 -25014 0
25022 -25019 0
25022 -24978 0
-25022 25014 25019 24978 0
24853 -24854 0
24853 -24855 0
-24853 24854 24855 0
24856 -24857 0
24856 -24858 0
-24856 24857 24858 0
24859 -24860 0
24859 -24861 0
-24859 24860 24861 0
24862 -24863 0
24862 -24864 0
-24862 24863 24864 0
24865 -24866 0
24865 -24867 0
-24865 24866 24867 0
24868 -24869 0
24868 -24870 0
-24868 24869 24870 0
24871 -24872 0
24871 -24873 0
-24871 24872 24873 0
24874 -24875 0
24874 -24876 0
-24874 24875 24876 0
24877 -24878 0
24877 -24879 0
-24877 24878 24879 0
24880 -24881 0
24880 -24882 0
-24880 24881 24882 0
24883 -24884 0
24883 -24885 0
-24883 24884 24885 0
24886 -24887 0
24886 -24888 0
-24886 24887 24888 0
24889 -24890 0
24889 -24891 0
-24889 24890 24891 0
24892 -24893 0
24892 -24894 0
-24892 24893 24894 0
24895 -24896 0
24895 -24897 0
-24895 24896 24897 0
24898 -24899 0
24898 -24900 0
-24898 24899 24900 0
25035 -24902 0
25035 -24903 0
-25035 24902 24903 0
24904 -24905 0
24904 -24906 0
-24904 24905 24906 0
25074 -24908 0
25074 -24909 0
-25074 24908 24909 0
25045 -24911 0
25045 -24912 0
-25045 24911 24912 0
25052 -24914 0
25052 -24915 0
-25052 24914 24915 0
25085 -24917 0
25085 -24918 0
-25085 24917 24918 0
24919 -24920 0
24919 -24921 0
-24919 24920 24921 0
24922 -24923 0
24922 -24924 0
-24922 24923 24924 0
25064 -24926 0
25064 -24927 0
-25064 24926 24927 0
25073 -25387 0
25073 -25388 0
-25073 25387 25388 0
25103 -24932 0
25103 -24933 0
-25103 24932 24933 0
25129 -24935 0
25129 -24936 0
-25129 24935 24936 0
25138 -24938 0
25138 -24939 0
-25138 24938 24939 0
25141 -24941 0
25141 -24942 0
-25141 24941 24942 0
25147 -24944 0
25147 -24945 0
-25147 24944 24945 0
25153 -24947 0
25153 -24948 0
-25153 24947 24948 0
25159 -24950 0
25159 -24951 0
-25159 24950 24951 0
25171 -24953 0
25171 -24954 0
-25171 24953 24954 0
24985 24956 0
24985 24957 0
-24985 -24956 -24957 0
24958 25219 0
24958 24960 0
-24958 -25219 -24960 0
25212 25219 0
25212 25265 0
-25212 -25219 -25265 0
24964 25208 0
24964 25265 0
-24964 -25208 -25265 0
25263 24968 0
25263 24992 0
-25263 -24968 -24992 0
25266 25208 0
25266 25211 0
-25266 -25208 -25211 0
24988 24974 0
24988 25012 0
-24988 -24974 -25012 0
25547 25218 0
25547 24978 0
-25547 -25218 -24978 0
25030 25212 0
25030 24981 0
-25030 -25212 -24981 0
25033 24983 0
25033 25210 0
25033 24985 0
-25033 -24983 -25210 -24985 0
25525 24987 0
25525 24988 0
-25525 -24987 -24988 0
25537 25211 0
25537 25217 0
25537 24992 0
-25537 -25211 -25217 -24992 0
25031 24994 0
25031 25211 0
-25031 -24994 -25211 0
25020 25262 0
25020 25264 0
-25020 -25262 -25264 0
25018 25263 0
25018 25264 0
-25018 -25263 -25264 0
25523 25003 0
25523 25004 0
-25523 -25003 -25004 0
25005 25006 0
25005 25012 0
-25005 -25006 -25012 0
25541 25009 0
25541 25211 0
25541 25208 0
25541 25012 0
-25541 -25009 -25211 -25208 -25012 0
25531 25014 0
25531 25020 0
25531 25018 0
-25531 -25014 -25020 -25018 0
25539 25018 0
25539 25019 0
25539 25020 0
-25539 -25018 -25019 -25020 0
25545 25022 0
25545 25023 0
-25545 -25022 -25023 0
25529 25030 0
25529 25032 0
25529 25031 0
25529 25033 0
-25529 -25030 -25032 -25031 -25033 0
25029 25030 0
25029 25031 0
25029 25032 0
25029 25033 0
-25029 -25030 -25031 -25032 -25033 0
25049 25035 0
25049 25036 0
-25049 -25035 -25036 0
25037 25417 0
25037 25052 0
-25037 -25417 -25052 0
25125 25423 0
25125 25085 0
-25125 -25423 -25085 0
25043 25085 0
25043 25045 0
25043 25052 0
25043 25074 0
-25043 -25085 -25045 -25052 -25074 0
25048 25049 0
25048 25050 0
-25048 -25049 -25050 0
25051 25052 0
25051 25419 0
-25051 -25052 -25419 0
25115 25085 0
25115 25424 0
-25115 -25085 -25424 0
25114 25387 0
25114 25062 0
-25114 -25387 -25062 0
25127 25388 0
25127 25062 0
-25127 -25388 -25062 0
25109 25064 0
25109 25172 0
-25109 -25064 -25172 0
25066 25125 0
25066 25114 0
-25066 -25125 -25114 0
25069 25115 0
25069 25127 0
-25069 -25115 -25127 0
25415 25073 0
25415 25074 0
-25415 -25073 -25074 0
25110 25389 0
25110 25101 0
-25110 -25389 -25101 0
25118 25392 0
25118 25101 0
-25118 -25392 -25101 0
25136 25395 0
25136 25101 0
-25136 -25395 -25101 0
25121 25085 0
25121 25422 0
-25121 -25085 -25422 0
25145 25398 0
25145 25101 0
-25145 -25398 -25101 0
25163 25401 0
25163 25101 0
-25163 -25401 -25101 0
25169 25404 0
25169 25101 0
-25169 -25404 -25101 0
25151 25407 0
25151 25101 0
-25151 -25407 -25101 0
25178 25410 0
25178 25101 0
-25178 -25410 -25101 0
25117 25103 0
25117 25172 0
-25117 -25103 -25172 0
25105 25366 0
25105 25415 0
-25105 -25366 -25415 0
25108 25109 0
25108 25110 0
-25108 -25109 -25110 0
25111 25120 0
25111 25121 0
25111 25114 0
25111 25115 0
-25111 -25120 -25121 -25114 -25115 0
25116 25117 0
25116 25118 0
-25116 -25117 -25118 0
25119 25120 0
25119 25121 0
25119 25122 0
25119 25123 0
-25119 -25120 -25121 -25122 -25123 0
25124 25125 0
25124 25126 0
25124 25127 0
-25124 -25125 -25126 -25127 0
25135 25129 0
25135 25172 0
-25135 -25129 -25172 0
25475 25432 0
25475 25425 0
-25475 -25432 -25425 0
25134 25135 0
25134 25136 0
-25134 -25135 -25136 0
25144 25138 0
25144 25172 0
-25144 -25138 -25172 0
25150 25141 0
25150 25172 0
-25150 -25141 -25172 0
25143 25144 0
25143 25145 0
-25143 -25144 -25145 0
25146 25147 0
25146 25148 0
-25146 -25147 -25148 0
25149 25150 0
25149 25151 0
-25149 -25150 -25151 0
25162 25153 0
25162 25172 0
-25162 -25153 -25172 0
25477 25438 0
25477 25435 0
-25477 -25438 -25435 0
25168 25159 0
25168 25172 0
-25168 -25159 -25172 0
25161 25162 0
25161 25163 0
-25161 -25162 -25163 0
25479 25444 0
25479 25441 0
-25479 -25444 -25441 0
25167 25168 0
25167 25169 0
-25167 -25168 -25169 0
25177 25171 0
25177 25172 0
-25177 -25171 -25172 0
25481 25456 0
25481 25447 0
-25481 -25456 -25447 0
25176 25177 0
25176 25178 0
-25176 -25177 -25178 0
25483 25462 0
25483 25459 0
-25483 -25462 -25459 0
25485 25450 0
25485 25465 0
-25485 -25450 -25465 0
25487 25468 0
25487 25453 0
-25487 -25468 -25453 0
25489 25297 0
25489 25471 0
-25489 -25297 -25471 0
-25191 -25192 0
-25191 -25193 0
-25191 -25194 0
25191 25192 25193 25194 0
-25195 -25196 0
-25195 -25197 0
-25195 -25198 0
25195 25196 25197 25198 0
-25199 -25200 0
-25199 -25201 0
-25199 -25202 0
25199 25200 25201 25202 0
-25203 -25204 0
-25203 -25205 0
-25203 -25206 0
25203 25204 25205 25206 0
-25207 -25208 0
-25207 -25209 0
25207 25208 25209 0
-25210 -25211 0
-25210 -25212 0
25210 25211 25212 0
-25213 -25214 0
-25213 -25215 0
-25213 -25216 0
25213 25214 25215 25216 0
-25217 -25218 0
-25217 -25219 0
-25217 -25262 0
-25217 -25265 0
25217 25218 25219 25262 25265 0
-25222 -25223 0
-25222 -25224 0
-25222 -25225 0
25222 25223 25224 25225 0
-25226 -25262 0
-25226 -25228 0
25226 25262 25228 0
-25229 -25230 0
-25229 -25231 0
-25229 -25232 0
25229 25230 25231 25232 0
-25233 -25234 0
-25233 -25235 0
-25233 -25236 0
25233 25234 25235 25236 0
-25237 -25238 0
-25237 -25239 0
25237 25238 25239 0
-25240 -25241 0
-25240 -25242 0
25240 25241 25242 0
-25243 -25244 0
-25243 -25245 0
25243 25244 25245 0
-25246 -25247 0
-25246 -25248 0
25246 25247 25248 0
-25249 -25250 0
-25249 -25251 0
25249 25250 25251 0
-25252 -25253 0
-25252 -25254 0
25252 25253 25254 0
-25255 -25256 0
-25255 -25257 0
25255 25256 25257 0
-25258 -25259 0
-25258 -25260 0
25258 25259 25260 0
-25261 -25262 0
-25261 -25263 0
25261 25262 25263 0
-25264 -25265 0
-25264 -25266 0
25264 25265 25266 0
-25267 -25268 0
-25267 -25269 0
25267 25268 25269 0
-25270 -25271 0
-25270 -25272 0
25270 25271 25272 0
-25273 -25274 0
-25273 -25275 0
25273 25274 25275 0
-25276 -25277 0
-25276 -25278 0
25276 25277 25278 0
-25533 -25302 0
-25533 -25281 0
25533 25302 25281 0
-25282 -25283 0
-25282 -25284 0
25282 25283 25284 0
-25285 -25286 0
-25285 -25287 0
25285 25286 25287 0
-25288 -25289 0
-25288 -25290 0
25288 25289 25290 0
-25291 -25292 0
-25291 -25293 0
25291 25292 25293 0
-25294 -25295 0
-25294 -25301 0
25294 25295 25301 0
-25297 -25298 0
-25297 -25299 0
25297 25298 25299 0
-25300 -25301 0
-25300 -25302 0
-25300 -25535 0
25300 25301 25302 25535 0
-25304 -25305 0
-25304 -25306 0
-25304 -25307 0
25304 25305 25306 25307 0
-25308 -25309 0
-25308 -25310 0
-25308 -25311 0
25308 25309 25310 25311 0
-25312 -25313 0
-25312 -25314 0
-25312 -25315 0
25312 25313 25314 25315 0
-25316 -25317 0
-25316 -25318 0
-25316 -25319 0
25316 25317 25318 25319 0
-25320 -25321 0
-25320 -25322 0
-25320 -25323 0
25320 25321 25322 25323 0
-25324 -25325 0
-25324 -25326 0
-25324 -25327 0
25324 25325 25326 25327 0
-25328 -25329 0
-25328 -25330 0
-25328 -25331 0
25328 25329 25330 25331 0
-25332 -25333 0
-25332 -25334 0
25332 25333 25334 0
-25335 -25336 0
-25335 -25337 0
25335 25336 25337 0
-25338 -25339 0
-25338 -25340 0
25338 25339 25340 0
-25341 -25342 0
-25341 -25343 0
25341 25342 25343 0
-25344 -25345 0
-25344 -25346 0
25344 25345 25346 0
-25347 -25348 0
-25347 -25349 0
25347 25348 25349 0
-25350 -25351 0
-25350 -25352 0
25350 25351 25352 0
-25353 -25354 0
-25353 -25355 0
25353 25354 25355 0
-25356 -25357 0
-25356 -25358 0
25356 25357 25358 0
-25359 -25360 0
-25359 -25361 0
25359 25360 25361 0
-25362 -25363 0
-25362 -25364 0
25362 25363 25364 0
-25419 -25366 0
-25419 -25414 0
25419 25366 25414 0
-25368 -25369 0
-25368 -25370 0
25368 25369 25370 0
-25371 -25372 0
-25371 -25373 0
25371 25372 25373 0
-25374 -25375 0
-25374 -25376 0
25374 25375 25376 0
-25377 -25378 0
-25377 -25379 0
25377 25378 25379 0
-25380 -25381 0
-25380 -25382 0
25380 25381 25382 0
-25388 -25384 0
-25388 -25385 0
25388 25384 25385 0
-25386 -25387 0
-25386 -25388 0
25386 25387 25388 0
-25389 -25390 0
-25389 -25391 0
25389 25390 25391 0
-25392 -25393 0
-25392 -25394 0
25392 25393 25394 0
-25395 -25396 0
-25395 -25397 0
25395 25396 25397 0
-25398 -25399 0
-25398 -25400 0
25398 25399 25400 0
-25401 -25402 0
-25401 -25403 0
25401 25402 25403 0
-25404 -25405 0
-25404 -25406 0
25404 25405 25406 0
-25407 -25408 0
-25407 -25409 0
25407 25408 25409 0
-25410 -25411 0
-25410 -25412 0
25410 25411 25412 0
-25418 -25414 0
-25418 -25415 0
25418 25414 25415 0
-25416 -25417 0
-25416 -25418 0
-25416 -25419 0
25416 25417 25418 25419 0
-25420 -25421 0
-25420 -25422 0
-25420 -25423 0
-25420 -25424 0
25420 25421 25422 25423 25424 0
-25425 -25426 0
-25425 -25427 0
25425 25426 25427 0
-25428 -25429 0
-25428 -25430 0
-25428 -25431 0
25428 25429 25430 25431 0
-25432 -25433 0
-25432 -25434 0
25432 25433 25434 0
-25435 -25436 0
-25435 -25437 0
25435 25436 25437 0
-25438 -25439 0
-25438 -25440 0
25438 25439 25440 0
-25441 -25442 0
-25441 -25443 0
25441 25442 25443 0
-25444 -25445 0
-25444 -25446 0
25444 25445 25446 0
-25447 -25448 0
-25447 -25449 0
25447 25448 25449 0
-25450 -25451 0
-25450 -25452 0
25450 25451 25452 0
-25453 -25454 0
-25453 -25455 0
25453 25454 25455 0
-25456 -25457 0
-25456 -25458 0
25456 25457 25458 0
-25459 -25460 0
-25459 -25461 0
25459 25460 25461 0
-25462 -25463 0
-25462 -25464 0
25462 25463 25464 0
-25465 -25466 0
-25465 -25467 0
25465 25466 25467 0
-25468 -25469 0
-25468 -25470 0
25468 25469 25470 0
-25471 -25472 0
-25471 -25473 0
25471 25472 25473 0
-25475 26160 0
25475 -26160 0
-25477 26163 0
25477 -26163 0
-25479 26166 0
25479 -26166 0
-25481 26169 0
25481 -26169 0
-25483 26172 0
25483 -26172 0
-25485 26175 0
25485 -26175 0
-25487 26178 0
25487 -26178 0
-25489 26181 0
25489 -26181 0
-25491 26627 0
25491 -26627 0
-25493 26115 0
25493 -26115 0
-25495 26118 0
25495 -26118 0
-25497 26121 0
25497 -26121 0
-25499 26124 0
25499 -26124 0
-25501 26127 0
25501 -26127 0
-25503 26130 0
25503 -26130 0
-25505 26133 0
25505 -26133 0
-25507 26064 0
25507 -26064 0
-25509 26067 0
25509 -26067 0
-25511 26070 0
25511 -26070 0
-25513 26073 0
25513 -26073 0
-25515 26076 0
25515 -26076 0
-25517 26079 0
25517 -26079 0
-25519 26082 0
25519 -26082 0
-25521 26626 0
25521 -26626 0
-25523 26889 0
25523 -26889 0
-25525 26644 0
25525 -26644 0
-25527 26935 0
25527 -26935 0
-25529 26630 0
25529 -26630 0
-25531 26648 0
25531 -26648 0
-25533 25798 0
25533 -25798 0
-25535 25534 0
25535 -25534 0
-25537 25816 0
25537 -25816 0
-25539 25870 0
25539 -25870 0
-25541 25963 0
25541 -25963 0
-25543 25843 0
25543 -25843 0
-25545 25810 0
25545 -25810 0
-25547 25834 0
25547 -25834 0
26013 25962 0
-26013 -25962 0
26689 26627 0
-26689 -26627 0
26938 26630 0
-26938 -26630 0
26878 26889 0
-26878 -26889 0
25987 25936 0
-25987 -25936 0
26662 25559 0
-26662 -25559 0
26881 26644 0
-26881 -26644 0
26682 26935 0
-26682 -26935 0
26888 26638 0
-26888 -26638 0
26898 26648 0
-26898 -26648 0
26651 26655 0
-26651 -26655 0
26512 26628 0
-26512 -26628 0
26674 26877 0
-26674 -26877 0
26684 26880 0
-26684 -26880 0
27213 26896 0
-27213 -26896 0
27177 26907 0
-27177 -26907 0
27179 26910 0
-27179 -26910 0
27181 26913 0
-27181 -26913 0
27183 26916 0
-27183 -26916 0
27185 26919 0
-27185 -26919 0
27187 26922 0
-27187 -26922 0
27189 26925 0
-27189 -26925 0
27191 26928 0
-27191 -26928 0
26679 26931 0
-26679 -26931 0
26702 26937 0
-26702 -26937 0
25605 26940 0
-25605 -26940 0
27197 26675 0
-27197 -26675 0
26771 25605 0
-26771 -25605 0
25611 25605 0
-25611 -25605 0
26038 26943 0
-26038 -26943 0
25615 26946 0
-25615 -26946 0
26842 25611 0
-26842 -25611 0
26350 25615 0
-26350 -25615 0
25657 25615 0
-25657 -25615 0
26971 26952 0
-26971 -26952 0
26086 26955 0
-26086 -26955 0
26706 26958 0
-26706 -26958 0
25665 26958 0
-25665 -26958 0
26257 26524 0
-26257 -26524 0
26088 26524 0
-26088 -26524 0
26263 26527 0
-26263 -26527 0
26091 26527 0
-26091 -26527 0
26269 26530 0
-26269 -26530 0
26094 26530 0
-26094 -26530 0
26275 26533 0
-26275 -26533 0
26097 26533 0
-26097 -26533 0
26281 26536 0
-26281 -26536 0
26100 26536 0
-26100 -26536 0
26287 26539 0
-26287 -26539 0
26103 26539 0
-26103 -26539 0
26293 26542 0
-26293 -26542 0
26106 26542 0
-26106 -26542 0
26299 26545 0
-26299 -26545 0
26109 26545 0
-26109 -26545 0
26377 25657 0
-26377 -25657 0
27205 26961 0
-27205 -26961 0
26353 26706 0
-26353 -26706 0
26410 25665 0
-26410 -25665 0
25683 25665 0
-25683 -25665 0
26184 26525 0
-26184 -26525 0
26187 26528 0
-26187 -26528 0
26190 26531 0
-26190 -26531 0
26193 26534 0
-26193 -26534 0
26196 26537 0
-26196 -26537 0
26199 26540 0
-26199 -26540 0
26202 26543 0
-26202 -26543 0
26205 26546 0
-26205 -26546 0
26254 25683 0
-26254 -25683 0
26209 26254 0
-26209 -26254 0
26212 26254 0
-26212 -26254 0
26215 26254 0
-26215 -26254 0
26218 26254 0
-26218 -26254 0
26221 26254 0
-26221 -26254 0
26224 26254 0
-26224 -26254 0
26227 26254 0
-26227 -26254 0
26230 26254 0
-26230 -26254 0
27161 26974 0
-27161 -26974 0
27163 26978 0
-27163 -26978 0
27165 26982 0
-27165 -26982 0
27167 26986 0
-27167 -26986 0
27169 26990 0
-27169 -26990 0
27171 26994 0
-27171 -26994 0
27173 26998 0
-27173 -26998 0
26304 26547 0
-26304 -26547 0
26310 26550 0
-26310 -26550 0
26316 26553 0
-26316 -26553 0
26322 26556 0
-26322 -26556 0
26328 26559 0
-26328 -26559 0
26334 26562 0
-26334 -26562 0
26340 26565 0
-26340 -26565 0
26346 26568 0
-26346 -26568 0
26720 26307 0
-26720 -26307 0
27036 26319 0
-27036 -26319 0
26790 26337 0
-26790 -26337 0
26818 26343 0
-26818 -26343 0
26382 26705 0
-26382 -26705 0
27054 26574 0
-27054 -26574 0
26385 26574 0
-26385 -26574 0
26415 26744 0
-26415 -26744 0
27084 26715 0
-27084 -26715 0
26421 26715 0
-26421 -26715 0
26448 26722 0
-26448 -26722 0
26451 26755 0
-26451 -26755 0
26614 26589 0
-26614 -26589 0
26439 26589 0
-26439 -26589 0
26472 26592 0
-26472 -26592 0
27094 26707 0
-27094 -26707 0
26732 26713 0
-26732 -26713 0
26413 26718 0
-26413 -26718 0
27092 26721 0
-27092 -26721 0
26416 27056 0
-26416 -27056 0
26792 26736 0
-26792 -26736 0
26419 26416 0
-26419 -26416 0
26793 26739 0
-26793 -26739 0
26443 26775 0
-26443 -26775 0
26796 26781 0
-26796 -26781 0
26446 26789 0
-26446 -26789 0
26449 27086 0
-26449 -27086 0
26452 27090 0
-26452 -27090 0
26455 26449 0
-26455 -26449 0
27175 27098 0
-27175 -27098 0
26615 26794 0
-26615 -26794 0
26464 26452 0
-26464 -26452 0
26482 26816 0
-26482 -26816 0
-26962 25962 0
-26962 25798 0
26962 -25962 -25798 0
-26900 25917 0
-26900 26133 0
26900 -25917 -26133 0
-27110 25941 0
-27110 26972 0
27110 -25941 -26972 0
-26874 25917 0
-26874 26627 0
26874 -25917 -26627 0
-26959 25962 0
-26959 25810 0
26959 -25962 -25810 0
-26893 25917 0
-26893 26124 0
26893 -25917 -26124 0
-26944 25962 0
-26944 25816 0
26944 -25962 -25816 0
-26863 25914 0
-26863 26082 0
26863 -25914 -26082 0
-26901 25914 0
-26901 26626 0
26901 -25914 -26626 0
-26866 25917 0
-26866 26121 0
26866 -25917 -26121 0
-27122 25953 0
-27122 26972 0
27122 -25953 -26972 0
-26885 25914 0
-26885 26079 0
26885 -25914 -26079 0
-26941 25962 0
-26941 25834 0
26941 -25962 -25834 0
-26864 25929 0
-26864 26178 0
26864 -25929 -26178 0
-26895 25929 0
-26895 26172 0
26895 -25929 -26172 0
-26947 25962 0
-26947 25843 0
26947 -25962 -25843 0
-26862 25917 0
-26862 26130 0
26862 -25917 -26130 0
-27134 25950 0
-27134 26972 0
27134 -25950 -26972 0
-26905 25914 0
-26905 26067 0
26905 -25914 -26067 0
-26868 25929 0
-26868 26169 0
26868 -25929 -26169 0
-27116 25944 0
-27116 26972 0
27116 -25944 -26972 0
-26867 25914 0
-26867 26073 0
26867 -25914 -26073 0
-26886 25929 0
-26886 26175 0
26886 -25929 -26175 0
-26872 25929 0
-26872 26166 0
26872 -25929 -26166 0
-26956 25962 0
-26956 25870 0
26956 -25962 -25870 0
-27140 25956 0
-27140 26972 0
27140 -25956 -26972 0
-26876 25929 0
-26876 26160 0
26876 -25929 -26160 0
-26871 25914 0
-26871 26070 0
26871 -25914 -26070 0
-26912 25941 0
-26912 25936 0
26912 -25941 -25936 0
-26915 25944 0
-26915 25936 0
26915 -25944 -25936 0
-26921 25950 0
-26921 25936 0
26921 -25950 -25936 0
-26924 25953 0
-26924 25936 0
26924 -25953 -25936 0
-26927 25956 0
-26927 25936 0
26927 -25956 -25936 0
-26870 25917 0
-26870 26118 0
26870 -25917 -26118 0
-26875 25914 0
-26875 26064 0
26875 -25914 -26064 0
-26879 26644 0
-26879 26935 0
26879 -26644 -26935 0
-26969 25959 0
-26969 26972 0
26969 -25959 -26972 0
-26930 25959 0
-26930 25936 0
26930 -25959 -25936 0
-26884 25917 0
-26884 26127 0
26884 -25917 -26127 0
-26894 25914 0
-26894 26076 0
26894 -25914 -26076 0
-26904 25917 0
-26904 26115 0
26904 -25917 -26115 0
-27104 25938 0
-27104 26972 0
27104 -25938 -26972 0
-26909 25938 0
-26909 25936 0
26909 -25938 -25936 0
-26902 25929 0
-26902 26181 0
26902 -25929 -26181 0
-26906 25929 0
-26906 26163 0
26906 -25929 -26163 0
-27128 25947 0
-27128 26972 0
27128 -25947 -26972 0
-26918 25947 0
-26918 25936 0
26918 -25947 -25936 0
-26976 25938 0
-26976 26965 0
26976 -25938 -26965 0
-26980 25941 0
-26980 26965 0
26980 -25941 -26965 0
-26984 25944 0
-26984 26965 0
26984 -25944 -26965 0
-26988 25947 0
-26988 26965 0
26988 -25947 -26965 0
-26992 25950 0
-26992 26965 0
26992 -25950 -26965 0
-26996 25953 0
-26996 26965 0
26996 -25953 -26965 0
-27000 25956 0
-27000 26965 0
27000 -25956 -26965 0
-27100 25959 0
-27100 26965 0
27100 -25959 -26965 0
-26953 25962 0
-26953 25963 0
26953 -25962 -25963 0
-26908 26064 0
-26908 25987 0
26908 -26064 -25987 0
-26911 26067 0
-26911 25987 0
26911 -26067 -25987 0
-26914 26070 0
-26914 25987 0
26914 -26070 -25987 0
-26917 26073 0
-26917 25987 0
26917 -26073 -25987 0
-26920 26076 0
-26920 25987 0
26920 -26076 -25987 0
-26923 26079 0
-26923 25987 0
26923 -26079 -25987 0
-26926 26082 0
-26926 25987 0
26926 -26082 -25987 0
-26929 26626 0
-26929 25987 0
26929 -26626 -25987 0
-26939 26634 0
-26939 26658 0
26939 -26634 -26658 0
-26942 26013 0
-26942 27217 0
26942 -26013 -27217 0
-26945 26013 0
-26945 27207 0
26945 -26013 -27207 0
-26948 26013 0
-26948 27213 0
26948 -26013 -27213 0
-26951 26690 0
-26951 26688 0
26951 -26690 -26688 0
-26954 26013 0
-26954 27211 0
26954 -26013 -27211 0
-26957 26013 0
-26957 27209 0
26957 -26013 -27209 0
-26960 26013 0
-26960 27215 0
26960 -26013 -27215 0
-26963 26013 0
-26963 27203 0
26963 -26013 -27203 0
-26524 26160 0
-26524 26038 0
26524 -26160 -26038 0
-26527 26163 0
-26527 26038 0
26527 -26163 -26038 0
-26530 26166 0
-26530 26038 0
26530 -26166 -26038 0
-26533 26169 0
-26533 26038 0
26533 -26169 -26038 0
-26536 26172 0
-26536 26038 0
26536 -26172 -26038 0
-26539 26175 0
-26539 26038 0
26539 -26175 -26038 0
-26542 26178 0
-26542 26038 0
26542 -26178 -26038 0
-26545 26181 0
-26545 26038 0
26545 -26181 -26038 0
-26968 26699 0
-26968 26971 0
26968 -26699 -26971 0
-26975 26115 0
-26975 26971 0
26975 -26115 -26971 0
-26979 26118 0
-26979 26971 0
26979 -26118 -26971 0
-26983 26121 0
-26983 26971 0
26983 -26121 -26971 0
-26987 26124 0
-26987 26971 0
26987 -26124 -26971 0
-26991 26127 0
-26991 26971 0
26991 -26127 -26971 0
-26995 26130 0
-26995 26971 0
26995 -26130 -26971 0
-26999 26133 0
-26999 26971 0
26999 -26133 -26971 0
-26525 26064 0
-26525 26086 0
26525 -26064 -26086 0
-26528 26067 0
-26528 26086 0
26528 -26067 -26086 0
-26531 26070 0
-26531 26086 0
26531 -26070 -26086 0
-26534 26073 0
-26534 26086 0
26534 -26073 -26086 0
-26537 26076 0
-26537 26086 0
26537 -26076 -26086 0
-26540 26079 0
-26540 26086 0
26540 -26079 -26086 0
-26543 26082 0
-26543 26086 0
26543 -26082 -26086 0
-26546 26626 0
-26546 26086 0
26546 -26626 -26086 0
-27004 26088 0
-27004 26377 0
27004 -26088 -26377 0
-27007 26091 0
-27007 26377 0
27007 -26091 -26377 0
-27010 26094 0
-27010 26377 0
27010 -26094 -26377 0
-27013 26097 0
-27013 26377 0
27013 -26097 -26377 0
-27016 26100 0
-27016 26377 0
27016 -26100 -26377 0
-27019 26103 0
-27019 26377 0
27019 -26103 -26377 0
-27022 26106 0
-27022 26377 0
27022 -26106 -26377 0
-27025 26109 0
-27025 26377 0
27025 -26109 -26377 0
-26977 26627 0
-26977 26964 0
26977 -26627 -26964 0
-26981 26115 0
-26981 26964 0
26981 -26115 -26964 0
-26985 26118 0
-26985 26964 0
26985 -26118 -26964 0
-26989 26121 0
-26989 26964 0
26989 -26121 -26964 0
-26993 26124 0
-26993 26964 0
26993 -26124 -26964 0
-26997 26127 0
-26997 26964 0
26997 -26127 -26964 0
-27001 26130 0
-27001 26964 0
27001 -26130 -26964 0
-27101 26133 0
-27101 26964 0
27101 -26133 -26964 0
-27003 26523 0
-27003 26350 0
27003 -26523 -26350 0
-27006 26526 0
-27006 26350 0
27006 -26526 -26350 0
-27009 26529 0
-27009 26350 0
27009 -26529 -26350 0
-27012 26532 0
-27012 26350 0
27012 -26532 -26350 0
-27015 26535 0
-27015 26350 0
27015 -26535 -26350 0
-27018 26538 0
-27018 26350 0
27018 -26538 -26350 0
-27021 26541 0
-27021 26350 0
27021 -26541 -26350 0
-27024 26544 0
-27024 26350 0
27024 -26544 -26350 0
-27096 26160 0
-27096 26970 0
27096 -26160 -26970 0
-27106 26163 0
-27106 26970 0
27106 -26163 -26970 0
-27112 26166 0
-27112 26970 0
27112 -26166 -26970 0
-27118 26169 0
-27118 26970 0
27118 -26169 -26970 0
-27130 26172 0
-27130 26970 0
27130 -26172 -26970 0
-27136 26175 0
-27136 26970 0
27136 -26175 -26970 0
-27124 26178 0
-27124 26970 0
27124 -26178 -26970 0
-27142 26181 0
-27142 26970 0
27142 -26181 -26970 0
-26549 26184 0
-26549 26254 0
26549 -26184 -26254 0
-26552 26187 0
-26552 26254 0
26552 -26187 -26254 0
-26555 26190 0
-26555 26254 0
26555 -26190 -26254 0
-26558 26193 0
-26558 26254 0
26558 -26193 -26254 0
-26561 26196 0
-26561 26254 0
26561 -26196 -26254 0
-26564 26199 0
-26564 26254 0
26564 -26199 -26254 0
-26567 26202 0
-26567 26254 0
26567 -26202 -26254 0
-26570 26205 0
-26570 26254 0
26570 -26205 -26254 0
-26548 26525 0
-26548 26209 0
26548 -26525 -26209 0
-26551 26528 0
-26551 26212 0
26551 -26528 -26212 0
-26554 26531 0
-26554 26215 0
26554 -26531 -26215 0
-26557 26534 0
-26557 26218 0
26557 -26534 -26218 0
-26560 26537 0
-26560 26221 0
26560 -26537 -26221 0
-26563 26540 0
-26563 26224 0
26563 -26540 -26224 0
-26566 26543 0
-26566 26227 0
26566 -26543 -26227 0
-26569 26546 0
-26569 26230 0
26569 -26546 -26230 0
-27061 27002 0
-27061 26254 0
27061 -27002 -26254 0
-27064 27005 0
-27064 26254 0
27064 -27005 -26254 0
-27067 27008 0
-27067 26254 0
27067 -27008 -26254 0
-27070 27011 0
-27070 26254 0
27070 -27011 -26254 0
-27073 27014 0
-27073 26254 0
27073 -27014 -26254 0
-27076 27017 0
-27076 26254 0
27076 -27017 -26254 0
-27079 27020 0
-27079 26254 0
27079 -27020 -26254 0
-27082 27023 0
-27082 26254 0
27082 -27023 -26254 0
-26572 26547 0
-26572 26257 0
26572 -26547 -26257 0
-26307 26547 0
-26307 26524 0
26307 -26547 -26524 0
-26575 26550 0
-26575 26263 0
26575 -26550 -26263 0
-27057 26550 0
-27057 26527 0
27057 -26550 -26527 0
-26578 26553 0
-26578 26269 0
26578 -26553 -26269 0
-26319 26553 0
-26319 26530 0
26319 -26553 -26530 0
-26581 26556 0
-26581 26275 0
26581 -26556 -26275 0
-27087 26556 0
-27087 26533 0
27087 -26556 -26533 0
-26584 26559 0
-26584 26281 0
26584 -26559 -26281 0
-27093 26559 0
-27093 26536 0
27093 -26559 -26536 0
-26587 26562 0
-26587 26287 0
26587 -26562 -26287 0
-26337 26562 0
-26337 26539 0
26337 -26562 -26539 0
-26590 26565 0
-26590 26293 0
26590 -26565 -26293 0
-26343 26565 0
-26343 26542 0
26343 -26565 -26542 0
-26593 26568 0
-26593 26299 0
26593 -26568 -26299 0
-26349 26568 0
-26349 26545 0
26349 -26568 -26545 0
-26573 26304 0
-26573 26524 0
26573 -26304 -26524 0
-27027 26307 0
-27027 26350 0
27027 -26307 -26350 0
-26576 26310 0
-26576 26527 0
26576 -26310 -26527 0
-27030 27057 0
-27030 26350 0
27030 -27057 -26350 0
-26579 26316 0
-26579 26530 0
26579 -26316 -26530 0
-27033 26319 0
-27033 26350 0
27033 -26319 -26350 0
-26582 26322 0
-26582 26533 0
26582 -26322 -26533 0
-27039 27087 0
-27039 26350 0
27039 -27087 -26350 0
-26585 26328 0
-26585 26536 0
26585 -26328 -26536 0
-27042 27093 0
-27042 26350 0
27042 -27093 -26350 0
-26588 26334 0
-26588 26539 0
26588 -26334 -26539 0
-27045 26337 0
-27045 26350 0
27045 -26337 -26350 0
-26591 26340 0
-26591 26542 0
26591 -26340 -26542 0
-27048 26343 0
-27048 26350 0
27048 -26343 -26350 0
-26594 26346 0
-26594 26545 0
26594 -26346 -26545 0
-27051 26349 0
-27051 26350 0
27051 -26349 -26350 0
-26596 26705 0
-26596 26353 0
26596 -26705 -26353 0
-27028 26705 0
-27028 26377 0
27028 -26705 -26377 0
-27031 26574 0
-27031 26377 0
27031 -26574 -26377 0
-27034 26744 0
-27034 26377 0
27034 -26744 -26377 0
-27040 26715 0
-27040 26377 0
27040 -26715 -26377 0
-27043 26722 0
-27043 26377 0
27043 -26722 -26377 0
-27046 26755 0
-27046 26377 0
27046 -26755 -26377 0
-27049 26589 0
-27049 26377 0
27049 -26589 -26377 0
-27052 26592 0
-27052 26377 0
27052 -26592 -26377 0
-27055 26720 0
-27055 26719 0
27055 -26720 -26719 0
-26597 26382 0
-26597 26706 0
26597 -26382 -26706 0
-26603 26385 0
-26603 26718 0
26603 -26385 -26718 0
-27060 27026 0
-27060 26410 0
27060 -27026 -26410 0
-27063 27029 0
-27063 26410 0
27063 -27029 -26410 0
-27066 27032 0
-27066 26410 0
27066 -27032 -26410 0
-27069 27038 0
-27069 26410 0
27069 -27038 -26410 0
-27072 27041 0
-27072 26410 0
27072 -27041 -26410 0
-27075 27044 0
-27075 26410 0
27075 -27044 -26410 0
-27078 27047 0
-27078 26410 0
27078 -27047 -26410 0
-27081 27050 0
-27081 26410 0
27081 -27050 -26410 0
-26602 26574 0
-26602 26413 0
26602 -26574 -26413 0
-26606 26415 0
-26606 26416 0
26606 -26415 -26416 0
-26605 26744 0
-26605 26419 0
26605 -26744 -26419 0
-26609 26421 0
-26609 26775 0
26609 -26421 -26775 0
-27091 26722 0
-27091 27088 0
27091 -26722 -27088 0
-27097 26778 0
-27097 27205 0
27097 -26778 -27205 0
-27099 26778 0
-27099 26971 0
27099 -26778 -26971 0
-27103 26786 0
-27103 26971 0
27103 -26786 -26971 0
-27107 26786 0
-27107 27205 0
27107 -26786 -27205 0
-26612 26439 0
-26612 26789 0
26612 -26439 -26789 0
-26608 26715 0
-26608 26443 0
26608 -26715 -26443 0
-26611 26589 0
-26611 26446 0
26611 -26589 -26446 0
-26618 26448 0
-26618 26449 0
26618 -26448 -26449 0
-26621 26451 0
-26621 26452 0
26621 -26451 -26452 0
-26617 26722 0
-26617 26455 0
26617 -26722 -26455 0
-27109 26804 0
-27109 26971 0
27109 -26804 -26971 0
-27113 26804 0
-27113 27205 0
27113 -26804 -27205 0
-26620 26755 0
-26620 26464 0
26620 -26755 -26464 0
-27115 26813 0
-27115 26971 0
27115 -26813 -26971 0
-27119 26813 0
-27119 27205 0
27119 -26813 -27205 0
-26624 26472 0
-26624 26816 0
26624 -26472 -26816 0
-27121 26819 0
-27121 26971 0
27121 -26819 -26971 0
-27125 26819 0
-27125 27205 0
27125 -26819 -27205 0
-26623 26592 0
-26623 26482 0
26623 -26592 -26482 0
-27127 26831 0
-27127 26971 0
27127 -26831 -26971 0
-27131 26831 0
-27131 27205 0
27131 -26831 -27205 0
-27133 26837 0
-27133 26971 0
27133 -26837 -26971 0
-27137 26837 0
-27137 27205 0
27137 -26837 -27205 0
-27139 26846 0
-27139 26971 0
27139 -26846 -26971 0
-27143 26846 0
-27143 27205 0
27143 -26846 -27205 0
26653 -26626 0
26653 -26627 0
-26653 26626 26627 0
26657 -26644 0
26657 -26682 0
-26657 26644 26682 0
26693 -26662 0
26693 -26898 0
-26693 26662 26898 0
26664 -26651 0
26664 -26512 0
-26664 26651 26512 0
26673 -26881 0
26673 -26634 0
-26673 26881 26634 0
26676 -26931 0
26676 -26936 0
-26676 26931 26936 0
26692 -26684 0
26692 -26689 0
26692 -26648 0
-26692 26684 26689 26648 0
26523 -26524 0
26523 -26525 0
-26523 26524 26525 0
26526 -26527 0
26526 -26528 0
-26526 26527 26528 0
26529 -26530 0
26529 -26531 0
-26529 26530 26531 0
26532 -26533 0
26532 -26534 0
-26532 26533 26534 0
26535 -26536 0
26535 -26537 0
-26535 26536 26537 0
26538 -26539 0
26538 -26540 0
-26538 26539 26540 0
26541 -26542 0
26541 -26543 0
-26541 26542 26543 0
26544 -26545 0
26544 -26546 0
-26544 26545 26546 0
26547 -26548 0
26547 -26549 0
-26547 26548 26549 0
26550 -26551 0
26550 -26552 0
-26550 26551 26552 0
26553 -26554 0
26553 -26555 0
-26553 26554 26555 0
26556 -26557 0
26556 -26558 0
-26556 26557 26558 0
26559 -26560 0
26559 -26561 0
-26559 26560 26561 0
26562 -26563 0
26562 -26564 0
-26562 26563 26564 0
26565 -26566 0
26565 -26567 0
-26565 26566 26567 0
26568 -26569 0
26568 -26570 0
-26568 26569 26570 0
26705 -26572 0
26705 -26573 0
-26705 26572 26573 0
26574 -26575 0
26574 -26576 0
-26574 26575 26576 0
26744 -26578 0
26744 -26579 0
-26744 26578 26579 0
26715 -26581 0
26715 -26582 0
-26715 26581 26582 0
26722 -26584 0
26722 -26585 0
-26722 26584 26585 0
26755 -26587 0
26755 -26588 0
-26755 26587 26588 0
26589 -26590 0
26589 -26591 0
-26589 26590 26591 0
26592 -26593 0
26592 -26594 0
-26592 26593 26594 0
26734 -26596 0
26734 -26597 0
-26734 26596 26597 0
26743 -27057 0
26743 -27058 0
-26743 27057 27058 0
26773 -26602 0
26773 -26603 0
-26773 26602 26603 0
26799 -26605 0
26799 -26606 0
-26799 26605 26606 0
26808 -26608 0
26808 -26609 0
-26808 26608 26609 0
26811 -26611 0
26811 -26612 0
-26811 26611 26612 0
26817 -26614 0
26817 -26615 0
-26817 26614 26615 0
26823 -26617 0
26823 -26618 0
-26823 26617 26618 0
26829 -26620 0
26829 -26621 0
-26829 26620 26621 0
26841 -26623 0
26841 -26624 0
-26841 26623 26624 0
26655 26626 0
26655 26627 0
-26655 -26626 -26627 0
26628 26889 0
26628 26630 0
-26628 -26889 -26630 0
26882 26889 0
26882 26935 0
-26882 -26889 -26935 0
26634 26878 0
26634 26935 0
-26634 -26878 -26935 0
26933 26638 0
26933 26662 0
-26933 -26638 -26662 0
26936 26878 0
26936 26881 0
-26936 -26878 -26881 0
26658 26644 0
26658 26682 0
-26658 -26644 -26682 0
27217 26888 0
27217 26648 0
-27217 -26888 -26648 0
26700 26882 0
26700 26651 0
-26700 -26882 -26651 0
26703 26653 0
26703 26880 0
26703 26655 0
-26703 -26653 -26880 -26655 0
27195 26657 0
27195 26658 0
-27195 -26657 -26658 0
27207 26881 0
27207 26887 0
27207 26662 0
-27207 -26881 -26887 -26662 0
26701 26664 0
26701 26881 0
-26701 -26664 -26881 0
26690 26932 0
26690 26934 0
-26690 -26932 -26934 0
26688 26933 0
26688 26934 0
-26688 -26933 -26934 0
27193 26673 0
27193 26674 0
-27193 -26673 -26674 0
26675 26676 0
26675 26682 0
-26675 -26676 -26682 0
27211 26679 0
27211 26881 0
27211 26878 0
27211 26682 0
-27211 -26679 -26881 -26878 -26682 0
27201 26684 0
27201 26690 0
27201 26688 0
-27201 -26684 -26690 -26688 0
27209 26688 0
27209 26689 0
27209 26690 0
-27209 -26688 -26689 -26690 0
27215 26692 0
27215 26693 0
-27215 -26692 -26693 0
27199 26700 0
27199 26702 0
27199 26701 0
27199 26703 0
-27199 -26700 -26702 -26701 -26703 0
26699 26700 0
26699 26701 0
26699 26702 0
26699 26703 0
-26699 -26700 -26701 -26702 -26703 0
26719 26705 0
26719 26706 0
-26719 -26705 -26706 0
26707 27087 0
26707 26722 0
-26707 -27087 -26722 0
26795 27093 0
26795 26755 0
-26795 -27093 -26755 0
26713 26755 0
26713 26715 0
26713 26722 0
26713 26744 0
-26713 -26755 -26715 -26722 -26744 0
26718 26719 0
26718 26720 0
-26718 -26719 -26720 0
26721 26722 0
26721 27089 0
-26721 -26722 -27089 0
26785 26755 0
26785 27094 0
-26785 -26755 -27094 0
26784 27057 0
26784 26732 0
-26784 -27057 -26732 0
26797 27058 0
26797 26732 0
-26797 -27058 -26732 0
26779 26734 0
26779 26842 0
-26779 -26734 -26842 0
26736 26795 0
26736 26784 0
-26736 -26795 -26784 0
26739 26785 0
26739 26797 0
-26739 -26785 -26797 0
27085 26743 0
27085 26744 0
-27085 -26743 -26744 0
26780 27059 0
26780 26771 0
-26780 -27059 -26771 0
26788 27062 0
26788 26771 0
-26788 -27062 -26771 0
26806 27065 0
26806 26771 0
-26806 -27065 -26771 0
26791 26755 0
26791 27092 0
-26791 -26755 -27092 0
26815 27068 0
26815 26771 0
-26815 -27068 -26771 0
26833 27071 0
26833 26771 0
-26833 -27071 -26771 0
26839 27074 0
26839 26771 0
-26839 -27074 -26771 0
26821 27077 0
26821 26771 0
-26821 -27077 -26771 0
26848 27080 0
26848 26771 0
-26848 -27080 -26771 0
26787 26773 0
26787 26842 0
-26787 -26773 -26842 0
26775 27036 0
26775 27085 0
-26775 -27036 -27085 0
26778 26779 0
26778 26780 0
-26778 -26779 -26780 0
26781 26790 0
26781 26791 0
26781 26784 0
26781 26785 0
-26781 -26790 -26791 -26784 -26785 0
26786 26787 0
26786 26788 0
-26786 -26787 -26788 0
26789 26790 0
26789 26791 0
26789 26792 0
26789 26793 0
-26789 -26790 -26791 -26792 -26793 0
26794 26795 0
26794 26796 0
26794 26797 0
-26794 -26795 -26796 -26797 0
26805 26799 0
26805 26842 0
-26805 -26799 -26842 0
27145 27102 0
27145 27095 0
-27145 -27102 -27095 0
26804 26805 0
26804 26806 0
-26804 -26805 -26806 0
26814 26808 0
26814 26842 0
-26814 -26808 -26842 0
26820 26811 0
26820 26842 0
-26820 -26811 -26842 0
26813 26814 0
26813 26815 0
-26813 -26814 -26815 0
26816 26817 0
26816 26818 0
-26816 -26817 -26818 0
26819 26820 0
26819 26821 0
-26819 -26820 -26821 0
26832 26823 0
26832 26842 0
-26832 -26823 -26842 0
27147 27108 0
27147 27105 0
-27147 -27108 -27105 0
26838 26829 0
26838 26842 0
-26838 -26829 -26842 0
26831 26832 0
26831 26833 0
-26831 -26832 -26833 0
27149 27114 0
27149 27111 0
-27149 -27114 -27111 0
26837 26838 0
26837 26839 0
-26837 -26838 -26839 0
26847 26841 0
26847 26842 0
-26847 -26841 -26842 0
27151 27126 0
27151 27117 0
-27151 -27126 -27117 0
26846 26847 0
26846 26848 0
-26846 -26847 -26848 0
27153 27132 0
27153 27129 0
-27153 -27132 -27129 0
27155 27120 0
27155 27135 0
-27155 -27120 -27135 0
27157 27138 0
27157 27123 0
-27157 -27138 -27123 0
27159 26967 0
27159 27141 0
-27159 -26967 -27141 0
-26861 -26862 0
-26861 -26863 0
-26861 -26864 0
26861 26862 26863 26864 0
-26865 -26866 0
-26865 -26867 0
-26865 -26868 0
26865 26866 26867 26868 0
-26869 -26870 0
-26869 -26871 0
-26869 -26872 0
26869 26870 26871 26872 0
-26873 -26874 0
-26873 -26875 0
-26873 -26876 0
26873 26874 26875 26876 0
-26877 -26878 0
-26877 -26879 0
26877 26878 26879 0
-26880 -26881 0
-26880 -26882 0
26880 26881 26882 0
-26883 -26884 0
-26883 -26885 0
-26883 -26886 0
26883 26884 26885 26886 0
-26887 -26888 0
-26887 -26889 0
-26887 -26932 0
-26887 -26935 0
26887 26888 26889 26932 26935 0
-26892 -26893 0
-26892 -26894 0
-26892 -26895 0
26892 26893 26894 26895 0
-26896 -26932 0
-26896 -26898 0
26896 26932 26898 0
-26899 -26900 0
-26899 -26901 0
-26899 -26902 0
26899 26900 26901 26902 0
-26903 -26904 0
-26903 -26905 0
-26903 -26906 0
26903 26904 26905 26906 0
-26907 -26908 0
-26907 -26909 0
26907 26908 26909 0
-26910 -26911 0
-26910 -26912 0
26910 26911 26912 0
-26913 -26914 0
-26913 -26915 0
26913 26914 26915 0
-26916 -26917 0
-26916 -26918 0
26916 26917 26918 0
-26919 -26920 0
-26919 -26921 0
26919 26920 26921 0
-26922 -26923 0
-26922 -26924 0
26922 26923 26924 0
-26925 -26926 0
-26925 -26927 0
26925 26926 26927 0
-26928 -26929 0
-26928 -26930 0
26928 26929 26930 0
-26931 -26932 0
-26931 -26933 0
26931 26932 26933 0
-26934 -26935 0
-26934 -26936 0
26934 26935 26936 0
-26937 -26938 0
-26937 -26939 0
26937 26938 26939 0
-26940 -26941 0
-26940 -26942 0
26940 26941 26942 0
-26943 -26944 0
-26943 -26945 0
26943 26944 26945 0
-26946 -26947 0
-26946 -26948 0
26946 26947 26948 0
-27203 -26972 0
-27203 -26951 0
27203 26972 26951 0
-26952 -26953 0
-26952 -26954 0
26952 26953 26954 0
-26955 -26956 0
-26955 -26957 0
26955 26956 26957 0
-26958 -26959 0
-26958 -26960 0
26958 26959 26960 0
-26961 -26962 0
-26961 -26963 0
26961 26962 26963 0
-26964 -26965 0
-26964 -26971 0
26964 26965 26971 0
-26967 -26968 0
-26967 -26969 0
26967 26968 26969 0
-26970 -26971 0
-26970 -26972 0
-26970 -27205 0
26970 26971 26972 27205 0
-26974 -26975 0
-26974 -26976 0
-26974 -26977 0
26974 26975 26976 26977 0
-26978 -26979 0
-26978 -26980 0
-26978 -26981 0
26978 26979 26980 26981 0
-26982 -26983 0
-26982 -26984 0
-26982 -26985 0
26982 26983 26984 26985 0
-26986 -26987 0
-26986 -26988 0
-26986 -26989 0
26986 26987 26988 26989 0
-26990 -26991 0
-26990 -26992 0
-26990 -26993 0
26990 26991 26992 26993 0
-26994 -26995 0
-26994 -26996 0
-26994 -26997 0
26994 26995 26996 26997 0
-26998 -26999 0
-26998 -27000 0
-26998 -27001 0
26998 26999 27000 27001 0
-27002 -27003 0
-27002 -27004 0
27002 27003 27004 0
-27005 -27006 0
-27005 -27007 0
27005 27006 27007 0
-27008 -27009 0
-27008 -27010 0
27008 27009 27010 0
-27011 -27012 0
-27011 -27013 0
27011 27012 27013 0
-27014 -27015 0
-27014 -27016 0
27014 27015 27016 0
-27017 -27018 0
-27017 -27019 0
27017 27018 27019 0
-27020 -27021 0
-27020 -27022 0
27020 27021 27022 0
-27023 -27024 0
-27023 -27025 0
27023 27024 27025 0
-27026 -27027 0
-27026 -27028 0
27026 27027 27028 0
-27029 -27030 0
-27029 -27031 0
27029 27030 27031 0
-27032 -27033 0
-27032 -27034 0
27032 27033 27034 0
-27089 -27036 0
-27089 -27084 0
27089 27036 27084 0
-27038 -27039 0
-27038 -27040 0
27038 27039 27040 0
-27041 -27042 0
-27041 -27043 0
27041 27042 27043 0
-27044 -27045 0
-27044 -27046 0
27044 27045 27046 0
-27047 -27048 0
-27047 -27049 0
27047 27048 27049 0
-27050 -27051 0
-27050 -27052 0
27050 27051 27052 0
-27058 -27054 0
-27058 -27055 0
27058 27054 27055 0
-27056 -27057 0
-27056 -27058 0
27056 27057 27058 0
-27059 -27060 0
-27059 -27061 0
27059 27060 27061 0
-27062 -27063 0
-27062 -27064 0
27062 27063 27064 0
-27065 -27066 0
-27065 -27067 0
27065 27066 27067 0
-27068 -27069 0
-27068 -27070 0
27068 27069 27070 0
-27071 -27072 0
-27071 -27073 0
27071 27072 27073 0
-27074 -27075 0
-27074 -27076 0
27074 27075 27076 0
-27077 -27078 0
-27077 -27079 0
27077 27078 27079 0
-27080 -27081 0
-27080 -27082 0
27080 27081 27082 0
-27088 -27084 0
-27088 -27085 0
27088 27084 27085 0
-27086 -27087 0
-27086 -27088 0
-27086 -27089 0
27086 27087 27088 27089 0
-27090 -27091 0
-27090 -27092 0
-27090 -27093 0
-27090 -27094 0
27090 27091 27092 27093 27094 0
-27095 -27096 0
-27095 -27097 0
27095 27096 27097 0
-27098 -27099 0
-27098 -27100 0
-27098 -27101 0
27098 27099 27100 27101 0
-27102 -27103 0
-27102 -27104 0
27102 27103 27104 0
-27105 -27106 0
-27105 -27107 0
27105 27106 27107 0
-27108 -27109 0
-27108 -27110 0
27108 27109 27110 0
-27111 -27112 0
-27111 -27113 0
27111 27112 27113 0
-27114 -27115 0
-27114 -27116 0
27114 27115 27116 0
-27117 -27118 0
-27117 -27119 0
27117 27118 27119 0
-27120 -27121 0
-27120 -27122 0
27120 27121 27122 0
-27123 -27124 0
-27123 -27125 0
27123 27124 27125 0
-27126 -27127 0
-27126 -27128 0
27126 27127 27128 0
-27129 -27130 0
-27129 -27131 0
27129 27130 27131 0
-27132 -27133 0
-27132 -27134 0
27132 27133 27134 0
-27135 -27136 0
-27135 -27137 0
27135 27136 27137 0
-27138 -27139 0
-27138 -27140 0
27138 27139 27140 0
-27141 -27142 0
-27141 -27143 0
27141 27142 27143 0
-27145 27830 0
27145 -27830 0
-27147 27833 0
27147 -27833 0
-27149 27836 0
27149 -27836 0
-27151 27839 0
27151 -27839 0
-27153 27842 0
27153 -27842 0
-27155 27845 0
27155 -27845 0
-27157 27848 0
27157 -27848 0
-27159 27851 0
27159 -27851 0
-27161 28297 0
27161 -28297 0
-27163 27785 0
27163 -27785 0
-27165 27788 0
27165 -27788 0
-27167 27791 0
27167 -27791 0
-27169 27794 0
27169 -27794 0
-27171 27797 0
27171 -27797 0
-27173 27800 0
27173 -27800 0
-27175 27803 0
27175 -27803 0
-27177 27734 0
27177 -27734 0
-27179 27737 0
27179 -27737 0
-27181 27740 0
27181 -27740 0
-27183 27743 0
27183 -27743 0
-27185 27746 0
27185 -27746 0
-27187 27749 0
27187 -27749 0
-27189 27752 0
27189 -27752 0
-27191 28296 0
27191 -28296 0
-27193 28559 0
27193 -28559 0
-27195 28314 0
27195 -28314 0
-27197 28605 0
27197 -28605 0
-27199 28300 0
27199 -28300 0
-27201 28318 0
27201 -28318 0
-27203 27468 0
27203 -27468 0
-27205 27204 0
27205 -27204 0
-27207 27486 0
27207 -27486 0
-27209 27540 0
27209 -27540 0
-27211 27633 0
27211 -27633 0
-27213 27513 0
27213 -27513 0
-27215 27480 0
27215 -27480 0
-27217 27504 0
27217 -27504 0
27683 27632 0
-27683 -27632 0
28359 28297 0
-28359 -28297 0
28608 28300 0
-28608 -28300 0
28548 28559 0
-28548 -28559 0
27657 27606 0
-27657 -27606 0
28332 27229 0
-28332 -27229 0
28551 28314 0
-28551 -28314 0
28352 28605 0
-28352 -28605 0
28558 28308 0
-28558 -28308 0
28568 28318 0
-28568 -28318 0
28321 28325 0
-28321 -28325 0
28182 28298 0
-28182 -28298 0
28344 28547 0
-28344 -28547 0
28354 28550 0
-28354 -28550 0
28883 28566 0
-28883 -28566 0
28847 28577 0
-28847 -28577 0
28849 28580 0
-28849 -28580 0
28851 28583 0
-28851 -28583 0
28853 28586 0
-28853 -28586 0
28855 28589 0
-28855 -28589 0
28857 28592 0
-28857 -28592 0
28859 28595 0
-28859 -28595 0
28861 28598 0
-28861 -28598 0
28349 28601 0
-28349 -28601 0
28372 28607 0
-28372 -28607 0
27275 28610 0
-27275 -28610 0
28867 28345 0
-28867 -28345 0
28441 27275 0
-28441 -27275 0
27281 27275 0
-27281 -27275 0
27708 28613 0
-27708 -28613 0
27285 28616 0
-27285 -28616 0
28512 27281 0
-28512 -27281 0
28020 27285 0
-28020 -27285 0
27327 27285 0
-27327 -27285 0
28641 28622 0
-28641 -28622 0
27756 28625 0
-27756 -28625 0
28376 28628 0
-28376 -28628 0
27335 28628 0
-27335 -28628 0
27927 28194 0
-27927 -28194 0
27758 28194 0
-27758 -28194 0
27933 28197 0
-27933 -28197 0
27761 28197 0
-27761 -28197 0
27939 28200 0
-27939 -28200 0
27764 28200 0
-27764 -28200 0
27945 28203 0
-27945 -28203 0
27767 28203 0
-27767 -28203 0
27951 28206 0
-27951 -28206 0
27770 28206 0
-27770 -28206 0
27957 28209 0
-27957 -28209 0
27773 28209 0
-27773 -28209 0
27963 28212 0
-27963 -28212 0
27776 28212 0
-27776 -28212 0
27969 28215 0
-27969 -28215 0
27779 28215 0
-27779 -28215 0
28047 27327 0
-28047 -27327 0
28875 28631 0
-28875 -28631 0
28023 28376 0
-28023 -28376 0
28080 27335 0
-28080 -27335 0
27353 27335 0
-27353 -27335 0
27854 28195 0
-27854 -28195 0
27857 28198 0
-27857 -28198 0
27860 28201 0
-27860 -28201 0
27863 28204 0
-27863 -28204 0
27866 28207 0
-27866 -28207 0
27869 28210 0
-27869 -28210 0
27872 28213 0
-27872 -28213 0
27875 28216 0
-27875 -28216 0
27924 27353 0
-27924 -27353 0
27879 27924 0
-27879 -27924 0
27882 27924 0
-27882 -27924 0
27885 27924 0
-27885 -27924 0
27888 27924 0
-27888 -27924 0
27891 27924 0
-27891 -27924 0
27894 27924 0
-27894 -27924 0
27897 27924 0
-27897 -27924 0
27900 27924 0
-27900 -27924 0
28831 28644 0
-28831 -28644 0
28833 28648 0
-28833 -28648 0
28835 28652 0
-28835 -28652 0
28837 28656 0
-28837 -28656 0
28839 28660 0
-28839 -28660 0
28841 28664 0
-28841 -28664 0
28843 28668 0
-28843 -28668 0
27974 28217 0
-27974 -28217 0
27980 28220 0
-27980 -28220 0
27986 28223 0
-27986 -28223 0
27992 28226 0
-27992 -28226 0
27998 28229 0
-27998 -28229 0
28004 28232 0
-28004 -28232 0
28010 28235 0
-28010 -28235 0
28016 28238 0
-28016 -28238 0
28390 27977 0
-28390 -27977 0
28706 27989 0
-28706 -27989 0
28460 28007 0
-28460 -28007 0
28488 28013 0
-28488 -28013 0
28052 28375 0
-28052 -28375 0
28724 28244 0
-28724 -28244 0
28055 28244 0
-28055 -28244 0
28085 28414 0
-28085 -28414 0
28754 28385 0
-28754 -28385 0
28091 28385 0
-28091 -28385 0
28118 28392 0
-28118 -28392 0
28121 28425 0
-28121 -28425 0
28284 28259 0
-28284 -28259 0
28109 28259 0
-28109 -28259 0
28142 28262 0
-28142 -28262 0
28764 28377 0
-28764 -28377 0
28402 28383 0
-28402 -28383 0
28083 28388 0
-28083 -28388 0
28762 28391 0
-28762 -28391 0
28086 28726 0
-28086 -28726 0
28462 28406 0
-28462 -28406 0
28089 28086 0
-28089 -28086 0
28463 28409 0
-28463 -28409 0
28113 28445 0
-28113 -28445 0
28466 28451 0
-28466 -28451 0
28116 28459 0
-28116 -28459 0
28119 28756 0
-28119 -28756 0
28122 28760 0
-28122 -28760 0
28125 28119 0
-28125 -28119 0
28845 28768 0
-28845 -28768 0
28285 28464 0
-28285 -28464 0
28134 28122 0
-28134 -28122 0
28152 28486 0
-28152 -28486 0
-28632 27632 0
-28632 27468 0
28632 -27632 -27468 0
-28570 27587 0
-28570 27803 0
28570 -27587 -27803 0
-28780 27611 0
-28780 28642 0
28780 -27611 -28642 0
-28544 27587 0
-28544 28297 0
28544 -27587 -28297 0
-28629 27632 0
-28629 27480 0
28629 -27632 -27480 0
-28563 27587 0
-28563 27794 0
28563 -27587 -27794 0
-28614 27632 0
-28614 27486 0
28614 -27632 -27486 0
-28533 27584 0
-28533 27752 0
28533 -27584 -27752 0
-28571 27584 0
-28571 28296 0
28571 -27584 -28296 0
-28536 27587 0
-28536 27791 0
28536 -27587 -27791 0
-28792 27623 0
-28792 28642 0
28792 -27623 -28642 0
-28555 27584 0
-28555 27749 0
28555 -27584 -27749 0
-28611 27632 0
-28611 27504 0
28611 -27632 -27504 0
-28534 27599 0
-28534 27848 0
28534 -27599 -27848 0
-28565 27599 0
-28565 27842 0
28565 -27599 -27842 0
-28617 27632 0
-28617 27513 0
28617 -27632 -27513 0
-28532 27587 0
-28532 27800 0
28532 -27587 -27800 0
-28804 27620 0
-28804 28642 0
28804 -27620 -28642 0
-28575 27584 0
-28575 27737 0
28575 -27584 -27737 0
-28538 27599 0
-28538 27839 0
28538 -27599 -27839 0
-28786 27614 0
-28786 28642 0
28786 -27614 -28642 0
-28537 27584 0
-28537 27743 0
28537 -27584 -27743 0
-28556 27599 0
-28556 27845 0
28556 -27599 -27845 0
-28542 27599 0
-28542 27836 0
28542 -27599 -27836 0
-28626 27632 0
-28626 27540 0
28626 -27632 -27540 0
-28810 27626 0
-28810 28642 0
28810 -27626 -28642 0
-28546 27599 0
-28546 27830 0
28546 -27599 -27830 0
-28541 27584 0
-28541 27740 0
28541 -27584 -27740 0
-28582 27611 0
-28582 27606 0
28582 -27611 -27606 0
-28585 27614 0
-28585 27606 0
28585 -27614 -27606 0
-28591 27620 0
-28591 27606 0
28591 -27620 -27606 0
-28594 27623 0
-28594 27606 0
28594 -27623 -27606 0
-28597 27626 0
-28597 27606 0
28597 -27626 -27606 0
-28540 27587 0
-28540 27788 0
28540 -27587 -27788 0
-28545 27584 0
-28545 27734 0
28545 -27584 -27734 0
-28549 28314 0
-28549 28605 0
28549 -28314 -28605 0
-28639 27629 0
-28639 28642 0
28639 -27629 -28642 0
-28600 27629 0
-28600 27606 0
28600 -27629 -27606 0
-28554 27587 0
-28554 27797 0
28554 -27587 -27797 0
-28564 27584 0
-28564 27746 0
28564 -27584 -27746 0
-28574 27587 0
-28574 27785 0
28574 -27587 -27785 0
-28774 27608 0
-28774 28642 0
28774 -27608 -28642 0
-28579 27608 0
-28579 27606 0
28579 -27608 -27606 0
-28572 27599 0
-28572 27851 0
28572 -27599 -27851 0
-28576 27599 0
-28576 27833 0
28576 -27599 -27833 0
-28798 27617 0
-28798 28642 0
28798 -27617 -28642 0
-28588 27617 0
-28588 27606 0
28588 -27617 -27606 0
-28646 27608 0
-28646 28635 0
28646 -27608 -28635 0
-28650 27611 0
-28650 28635 0
28650 -27611 -28635 0
-28654 27614 0
-28654 28635 0
28654 -27614 -28635 0
-28658 27617 0
-28658 28635 0
28658 -27617 -28635 0
-28662 27620 0
-28662 28635 0
28662 -27620 -28635 0
-28666 27623 0
-28666 28635 0
28666 -27623 -28635 0
-28670 27626 0
-28670 28635 0
28670 -27626 -28635 0
-28770 27629 0
-28770 28635 0
28770 -27629 -28635 0
-28623 27632 0
-28623 27633 0
28623 -27632 -27633 0
-28578 27734 0
-28578 27657 0
28578 -27734 -27657 0
-28581 27737 0
-28581 27657 0
28581 -27737 -27657 0
-28584 27740 0
-28584 27657 0
28584 -27740 -27657 0
-28587 27743 0
-28587 27657 0
28587 -27743 -27657 0
-28590 27746 0
-28590 27657 0
28590 -27746 -27657 0
-28593 27749 0
-28593 27657 0
28593 -27749 -27657 0
-28596 27752 0
-28596 27657 0
28596 -27752 -27657 0
-28599 28296 0
-28599 27657 0
28599 -28296 -27657 0
-28609 28304 0
-28609 28328 0
28609 -28304 -28328 0
-28612 27683 0
-28612 28887 0
28612 -27683 -28887 0
-28615 27683 0
-28615 28877 0
28615 -27683 -28877 0
-28618 27683 0
-28618 28883 0
28618 -27683 -28883 0
-28621 28360 0
-28621 28358 0
28621 -28360 -28358 0
-28624 27683 0
-28624 28881 0
28624 -27683 -28881 0
-28627 27683 0
-28627 28879 0
28627 -27683 -28879 0
-28630 27683 0
-28630 28885 0
28630 -27683 -28885 0
-28633 27683 0
-28633 28873 0
28633 -27683 -28873 0
-28194 27830 0
-28194 27708 0
28194 -27830 -27708 0
-28197 27833 0
-28197 27708 0
28197 -27833 -27708 0
-28200 27836 0
-28200 27708 0
28200 -27836 -27708 0
-28203 27839 0
-28203 27708 0
28203 -27839 -27708 0
-28206 27842 0
-28206 27708 0
28206 -27842 -27708 0
-28209 27845 0
-28209 27708 0
28209 -27845 -27708 0
-28212 27848 0
-28212 27708 0
28212 -27848 -27708 0
-28215 27851 0
-28215 27708 0
28215 -27851 -27708 0
-28638 28369 0
-28638 28641 0
28638 -28369 -28641 0
-28645 27785 0
-28645 28641 0
28645 -27785 -28641 0
-28649 27788 0
-28649 28641 0
28649 -27788 -28641 0
-28653 27791 0
-28653 28641 0
28653 -27791 -28641 0
-28657 27794 0
-28657 28641 0
28657 -27794 -28641 0
-28661 27797 0
-28661 28641 0
28661 -27797 -28641 0
-28665 27800 0
-28665 28641 0
28665 -27800 -28641 0
-28669 27803 0
-28669 28641 0
28669 -27803 -28641 0
-28195 27734 0
-28195 27756 0
28195 -27734 -27756 0
-28198 27737 0
-28198 27756 0
28198 -27737 -27756 0
-28201 27740 0
-28201 27756 0
28201 -27740 -27756 0
-28204 27743 0
-28204 27756 0
28204 -27743 -27756 0
-28207 27746 0
-28207 27756 0
28207 -27746 -27756 0
-28210 27749 0
-28210 27756 0
28210 -27749 -27756 0
-28213 27752 0
-28213 27756 0
28213 -27752 -27756 0
-28216 28296 0
-28216 27756 0
28216 -28296 -27756 0
-28674 27758 0
-28674 28047 0
28674 -27758 -28047 0
-28677 27761 0
-28677 28047 0
28677 -27761 -28047 0
-28680 27764 0
-28680 28047 0
28680 -27764 -28047 0
-28683 27767 0
-28683 28047 0
28683 -27767 -28047 0
-28686 27770 0
-28686 28047 0
28686 -27770 -28047 0
-28689 27773 0
-28689 28047 0
28689 -27773 -28047 0
-28692 27776 0
-28692 28047 0
28692 -27776 -28047 0
-28695 27779 0
-28695 28047 0
28695 -27779 -28047 0
-28647 28297 0
-28647 28634 0
28647 -28297 -28634 0
-28651 27785 0
-28651 28634 0
28651 -27785 -28634 0
-28655 27788 0
-28655 28634 0
28655 -27788 -28634 0
-28659 27791 0
-28659 28634 0
28659 -27791 -28634 0
-28663 27794 0
-28663 28634 0
28663 -27794 -28634 0
-28667 27797 0
-28667 28634 0
28667 -27797 -28634 0
-28671 27800 0
-28671 28634 0
28671 -27800 -28634 0
-28771 27803 0
-28771 28634 0
28771 -27803 -28634 0
-28673 28193 0
-28673 28020 0
28673 -28193 -28020 0
-28676 28196 0
-28676 28020 0
28676 -28196 -28020 0
-28679 28199 0
-28679 28020 0
28679 -28199 -28020 0
-28682 28202 0
-28682 28020 0
28682 -28202 -28020 0
-28685 28205 0
-28685 28020 0
28685 -28205 -28020 0
-28688 28208 0
-28688 28020 0
28688 -28208 -28020 0
-28691 28211 0
-28691 28020 0
28691 -28211 -28020 0
-28694 28214 0
-28694 28020 0
28694 -28214 -28020 0
-28766 27830 0
-28766 28640 0
28766 -27830 -28640 0
-28776 27833 0
-28776 28640 0
28776 -27833 -28640 0
-28782 27836 0
-28782 28640 0
28782 -27836 -28640 0
-28788 27839 0
-28788 28640 0
28788 -27839 -28640 0
-28800 27842 0
-28800 28640 0
28800 -27842 -28640 0
-28806 27845 0
-28806 28640 0
28806 -27845 -28640 0
-28794 27848 0
-28794 28640 0
28794 -27848 -28640 0
-28812 27851 0
-28812 28640 0
28812 -27851 -28640 0
-28219 27854 0
-28219 27924 0
28219 -27854 -27924 0
-28222 27857 0
-28222 27924 0
28222 -27857 -27924 0
-28225 27860 0
-28225 27924 0
28225 -27860 -27924 0
-28228 27863 0
-28228 27924 0
28228 -27863 -27924 0
-28231 27866 0
-28231 27924 0
28231 -27866 -27924 0
-28234 27869 0
-28234 27924 0
28234 -27869 -27924 0
-28237 27872 0
-28237 27924 0
28237 -27872 -27924 0
-28240 27875 0
-28240 27924 0
28240 -27875 -27924 0
-28218 28195 0
-28218 27879 0
28218 -28195 -27879 0
-28221 28198 0
-28221 27882 0
28221 -28198 -27882 0
-28224 28201 0
-28224 27885 0
28224 -28201 -27885 0
-28227 28204 0
-28227 27888 0
28227 -28204 -27888 0
-28230 28207 0
-28230 27891 0
28230 -28207 -27891 0
-28233 28210 0
-28233 27894 0
28233 -28210 -27894 0
-28236 28213 0
-28236 27897 0
28236 -28213 -27897 0
-28239 28216 0
-28239 27900 0
28239 -28216 -27900 0
-28731 28672 0
-28731 27924 0
28731 -28672 -27924 0
-28734 28675 0
-28734 27924 0
28734 -28675 -27924 0
-28737 28678 0
-28737 27924 0
28737 -28678 -27924 0
-28740 28681 0
-28740 27924 0
28740 -28681 -27924 0
-28743 28684 0
-28743 27924 0
28743 -28684 -27924 0
-28746 28687 0
-28746 27924 0
28746 -28687 -27924 0
-28749 28690 0
-28749 27924 0
28749 -28690 -27924 0
-28752 28693 0
-28752 27924 0
28752 -28693 -27924 0
-28242 28217 0
-28242 27927 0
28242 -28217 -27927 0
-27977 28217 0
-27977 28194 0
27977 -28217 -28194 0
-28245 28220 0
-28245 27933 0
28245 -28220 -27933 0
-28727 28220 0
-28727 28197 0
28727 -28220 -28197 0
-28248 28223 0
-28248 27939 0
28248 -28223 -27939 0
-27989 28223 0
-27989 28200 0
27989 -28223 -28200 0
-28251 28226 0
-28251 27945 0
28251 -28226 -27945 0
-28757 28226 0
-28757 28203 0
28757 -28226 -28203 0
-28254 28229 0
-28254 27951 0
28254 -28229 -27951 0
-28763 28229 0
-28763 28206 0
28763 -28229 -28206 0
-28257 28232 0
-28257 27957 0
28257 -28232 -27957 0
-28007 28232 0
-28007 28209 0
28007 -28232 -28209 0
-28260 28235 0
-28260 27963 0
28260 -28235 -27963 0
-28013 28235 0
-28013 28212 0
28013 -28235 -28212 0
-28263 28238 0
-28263 27969 0
28263 -28238 -27969 0
-28019 28238 0
-28019 28215 0
28019 -28238 -28215 0
-28243 27974 0
-28243 28194 0
28243 -27974 -28194 0
-28697 27977 0
-28697 28020 0
28697 -27977 -28020 0
-28246 27980 0
-28246 28197 0
28246 -27980 -28197 0
-28700 28727 0
-28700 28020 0
28700 -28727 -28020 0
-28249 27986 0
-28249 28200 0
28249 -27986 -28200 0
-28703 27989 0
-28703 28020 0
28703 -27989 -28020 0
-28252 27992 0
-28252 28203 0
28252 -27992 -28203 0
-28709 28757 0
-28709 28020 0
28709 -28757 -28020 0
-28255 27998 0
-28255 28206 0
28255 -27998 -28206 0
-28712 28763 0
-28712 28020 0
28712 -28763 -28020 0
-28258 28004 0
-28258 28209 0
28258 -28004 -28209 0
-28715 28007 0
-28715 28020 0
28715 -28007 -28020 0
-28261 28010 0
-28261 28212 0
28261 -28010 -28212 0
-28718 28013 0
-28718 28020 0
28718 -28013 -28020 0
-28264 28016 0
-28264 28215 0
28264 -28016 -28215 0
-28721 28019 0
-28721 28020 0
28721 -28019 -28020 0
-28266 28375 0
-28266 28023 0
28266 -28375 -28023 0
-28698 28375 0
-28698 28047 0
28698 -28375 -28047 0
-28701 28244 0
-28701 28047 0
28701 -28244 -28047 0
-28704 28414 0
-28704 28047 0
28704 -28414 -28047 0
-28710 28385 0
-28710 28047 0
28710 -28385 -28047 0
-28713 28392 0
-28713 28047 0
28713 -28392 -28047 0
-28716 28425 0
-28716 28047 0
28716 -28425 -28047 0
-28719 28259 0
-28719 28047 0
28719 -28259 -28047 0
-28722 28262 0
-28722 28047 0
28722 -28262 -28047 0
-28725 28390 0
-28725 28389 0
28725 -28390 -28389 0
-28267 28052 0
-28267 28376 0
28267 -28052 -28376 0
-28273 28055 0
-28273 28388 0
28273 -28055 -28388 0
-28730 28696 0
-28730 28080 0
28730 -28696 -28080 0
-28733 28699 0
-28733 28080 0
28733 -28699 -28080 0
-28736 28702 0
-28736 28080 0
28736 -28702 -28080 0
-28739 28708 0
-28739 28080 0
28739 -28708 -28080 0
-28742 28711 0
-28742 28080 0
28742 -28711 -28080 0
-28745 28714 0
-28745 28080 0
28745 -28714 -28080 0
-28748 28717 0
-28748 28080 0
28748 -28717 -28080 0
-28751 28720 0
-28751 28080 0
28751 -28720 -28080 0
-28272 28244 0
-28272 28083 0
28272 -28244 -28083 0
-28276 28085 0
-28276 28086 0
28276 -28085 -28086 0
-28275 28414 0
-28275 28089 0
28275 -28414 -28089 0
-28279 28091 0
-28279 28445 0
28279 -28091 -28445 0
-28761 28392 0
-28761 28758 0
28761 -28392 -28758 0
-28767 28448 0
-28767 28875 0
28767 -28448 -28875 0
-28769 28448 0
-28769 28641 0
28769 -28448 -28641 0
-28773 28456 0
-28773 28641 0
28773 -28456 -28641 0
-28777 28456 0
-28777 28875 0
28777 -28456 -28875 0
-28282 28109 0
-28282 28459 0
28282 -28109 -28459 0
-28278 28385 0
-28278 28113 0
28278 -28385 -28113 0
-28281 28259 0
-28281 28116 0
28281 -28259 -28116 0
-28288 28118 0
-28288 28119 0
28288 -28118 -28119 0
-28291 28121 0
-28291 28122 0
28291 -28121 -28122 0
-28287 28392 0
-28287 28125 0
28287 -28392 -28125 0
-28779 28474 0
-28779 28641 0
28779 -28474 -28641 0
-28783 28474 0
-28783 28875 0
28783 -28474 -28875 0
-28290 28425 0
-28290 28134 0
28290 -28425 -28134 0
-28785 28483 0
-28785 28641 0
28785 -28483 -28641 0
-28789 28483 0
-28789 28875 0
28789 -28483 -28875 0
-28294 28142 0
-28294 28486 0
28294 -28142 -28486 0
-28791 28489 0
-28791 28641 0
28791 -28489 -28641 0
-28795 28489 0
-28795 28875 0
28795 -28489 -28875 0
-28293 28262 0
-28293 28152 0
28293 -28262 -28152 0
-28797 28501 0
-28797 28641 0
28797 -28501 -28641 0
-28801 28501 0
-28801 28875 0
28801 -28501 -28875 0
-28803 28507 0
-28803 28641 0
28803 -28507 -28641 0
-28807 28507 0
-28807 28875 0
28807 -28507 -28875 0
-28809 28516 0
-28809 28641 0
28809 -28516 -28641 0
-28813 28516 0
-28813 28875 0
28813 -28516 -28875 0
28323 -28296 0
28323 -28297 0
-28323 28296 28297 0
28327 -28314 0
28327 -28352 0
-28327 28314 28352 0
28363 -28332 0
28363 -28568 0
-28363 28332 28568 0
28334 -28321 0
28334 -28182 0
-28334 28321 28182 0
28343 -28551 0
28343 -28304 0
-28343 28551 28304 0
28346 -28601 0
28346 -28606 0
-28346 28601 28606 0
28362 -28354 0
28362 -28359 0
28362 -28318 0
-28362 28354 28359 28318 0
28193 -28194 0
28193 -28195 0
-28193 28194 28195 0
28196 -28197 0
28196 -28198 0
-28196 28197 28198 0
28199 -28200 0
28199 -28201 0
-28199 28200 28201 0
28202 -28203 0
28202 -28204 0
-28202 28203 28204 0
28205 -28206 0
28205 -28207 0
-28205 28206 28207 0
28208 -28209 0
28208 -28210 0
-28208 28209 28210 0
28211 -28212 0
28211 -28213 0
-28211 28212 28213 0
28214 -28215 0
28214 -28216 0
-28214 28215 28216 0
28217 -28218 0
28217 -28219 0
-28217 28218 28219 0
28220 -28221 0
28220 -28222 0
-28220 28221 28222 0
28223 -28224 0
28223 -28225 0
-28223 28224 28225 0
28226 -28227 0
28226 -28228 0
-28226 28227 28228 0
28229 -28230 0
28229 -28231 0
-28229 28230 28231 0
28232 -28233 0
28232 -28234 0
-28232 28233 28234 0
28235 -28236 0
28235 -28237 0
-28235 28236 28237 0
28238 -28239 0
28238 -28240 0
-28238 28239 28240 0
28375 -28242 0
28375 -28243 0
-28375 28242 28243 0
28244 -28245 0
28244 -28246 0
-28244 28245 28246 0
28414 -28248 0
28414 -28249 0
-28414 28248 28249 0
28385 -28251 0
28385 -28252 0
-28385 28251 28252 0
28392 -28254 0
28392 -28255 0
-28392 28254 28255 0
28425 -28257 0
28425 -28258 0
-28425 28257 28258 0
28259 -28260 0
28259 -28261 0
-28259 28260 28261 0
28262 -28263 0
28262 -28264 0
-28262 28263 28264 0
28404 -28266 0
28404 -28267 0
-28404 28266 28267 0
28413 -28727 0
28413 -28728 0
-28413 28727 28728 0
28443 -28272 0
28443 -28273 0
-28443 28272 28273 0
28469 -28275 0
28469 -28276 0
-28469 28275 28276 0
28478 -28278 0
28478 -28279 0
-28478 28278 28279 0
28481 -28281 0
28481 -28282 0
-28481 28281 28282 0
28487 -28284 0
28487 -28285 0
-28487 28284 28285 0
28493 -28287 0
28493 -28288 0
-28493 28287 28288 0
28499 -28290 0
28499 -28291 0
-28499 28290 28291 0
28511 -28293 0
28511 -28294 0
-28511 28293 28294 0
28325 28296 0
28325 28297 0
-28325 -28296 -28297 0
28298 28559 0
28298 28300 0
-28298 -28559 -28300 0
28552 28559 0
28552 28605 0
-28552 -28559 -28605 0
28304 28548 0
28304 28605 0
-28304 -28548 -28605 0
28603 28308 0
28603 28332 0
-28603 -28308 -28332 0
28606 28548 0
28606 28551 0
-28606 -28548 -28551 0
28328 28314 0
28328 28352 0
-28328 -28314 -28352 0
28887 28558 0
28887 28318 0
-28887 -28558 -28318 0
28370 28552 0
28370 28321 0
-28370 -28552 -28321 0
28373 28323 0
28373 28550 0
28373 28325 0
-28373 -28323 -28550 -28325 0
28865 28327 0
28865 28328 0
-28865 -28327 -28328 0
28877 28551 0
28877 28557 0
28877 28332 0
-28877 -28551 -28557 -28332 0
28371 28334 0
28371 28551 0
-28371 -28334 -28551 0
28360 28602 0
28360 28604 0
-28360 -28602 -28604 0
28358 28603 0
28358 28604 0
-28358 -28603 -28604 0
28863 28343 0
28863 28344 0
-28863 -28343 -28344 0
28345 28346 0
28345 28352 0
-28345 -28346 -28352 0
28881 28349 0
28881 28551 0
28881 28548 0
28881 28352 0
-28881 -28349 -28551 -28548 -28352 0
28871 28354 0
28871 28360 0
28871 28358 0
-28871 -28354 -28360 -28358 0
28879 28358 0
28879 28359 0
28879 28360 0
-28879 -28358 -28359 -28360 0
28885 28362 0
28885 28363 0
-28885 -28362 -28363 0
28869 28370 0
28869 28372 0
28869 28371 0
28869 28373 0
-28869 -28370 -28372 -28371 -28373 0
28369 28370 0
28369 28371 0
28369 28372 0
28369 28373 0
-28369 -28370 -28371 -28372 -28373 0
28389 28375 0
28389 28376 0
-28389 -28375 -28376 0
28377 28757 0
28377 28392 0
-28377 -28757 -28392 0
28465 28763 0
28465 28425 0
-28465 -28763 -28425 0
28383 28425 0
28383 28385 0
28383 28392 0
28383 28414 0
-28383 -28425 -28385 -28392 -28414 0
28388 28389 0
28388 28390 0
-28388 -28389 -28390 0
28391 28392 0
28391 28759 0
-28391 -28392 -28759 0
28455 28425 0
28455 28764 0
-28455 -28425 -28764 0
28454 28727 0
28454 28402 0
-28454 -28727 -28402 0
28467 28728 0
28467 28402 0
-28467 -28728 -28402 0
28449 28404 0
28449 28512 0
-28449 -28404 -28512 0
28406 28465 0
28406 28454 0
-28406 -28465 -28454 0
28409 28455 0
28409 28467 0
-28409 -28455 -28467 0
28755 28413 0
28755 28414 0
-28755 -28413 -28414 0
28450 28729 0
28450 28441 0
-28450 -28729 -28441 0
28458 28732 0
28458 28441 0
-28458 -28732 -28441 0
28476 28735 0
28476 28441 0
-28476 -28735 -28441 0
28461 28425 0
28461 28762 0
-28461 -28425 -28762 0
28485 28738 0
28485 28441 0
-28485 -28738 -28441 0
28503 28741 0
28503 28441 0
-28503 -28741 -28441 0
28509 28744 0
28509 28441 0
-28509 -28744 -28441 0
28491 28747 0
28491 28441 0
-28491 -28747 -28441 0
28518 28750 0
28518 28441 0
-28518 -28750 -28441 0
28457 28443 0
28457 28512 0
-28457 -28443 -28512 0
28445 28706 0
28445 28755 0
-28445 -28706 -28755 0
28448 28449 0
28448 28450 0
-28448 -28449 -28450 0
28451 28460 0
28451 28461 0
28451 28454 0
28451 28455 0
-28451 -28460 -28461 -28454 -28455 0
28456 28457 0
28456 28458 0
-28456 -28457 -28458 0
28459 28460 0
28459 28461 0
28459 28462 0
28459 28463 0
-28459 -28460 -28461 -28462 -28463 0
28464 28465 0
28464 28466 0
28464 28467 0
-28464 -28465 -28466 -28467 0
28475 28469 0
28475 28512 0
-28475 -28469 -28512 0
28815 28772 0
28815 28765 0
-28815 -28772 -28765 0
28474 28475 0
28474 28476 0
-28474 -28475 -28476 0
28484 28478 0
28484 28512 0
-28484 -28478 -28512 0
28490 28481 0
28490 28512 0
-28490 -28481 -28512 0
28483 28484 0
28483 28485 0
-28483 -28484 -28485 0
28486 28487 0
28486 28488 0
-28486 -28487 -28488 0
28489 28490 0
28489 28491 0
-28489 -28490 -28491 0
28502 28493 0
28502 28512 0
-28502 -28493 -28512 0
28817 28778 0
28817 28775 0
-28817 -28778 -28775 0
28508 28499 0
28508 28512 0
-28508 -28499 -28512 0
28501 28502 0
28501 28503 0
-28501 -28502 -28503 0
28819 28784 0
28819 28781 0
-28819 -28784 -28781 0
28507 28508 0
28507 28509 0
-28507 -28508 -28509 0
28517 28511 0
28517 28512 0
-28517 -28511 -28512 0
28821 28796 0
28821 28787 0
-28821 -28796 -28787 0
28516 28517 0
28516 28518 0
-28516 -28517 -28518 0
28823 28802 0
28823 28799 0
-28823 -28802 -28799 0
28825 28790 0
28825 28805 0
-28825 -28790 -28805 0
28827 28808 0
28827 28793 0
-28827 -28808 -28793 0
28829 28637 0
28829 28811 0
-28829 -28637 -28811 0
-28531 -28532 0
-28531 -28533 0
-28531 -28534 0
28531 28532 28533 28534 0
-28535 -28536 0
-28535 -28537 0
-28535 -28538 0
28535 28536 28537 28538 0
-28539 -28540 0
-28539 -28541 0
-28539 -28542 0
28539 28540 28541 28542 0
-28543 -28544 0
-28543 -28545 0
-28543 -28546 0
28543 28544 28545 28546 0
-28547 -28548 0
-28547 -28549 0
28547 28548 28549 0
-28550 -28551 0
-28550 -28552 0
28550 28551 28552 0
-28553 -28554 0
-28553 -28555 0
-28553 -28556 0
28553 28554 28555 28556 0
-28557 -28558 0
-28557 -28559 0
-28557 -28602 0
-28557 -28605 0
28557 28558 28559 28602 28605 0
-28562 -28563 0
-28562 -28564 0
-28562 -28565 0
28562 28563 28564 28565 0
-28566 -28602 0
-28566 -28568 0
28566 28602 28568 0
-28569 -28570 0
-28569 -28571 0
-28569 -28572 0
28569 28570 28571 28572 0
-28573 -28574 0
-28573 -28575 0
-28573 -28576 0
28573 28574 28575 28576 0
-28577 -28578 0
-28577 -28579 0
28577 28578 28579 0
-28580 -28581 0
-28580 -28582 0
28580 28581 28582 0
-28583 -28584 0
-28583 -28585 0
28583 28584 28585 0
-28586 -28587 0
-28586 -28588 0
28586 28587 28588 0
-28589 -28590 0
-28589 -28591 0
28589 28590 28591 0
-28592 -28593 0
-28592 -28594 0
28592 28593 28594 0
-28595 -28596 0
-28595 -28597 0
28595 28596 28597 0
-28598 -28599 0
-28598 -28600 0
28598 28599 28600 0
-28601 -28602 0
-28601 -28603 0
28601 28602 28603 0
-28604 -28605 0
-28604 -28606 0
28604 28605 28606 0
-28607 -28608 0
-28607 -28609 0
28607 28608 28609 0
-28610 -28611 0
-28610 -28612 0
28610 28611 28612 0
-28613 -28614 0
-28613 -28615 0
28613 28614 28615 0
-28616 -28617 0
-28616 -28618 0
28616 28617 28618 0
-28873 -28642 0
-28873 -28621 0
28873 28642 28621 0
-28622 -28623 0
-28622 -28624 0
28622 28623 28624 0
-28625 -28626 0
-28625 -28627 0
28625 28626 28627 0
-28628 -28629 0
-28628 -28630 0
28628 28629 28630 0
-28631 -28632 0
-28631 -28633 0
28631 28632 28633 0
-28634 -28635 0
-28634 -28641 0
28634 28635 28641 0
-28637 -28638 0
-28637 -28639 0
28637 28638 28639 0
-28640 -28641 0
-28640 -28642 0
-28640 -28875 0
28640 28641 28642 28875 0
-28644 -28645 0
-28644 -28646 0
-28644 -28647 0
28644 28645 28646 28647 0
-28648 -28649 0
-28648 -28650 0
-28648 -28651 0
28648 28649 28650 28651 0
-28652 -28653 0
-28652 -28654 0
-28652 -28655 0
28652 28653 28654 28655 0
-28656 -28657 0
-28656 -28658 0
-28656 -28659 0
28656 28657 28658 28659 0
-28660 -28661 0
-28660 -28662 0
-28660 -28663 0
28660 28661 28662 28663 0
-28664 -28665 0
-28664 -28666 0
-28664 -28667 0
28664 28665 28666 28667 0
-28668 -28669 0
-28668 -28670 0
-28668 -28671 0
28668 28669 28670 28671 0
-28672 -28673 0
-28672 -28674 0
28672 28673 28674 0
-28675 -28676 0
-28675 -28677 0
28675 28676 28677 0
-28678 -28679 0
-28678 -28680 0
28678 28679 28680 0
-28681 -28682 0
-28681 -28683 0
28681 28682 28683 0
-28684 -28685 0
-28684 -28686 0
28684 28685 28686 0
-28687 -28688 0
-28687 -28689 0
28687 28688 28689 0
-28690 -28691 0
-28690 -28692 0
28690 28691 28692 0
-28693 -28694 0
-28693 -28695 0
28693 28694 28695 0
-28696 -28697 0
-28696 -28698 0
28696 28697 28698 0
-28699 -28700 0
-28699 -28701 0
28699 28700 28701 0
-28702 -28703 0
-28702 -28704 0
28702 28703 28704 0
-28759 -28706 0
-28759 -28754 0
28759 28706 28754 0
-28708 -28709 0
-28708 -28710 0
28708 28709 28710 0
-28711 -28712 0
-28711 -28713 0
28711 28712 28713 0
-28714 -28715 0
-28714 -28716 0
28714 28715 28716 0
-28717 -28718 0
-28717 -28719 0
28717 28718 28719 0
-28720 -28721 0
-28720 -28722 0
28720 28721 28722 0
-28728 -28724 0
-28728 -28725 0
28728 28724 28725 0
-28726 -28727 0
-28726 -28728 0
28726 28727 28728 0
-28729 -28730 0
-28729 -28731 0
28729 28730 28731 0
-28732 -28733 0
-28732 -28734 0
28732 28733 28734 0
-28735 -28736 0
-28735 -28737 0
28735 28736 28737 0
-28738 -28739 0
-28738 -28740 0
28738 28739 28740 0
-28741 -28742 0
-28741 -28743 0
28741 28742 28743 0
-28744 -28745 0
-28744 -28746 0
28744 28745 28746 0
-28747 -28748 0
-28747 -28749 0
28747 28748 28749 0
-28750 -28751 0
-28750 -28752 0
28750 28751 28752 0
-28758 -28754 0
-28758 -28755 0
28758 28754 28755 0
-28756 -28757 0
-28756 -28758 0
-28756 -28759 0
28756 28757 28758 28759 0
-28760 -28761 0
-28760 -28762 0
-28760 -28763 0
-28760 -28764 0
28760 28761 28762 28763 28764 0
-28765 -28766 0
-28765 -28767 0
28765 28766 28767 0
-28768 -28769 0
-28768 -28770 0
-28768 -28771 0
28768 28769 28770 28771 0
-28772 -28773 0
-28772 -28774 0
28772 28773 28774 0
-28775 -28776 0
-28775 -28777 0
28775 28776 28777 0
-28778 -28779 0
-28778 -28780 0
28778 28779 28780 0
-28781 -28782 0
-28781 -28783 0
28781 28782 28783 0
-28784 -28785 0
-28784 -28786 0
28784 28785 28786 0
-28787 -28788 0
-28787 -28789 0
28787 28788 28789 0
-28790 -28791 0
-28790 -28792 0
28790 28791 28792 0
-28793 -28794 0
-28793 -28795 0
28793 28794 28795 0
-28796 -28797 0
-28796 -28798 0
28796 28797 28798 0
-28799 -28800 0
-28799 -28801 0
28799 28800 28801 0
-28802 -28803 0
-28802 -28804 0
28802 28803 28804 0
-28805 -28806 0
-28805 -28807 0
28805 28806 28807 0
-28808 -28809 0
-28808 -28810 0
28808 28809 28810 0
-28811 -28812 0
-28811 -28813 0
28811 28812 28813 0
-28815 29500 0
28815 -29500 0
-28817 29503 0
28817 -29503 0
-28819 29506 0
28819 -29506 0
-28821 29509 0
28821 -29509 0
-28823 29512 0
28823 -29512 0
-28825 29515 0
28825 -29515 0
-28827 29518 0
28827 -29518 0
-28829 29521 0
28829 -29521 0
-28831 29967 0
28831 -29967 0
-28833 29455 0
28833 -29455 0
-28835 29458 0
28835 -29458 0
-28837 29461 0
28837 -29461 0
-28839 29464 0
28839 -29464 0
-28841 29467 0
28841 -29467 0
-28843 29470 0
28843 -29470 0
-28845 29473 0
28845 -29473 0
-28847 29404 0
28847 -29404 0
-28849 29407 0
28849 -29407 0
-28851 29410 0
28851 -29410 0
-28853 29413 0
28853 -29413 0
-28855 29416 0
28855 -29416 0
-28857 29419 0
28857 -29419 0
-28859 29422 0
28859 -29422 0
-28861 29966 0
28861 -29966 0
-28863 30229 0
28863 -30229 0
-28865 29984 0
28865 -29984 0
-28867 30275 0
28867 -30275 0
-28869 29970 0
28869 -29970 0
-28871 29988 0
28871 -29988 0
-28873 29138 0
28873 -29138 0
-28875 28874 0
28875 -28874 0
-28877 29156 0
28877 -29156 0
-28879 29210 0
28879 -29210 0
-28881 29303 0
28881 -29303 0
-28883 29183 0
28883 -29183 0
-28885 29150 0
28885 -29150 0
-28887 29174 0
28887 -29174 0
29353 29302 0
-29353 -29302 0
30029 29967 0
-30029 -29967 0
30278 29970 0
-30278 -29970 0
30218 30229 0
-30218 -30229 0
29327 29276 0
-29327 -29276 0
30002 28899 0
-30002 -28899 0
30221 29984 0
-30221 -29984 0
30022 30275 0
-30022 -30275 0
30228 29978 0
-30228 -29978 0
30238 29988 0
-30238 -29988 0
29991 29995 0
-29991 -29995 0
29852 29968 0
-29852 -29968 0
30014 30217 0
-30014 -30217 0
30024 30220 0
-30024 -30220 0
30553 30236 0
-30553 -30236 0
30517 30247 0
-30517 -30247 0
30519 30250 0
-30519 -30250 0
30521 30253 0
-30521 -30253 0
30523 30256 0
-30523 -30256 0
30525 30259 0
-30525 -30259 0
30527 30262 0
-30527 -30262 0
30529 30265 0
-30529 -30265 0
30531 30268 0
-30531 -30268 0
30019 30271 0
-30019 -30271 0
30042 30277 0
-30042 -30277 0
28945 30280 0
-28945 -30280 0
30537 30015 0
-30537 -30015 0
30111 28945 0
-30111 -28945 0
28951 28945 0
-28951 -28945 0
29378 30283 0
-29378 -30283 0
28955 30286 0
-28955 -30286 0
30182 28951 0
-30182 -28951 0
29690 28955 0
-29690 -28955 0
28997 28955 0
-28997 -28955 0
30311 30292 0
-30311 -30292 0
29426 30295 0
-29426 -30295 0
30046 30298 0
-30046 -30298 0
29005 30298 0
-29005 -30298 0
29597 29864 0
-29597 -29864 0
29428 29864 0
-29428 -29864 0
29603 29867 0
-29603 -29867 0
29431 29867 0
-29431 -29867 0
29609 29870 0
-29609 -29870 0
29434 29870 0
-29434 -29870 0
29615 29873 0
-29615 -29873 0
29437 29873 0
-29437 -29873 0
29621 29876 0
-29621 -29876 0
29440 29876 0
-29440 -29876 0
29627 29879 0
-29627 -29879 0
29443 29879 0
-29443 -29879 0
29633 29882 0
-29633 -29882 0
29446 29882 0
-29446 -29882 0
29639 29885 0
-29639 -29885 0
29449 29885 0
-29449 -29885 0
29717 28997 0
-29717 -28997 0
30545 30301 0
-30545 -30301 0
29693 30046 0
-29693 -30046 0
29750 29005 0
-29750 -29005 0
29023 29005 0
-29023 -29005 0
29524 29865 0
-29524 -29865 0
29527 29868 0
-29527 -29868 0
29530 29871 0
-29530 -29871 0
29533 29874 0
-29533 -29874 0
29536 29877 0
-29536 -29877 0
29539 29880 0
-29539 -29880 0
29542 29883 0
-29542 -29883 0
29545 29886 0
-29545 -29886 0
29594 29023 0
-29594 -29023 0
29549 29594 0
-29549 -29594 0
29552 29594 0
-29552 -29594 0
29555 29594 0
-29555 -29594 0
29558 29594 0
-29558 -29594 0
29561 29594 0
-29561 -29594 0
29564 29594 0
-29564 -29594 0
29567 29594 0
-29567 -29594 0
29570 29594 0
-29570 -29594 0
30501 30314 0
-30501 -30314 0
30503 30318 0
-30503 -30318 0
30505 30322 0
-30505 -30322 0
30507 30326 0
-30507 -30326 0
30509 30330 0
-30509 -30330 0
30511 30334 0
-30511 -30334 0
30513 30338 0
-30513 -30338 0
29644 29887 0
-29644 -29887 0
29650 29890 0
-29650 -29890 0
29656 29893 0
-29656 -29893 0
29662 29896 0
-29662 -29896 0
29668 29899 0
-29668 -29899 0
29674 29902 0
-29674 -29902 0
29680 29905 0
-29680 -29905 0
29686 29908 0
-29686 -29908 0
30060 29647 0
-30060 -29647 0
30376 29659 0
-30376 -29659 0
30130 29677 0
-30130 -29677 0
30158 29683 0
-30158 -29683 0
29722 30045 0
-29722 -30045 0
30394 29914 0
-30394 -29914 0
29725 29914 0
-29725 -29914 0
29755 30084 0
-29755 -30084 0
30424 30055 0
-30424 -30055 0
29761 30055 0
-29761 -30055 0
29788 30062 0
-29788 -30062 0
29791 30095 0
-29791 -30095 0
29954 29929 0
-29954 -29929 0
29779 29929 0
-29779 -29929 0
29812 29932 0
-29812 -29932 0
30434 30047 0
-30434 -30047 0
30072 30053 0
-30072 -30053 0
29753 30058 0
-29753 -30058 0
30432 30061 0
-30432 -30061 0
29756 30396 0
-29756 -30396 0
30132 30076 0
-30132 -30076 0
29759 29756 0
-29759 -29756 0
30133 30079 0
-30133 -30079 0
29783 30115 0
-29783 -30115 0
30136 30121 0
-30136 -30121 0
29786 30129 0
-29786 -30129 0
29789 30426 0
-29789 -30426 0
29792 30430 0
-29792 -30430 0
29795 29789 0
-29795 -29789 0
30515 30438 0
-30515 -30438 0
29955 30134 0
-29955 -30134 0
29804 29792 0
-29804 -29792 0
29822 30156 0
-29822 -30156 0
-30302 29302 0
-30302 29138 0
30302 -29302 -29138 0
-30240 29257 0
-30240 29473 0
30240 -29257 -29473 0
-30450 29281 0
-30450 30312 0
30450 -29281 -30312 0
-30214 29257 0
-30214 29967 0
30214 -29257 -29967 0
-30299 29302 0
-30299 29150 0
30299 -29302 -29150 0
-30233 29257 0
-30233 29464 0
30233 -29257 -29464 0
-30284 29302 0
-30284 29156 0
30284 -29302 -29156 0
-30203 29254 0
-30203 29422 0
30203 -29254 -29422 0
-30241 29254 0
-30241 29966 0
30241 -29254 -29966 0
-30206 29257 0
-30206 29461 0
30206 -29257 -29461 0
-30462 29293 0
-30462 30312 0
30462 -29293 -30312 0
-30225 29254 0
-30225 29419 0
30225 -29254 -29419 0
-30281 29302 0
-30281 29174 0
30281 -29302 -29174 0
-30204 29269 0
-30204 29518 0
30204 -29269 -29518 0
-30235 29269 0
-30235 29512 0
30235 -29269 -29512 0
-30287 29302 0
-30287 29183 0
30287 -29302 -29183 0
-30202 29257 0
-30202 29470 0
30202 -29257 -29470 0
-30474 29290 0
-30474 30312 0
30474 -29290 -30312 0
-30245 29254 0
-30245 29407 0
30245 -29254 -29407 0
-30208 29269 0
-30208 29509 0
30208 -29269 -29509 0
-30456 29284 0
-30456 30312 0
30456 -29284 -30312 0
-30207 29254 0
-30207 29413 0
30207 -29254 -29413 0
-30226 29269 0
-30226 29515 0
30226 -29269 -29515 0
-30212 29269 0
-30212 29506 0
30212 -29269 -29506 0
-30296 29302 0
-30296 29210 0
30296 -29302 -29210 0
-30480 29296 0
-30480 30312 0
30480 -29296 -30312 0
-30216 29269 0
-30216 29500 0
30216 -29269 -29500 0
-30211 29254 0
-30211 29410 0
30211 -29254 -29410 0
-30252 29281 0
-30252 29276 0
30252 -29281 -29276 0
-30255 29284 0
-30255 29276 0
30255 -29284 -29276 0
-30261 29290 0
-30261 29276 0
30261 -29290 -29276 0
-30264 29293 0
-30264 29276 0
30264 -29293 -29276 0
-30267 29296 0
-30267 29276 0
30267 -29296 -29276 0
-30210 29257 0
-30210 29458 0
30210 -29257 -29458 0
-30215 29254 0
-30215 29404 0
30215 -29254 -29404 0
-30219 29984 0
-30219 30275 0
30219 -29984 -30275 0
-30309 29299 0
-30309 30312 0
30309 -29299 -30312 0
-30270 29299 0
-30270 29276 0
30270 -29299 -29276 0
-30224 29257 0
-30224 29467 0
30224 -29257 -29467 0
-30234 29254 0
-30234 29416 0
30234 -29254 -29416 0
-30244 29257 0
-30244 29455 0
30244 -29257 -29455 0
-30444 29278 0
-30444 30312 0
30444 -29278 -30312 0
-30249 29278 0
-30249 29276 0
30249 -29278 -29276 0
-30242 29269 0
-30242 29521 0
30242 -29269 -29521 0
-30246 29269 0
-30246 29503 0
30246 -29269 -29503 0
-30468 29287 0
-30468 30312 0
30468 -29287 -30312 0
-30258 29287 0
-30258 29276 0
30258 -29287 -29276 0
-30316 29278 0
-30316 30305 0
30316 -29278 -30305 0
-30320 29281 0
-30320 30305 0
30320 -29281 -30305 0
-30324 29284 0
-30324 30305 0
30324 -29284 -30305 0
-30328 29287 0
-30328 30305 0
30328 -29287 -30305 0
-30332 29290 0
-30332 30305 0
30332 -29290 -30305 0
-30336 29293 0
-30336 30305 0
30336 -29293 -30305 0
-30340 29296 0
-30340 30305 0
30340 -29296 -30305 0
-30440 29299 0
-30440 30305 0
30440 -29299 -30305 0
-30293 29302 0
-30293 29303 0
30293 -29302 -29303 0
-30248 29404 0
-30248 29327 0
30248 -29404 -29327 0
-30251 29407 0
-30251 29327 0
30251 -29407 -29327 0
-30254 29410 0
-30254 29327 0
30254 -29410 -29327 0
-30257 29413 0
-30257 29327 0
30257 -29413 -29327 0
-30260 29416 0
-30260 29327 0
30260 -29416 -29327 0
-30263 29419 0
-30263 29327 0
30263 -29419 -29327 0
-30266 29422 0
-30266 29327 0
30266 -29422 -29327 0
-30269 29966 0
-30269 29327 0
30269 -29966 -29327 0
-30279 29974 0
-30279 29998 0
30279 -29974 -29998 0
-30282 29353 0
-30282 30557 0
30282 -29353 -30557 0
-30285 29353 0
-30285 30547 0
30285 -29353 -30547 0
-30288 29353 0
-30288 30553 0
30288 -29353 -30553 0
-30291 30030 0
-30291 30028 0
30291 -30030 -30028 0
-30294 29353 0
-30294 30551 0
30294 -29353 -30551 0
-30297 29353 0
-30297 30549 0
30297 -29353 -30549 0
-30300 29353 0
-30300 30555 0
30300 -29353 -30555 0
-30303 29353 0
-30303 30543 0
30303 -29353 -30543 0
-29864 29500 0
-29864 29378 0
29864 -29500 -29378 0
-29867 29503 0
-29867 29378 0
29867 -29503 -29378 0
-29870 29506 0
-29870 29378 0
29870 -29506 -29378 0
-29873 29509 0
-29873 29378 0
29873 -29509 -29378 0
-29876 29512 0
-29876 29378 0
29876 -29512 -29378 0
-29879 29515 0
-29879 29378 0
29879 -29515 -29378 0
-29882 29518 0
-29882 29378 0
29882 -29518 -29378 0
-29885 29521 0
-29885 29378 0
29885 -29521 -29378 0
-30308 30039 0
-30308 30311 0
30308 -30039 -30311 0
-30315 29455 0
-30315 30311 0
30315 -29455 -30311 0
-30319 29458 0
-30319 30311 0
30319 -29458 -30311 0
-30323 29461 0
-30323 30311 0
30323 -29461 -30311 0
-30327 29464 0
-30327 30311 0
30327 -29464 -30311 0
-30331 29467 0
-30331 30311 0
30331 -29467 -30311 0
-30335 29470 0
-30335 30311 0
30335 -29470 -30311 0
-30339 29473 0
-30339 30311 0
30339 -29473 -30311 0
-29865 29404 0
-29865 29426 0
29865 -29404 -29426 0
-29868 29407 0
-29868 29426 0
29868 -29407 -29426 0
-29871 29410 0
-29871 29426 0
29871 -29410 -29426 0
-29874 29413 0
-29874 29426 0
29874 -29413 -29426 0
-29877 29416 0
-29877 29426 0
29877 -29416 -29426 0
-29880 29419 0
-29880 29426 0
29880 -29419 -29426 0
-29883 29422 0
-29883 29426 0
29883 -29422 -29426 0
-29886 29966 0
-29886 29426 0
29886 -29966 -29426 0
-30344 29428 0
-30344 29717 0
30344 -29428 -29717 0
-30347 29431 0
-30347 29717 0
30347 -29431 -29717 0
-30350 29434 0
-30350 29717 0
30350 -29434 -29717 0
-30353 29437 0
-30353 29717 0
30353 -29437 -29717 0
-30356 29440 0
-30356 29717 0
30356 -29440 -29717 0
-30359 29443 0
-30359 29717 0
30359 -29443 -29717 0
-30362 29446 0
-30362 29717 0
30362 -29446 -29717 0
-30365 29449 0
-30365 29717 0
30365 -29449 -29717 0
-30317 29967 0
-30317 30304 0
30317 -29967 -30304 0
-30321 29455 0
-30321 30304 0
30321 -29455 -30304 0
-30325 29458 0
-30325 30304 0
30325 -29458 -30304 0
-30329 29461 0
-30329 30304 0
30329 -29461 -30304 0
-30333 29464 0
-30333 30304 0
30333 -29464 -30304 0
-30337 29467 0
-30337 30304 0
30337 -29467 -30304 0
-30341 29470 0
-30341 30304 0
30341 -29470 -30304 0
-30441 29473 0
-30441 30304 0
30441 -29473 -30304 0
-30343 29863 0
-30343 29690 0
30343 -29863 -29690 0
-30346 29866 0
-30346 29690 0
30346 -29866 -29690 0
-30349 29869 0
-30349 29690 0
30349 -29869 -29690 0
-30352 29872 0
-30352 29690 0
30352 -29872 -29690 0
-30355 29875 0
-30355 29690 0
30355 -29875 -29690 0
-30358 29878 0
-30358 29690 0
30358 -29878 -29690 0
-30361 29881 0
-30361 29690 0
30361 -29881 -29690 0
-30364 29884 0
-30364 29690 0
30364 -29884 -29690 0
-30436 29500 0
-30436 30310 0
30436 -29500 -30310 0
-30446 29503 0
-30446 30310 0
30446 -29503 -30310 0
-30452 29506 0
-30452 30310 0
30452 -29506 -30310 0
-30458 29509 0
-30458 30310 0
30458 -29509 -30310 0
-30470 29512 0
-30470 30310 0
30470 -29512 -30310 0
-30476 29515 0
-30476 30310 0
30476 -29515 -30310 0
-30464 29518 0
-30464 30310 0
30464 -29518 -30310 0
-30482 29521 0
-30482 30310 0
30482 -29521 -30310 0
-29889 29524 0
-29889 29594 0
29889 -29524 -29594 0
-29892 29527 0
-29892 29594 0
29892 -29527 -29594 0
-29895 29530 0
-29895 29594 0
29895 -29530 -29594 0
-29898 29533 0
-29898 29594 0
29898 -29533 -29594 0
-29901 29536 0
-29901 29594 0
29901 -29536 -29594 0
-29904 29539 0
-29904 29594 0
29904 -29539 -29594 0
-29907 29542 0
-29907 29594 0
29907 -29542 -29594 0
-29910 29545 0
-29910 29594 0
29910 -29545 -29594 0
-29888 29865 0
-29888 29549 0
29888 -29865 -29549 0
-29891 29868 0
-29891 29552 0
29891 -29868 -29552 0
-29894 29871 0
-29894 29555 0
29894 -29871 -29555 0
-29897 29874 0
-29897 29558 0
29897 -29874 -29558 0
-29900 29877 0
-29900 29561 0
29900 -29877 -29561 0
-29903 29880 0
-29903 29564 0
29903 -29880 -29564 0
-29906 29883 0
-29906 29567 0
29906 -29883 -29567 0
-29909 29886 0
-29909 29570 0
29909 -29886 -29570 0
-30401 30342 0
-30401 29594 0
30401 -30342 -29594 0
-30404 30345 0
-30404 29594 0
30404 -30345 -29594 0
-30407 30348 0
-30407 29594 0
30407 -30348 -29594 0
-30410 30351 0
-30410 29594 0
30410 -30351 -29594 0
-30413 30354 0
-30413 29594 0
30413 -30354 -29594 0
-30416 30357 0
-30416 29594 0
30416 -30357 -29594 0
-30419 30360 0
-30419 29594 0
30419 -30360 -29594 0
-30422 30363 0
-30422 29594 0
30422 -30363 -29594 0
-29912 29887 0
-29912 29597 0
29912 -29887 -29597 0
-29647 29887 0
-29647 29864 0
29647 -29887 -29864 0
-29915 29890 0
-29915 29603 0
29915 -29890 -29603 0
-30397 29890 0
-30397 29867 0
30397 -29890 -29867 0
-29918 29893 0
-29918 29609 0
29918 -29893 -29609 0
-29659 29893 0
-29659 29870 0
29659 -29893 -29870 0
-29921 29896 0
-29921 29615 0
29921 -29896 -29615 0
-30427 29896 0
-30427 29873 0
30427 -29896 -29873 0
-29924 29899 0
-29924 29621 0
29924 -29899 -29621 0
-30433 29899 0
-30433 29876 0
30433 -29899 -29876 0
-29927 29902 0
-29927 29627 0
29927 -29902 -29627 0
-29677 29902 0
-29677 29879 0
29677 -29902 -29879 0
-29930 29905 0
-29930 29633 0
29930 -29905 -29633 0
-29683 29905 0
-29683 29882 0
29683 -29905 -29882 0
-29933 29908 0
-29933 29639 0
29933 -29908 -29639 0
-29689 29908 0
-29689 29885 0
29689 -29908 -29885 0
-29913 29644 0
-29913 29864 0
29913 -29644 -29864 0
-30367 29647 0
-30367 29690 0
30367 -29647 -29690 0
-29916 29650 0
-29916 29867 0
29916 -29650 -29867 0
-30370 30397 0
-30370 29690 0
30370 -30397 -29690 0
-29919 29656 0
-29919 29870 0
29919 -29656 -29870 0
-30373 29659 0
-30373 29690 0
30373 -29659 -29690 0
-29922 29662 0
-29922 29873 0
29922 -29662 -29873 0
-30379 30427 0
-30379 29690 0
30379 -30427 -29690 0
-29925 29668 0
-29925 29876 0
29925 -29668 -29876 0
-30382 30433 0
-30382 29690 0
30382 -30433 -29690 0
-29928 29674 0
-29928 29879 0
29928 -29674 -29879 0
-30385 29677 0
-30385 29690 0
30385 -29677 -29690 0
-29931 29680 0
-29931 29882 0
29931 -29680 -29882 0
-30388 29683 0
-30388 29690 0
30388 -29683 -29690 0
-29934 29686 0
-29934 29885 0
29934 -29686 -29885 0
-30391 29689 0
-30391 29690 0
30391 -29689 -29690 0
-29936 30045 0
-29936 29693 0
29936 -30045 -29693 0
-30368 30045 0
-30368 29717 0
30368 -30045 -29717 0
-30371 29914 0
-30371 29717 0
30371 -29914 -29717 0
-30374 30084 0
-30374 29717 0
30374 -30084 -29717 0
-30380 30055 0
-30380 29717 0
30380 -30055 -29717 0
-30383 30062 0
-30383 29717 0
30383 -30062 -29717 0
-30386 30095 0
-30386 29717 0
30386 -30095 -29717 0
-30389 29929 0
-30389 29717 0
30389 -29929 -29717 0
-30392 29932 0
-30392 29717 0
30392 -29932 -29717 0
-30395 30060 0
-30395 30059 0
30395 -30060 -30059 0
-29937 29722 0
-29937 30046 0
29937 -29722 -30046 0
-29943 29725 0
-29943 30058 0
29943 -29725 -30058 0
-30400 30366 0
-30400 29750 0
30400 -30366 -29750 0
-30403 30369 0
-30403 29750 0
30403 -30369 -29750 0
-30406 30372 0
-30406 29750 0
30406 -30372 -29750 0
-30409 30378 0
-30409 29750 0
30409 -30378 -29750 0
-30412 30381 0
-30412 29750 0
30412 -30381 -29750 0
-30415 30384 0
-30415 29750 0
30415 -30384 -29750 0
-30418 30387 0
-30418 29750 0
30418 -30387 -29750 0
-30421 30390 0
-30421 29750 0
30421 -30390 -29750 0
-29942 29914 0
-29942 29753 0
29942 -29914 -29753 0
-29946 29755 0
-29946 29756 0
29946 -29755 -29756 0
-29945 30084 0
-29945 29759 0
29945 -30084 -29759 0
-29949 29761 0
-29949 30115 0
29949 -29761 -30115 0
-30431 30062 0
-30431 30428 0
30431 -30062 -30428 0
-30437 30118 0
-30437 30545 0
30437 -30118 -30545 0
-30439 30118 0
-30439 30311 0
30439 -30118 -30311 0
-30443 30126 0
-30443 30311 0
30443 -30126 -30311 0
-30447 30126 0
-30447 30545 0
30447 -30126 -30545 0
-29952 29779 0
-29952 30129 0
29952 -29779 -30129 0
-29948 30055 0
-29948 29783 0
29948 -30055 -29783 0
-29951 29929 0
-29951 29786 0
29951 -29929 -29786 0
-29958 29788 0
-29958 29789 0
29958 -29788 -29789 0
-29961 29791 0
-29961 29792 0
29961 -29791 -29792 0
-29957 30062 0
-29957 29795 0
29957 -30062 -29795 0
-30449 30144 0
-30449 30311 0
30449 -30144 -30311 0
-30453 30144 0
-30453 30545 0
30453 -30144 -30545 0
-29960 30095 0
-29960 29804 0
29960 -30095 -29804 0
-30455 30153 0
-30455 30311 0
30455 -30153 -30311 0
-30459 30153 0
-30459 30545 0
30459 -30153 -30545 0
-29964 29812 0
-29964 30156 0
29964 -29812 -30156 0
-30461 30159 0
-30461 30311 0
30461 -30159 -30311 0
-30465 30159 0
-30465 30545 0
30465 -30159 -30545 0
-29963 29932 0
-29963 29822 0
29963 -29932 -29822 0
-30467 30171 0
-30467 30311 0
30467 -30171 -30311 0
-30471 30171 0
-30471 30545 0
30471 -30171 -30545 0
-30473 30177 0
-30473 30311 0
30473 -30177 -30311 0
-30477 30177 0
-30477 30545 0
30477 -30177 -30545 0
-30479 30186 0
-30479 30311 0
30479 -30186 -30311 0
-30483 30186 0
-30483 30545 0
30483 -30186 -30545 0
29993 -29966 0
29993 -29967 0
-29993 29966 29967 0
29997 -29984 0
29997 -30022 0
-29997 29984 30022 0
30033 -30002 0
30033 -30238 0
-30033 30002 30238 0
30004 -29991 0
30004 -29852 0
-30004 29991 29852 0
30013 -30221 0
30013 -29974 0
-30013 30221 29974 0
30016 -30271 0
30016 -30276 0
-30016 30271 30276 0
30032 -30024 0
30032 -30029 0
30032 -29988 0
-30032 30024 30029 29988 0
29863 -29864 0
29863 -29865 0
-29863 29864 29865 0
29866 -29867 0
29866 -29868 0
-29866 29867 29868 0
29869 -29870 0
29869 -29871 0
-29869 29870 29871 0
29872 -29873 0
29872 -29874 0
-29872 29873 29874 0
29875 -29876 0
29875 -29877 0
-29875 29876 29877 0
29878 -29879 0
29878 -29880 0
-29878 29879 29880 0
29881 -29882 0
29881 -29883 0
-29881 29882 29883 0
29884 -29885 0
29884 -29886 0
-29884 29885 29886 0
29887 -29888 0
29887 -29889 0
-29887 29888 29889 0
29890 -29891 0
29890 -29892 0
-29890 29891 29892 0
29893 -29894 0
29893 -29895 0
-29893 29894 29895 0
29896 -29897 0
29896 -29898 0
-29896 29897 29898 0
29899 -29900 0
29899 -29901 0
-29899 29900 29901 0
29902 -29903 0
29902 -29904 0
-29902 29903 29904 0
29905 -29906 0
29905 -29907 0
-29905 29906 29907 0
29908 -29909 0
29908 -29910 0
-29908 29909 29910 0
30045 -29912 0
30045 -29913 0
-30045 29912 29913 0
29914 -29915 0
29914 -29916 0
-29914 29915 29916 0
30084 -29918 0
30084 -29919 0
-30084 29918 29919 0
30055 -29921 0
30055 -29922 0
-30055 29921 29922 0
30062 -29924 0
30062 -29925 0
-30062 29924 29925 0
30095 -29927 0
30095 -29928 0
-30095 29927 29928 0
29929 -29930 0
29929 -29931 0
-29929 29930 29931 0
29932 -29933 0
29932 -29934 0
-29932 29933 29934 0
30074 -29936 0
30074 -29937 0
-30074 29936 29937 0
30083 -30397 0
30083 -30398 0
-30083 30397 30398 0
30113 -29942 0
30113 -29943 0
-30113 29942 29943 0
30139 -29945 0
30139 -29946 0
-30139 29945 29946 0
30148 -29948 0
30148 -29949 0
-30148 29948 29949 0
30151 -29951 0
30151 -29952 0
-30151 29951 29952 0
30157 -29954 0
30157 -29955 0
-30157 29954 29955 0
30163 -29957 0
30163 -29958 0
-30163 29957 29958 0
30169 -29960 0
30169 -29961 0
-30169 29960 29961 0
30181 -29963 0
30181 -29964 0
-30181 29963 29964 0
29995 29966 0
29995 29967 0
-29995 -29966 -29967 0
29968 30229 0
29968 29970 0
-29968 -30229 -29970 0
30222 30229 0
30222 30275 0
-30222 -30229 -30275 0
29974 30218 0
29974 30275 0
-29974 -30218 -30275 0
30273 29978 0
30273 30002 0
-30273 -29978 -30002 0
30276 30218 0
30276 30221 0
-30276 -30218 -30221 0
29998 29984 0
29998 30022 0
-29998 -29984 -30022 0
30557 30228 0
30557 29988 0
-30557 -30228 -29988 0
30040 30222 0
30040 29991 0
-30040 -30222 -29991 0
30043 29993 0
30043 30220 0
30043 29995 0
-30043 -29993 -30220 -29995 0
30535 29997 0
30535 29998 0
-30535 -29997 -29998 0
30547 30221 0
30547 30227 0
30547 30002 0
-30547 -30221 -30227 -30002 0
30041 30004 0
30041 30221 0
-30041 -30004 -30221 0
30030 30272 0
30030 30274 0
-30030 -30272 -30274 0
30028 30273 0
30028 30274 0
-30028 -30273 -30274 0
30533 30013 0
30533 30014 0
-30533 -30013 -30014 0
30015 30016 0
30015 30022 0
-30015 -30016 -30022 0
30551 30019 0
30551 30221 0
30551 30218 0
30551 30022 0
-30551 -30019 -30221 -30218 -30022 0
30541 30024 0
30541 30030 0
30541 30028 0
-30541 -30024 -30030 -30028 0
30549 30028 0
30549 30029 0
30549 30030 0
-30549 -30028 -30029 -30030 0
30555 30032 0
30555 30033 0
-30555 -30032 -30033 0
30539 30040 0
30539 30042 0
30539 30041 0
30539 30043 0
-30539 -30040 -30042 -30041 -30043 0
30039 30040 0
30039 30041 0
30039 30042 0
30039 30043 0
-30039 -30040 -30041 -30042 -30043 0
30059 30045 0
30059 30046 0
-30059 -30045 -30046 0
30047 30427 0
30047 30062 0
-30047 -30427 -30062 0
30135 30433 0
30135 30095 0
-30135 -30433 -30095 0
30053 30095 0
30053 30055 0
30053 30062 0
30053 30084 0
-30053 -30095 -30055 -30062 -30084 0
30058 30059 0
30058 30060 0
-30058 -30059 -30060 0
30061 30062 0
30061 30429 0
-30061 -30062 -30429 0
30125 30095 0
30125 30434 0
-30125 -30095 -30434 0
30124 30397 0
30124 30072 0
-30124 -30397 -30072 0
30137 30398 0
30137 30072 0
-30137 -30398 -30072 0
30119 30074 0
30119 30182 0
-30119 -30074 -30182 0
30076 30135 0
30076 30124 0
-30076 -30135 -30124 0
30079 30125 0
30079 30137 0
-30079 -30125 -30137 0
30425 30083 0
30425 30084 0
-30425 -30083 -30084 0
30120 30399 0
30120 30111 0
-30120 -30399 -30111 0
30128 30402 0
30128 30111 0
-30128 -30402 -30111 0
30146 30405 0
30146 30111 0
-30146 -30405 -30111 0
30131 30095 0
30131 30432 0
-30131 -30095 -30432 0
30155 30408 0
30155 30111 0
-30155 -30408 -30111 0
30173 30411 0
30173 30111 0
-30173 -30411 -30111 0
30179 30414 0
30179 30111 0
-30179 -30414 -30111 0
30161 30417 0
30161 30111 0
-30161 -30417 -30111 0
30188 30420 0
30188 30111 0
-30188 -30420 -30111 0
30127 30113 0
30127 30182 0
-30127 -30113 -30182 0
30115 30376 0
30115 30425 0
-30115 -30376 -30425 0
30118 30119 0
30118 30120 0
-30118 -30119 -30120 0
30121 30130 0
30121 30131 0
30121 30124 0
30121 30125 0
-30121 -30130 -30131 -30124 -30125 0
30126 30127 0
30126 30128 0
-30126 -30127 -30128 0
30129 30130 0
30129 30131 0
30129 30132 0
30129 30133 0
-30129 -30130 -30131 -30132 -30133 0
30134 30135 0
30134 30136 0
30134 30137 0
-30134 -30135 -30136 -30137 0
30145 30139 0
30145 30182 0
-30145 -30139 -30182 0
30485 30442 0
30485 30435 0
-30485 -30442 -30435 0
30144 30145 0
30144 30146 0
-30144 -30145 -30146 0
30154 30148 0
30154 30182 0
-30154 -30148 -30182 0
30160 30151 0
30160 30182 0
-30160 -30151 -30182 0
30153 30154 0
30153 30155 0
-30153 -30154 -30155 0
30156 30157 0
30156 30158 0
-30156 -30157 -30158 0
30159 30160 0
30159 30161 0
-30159 -30160 -30161 0
30172 30163 0
30172 30182 0
-30172 -30163 -30182 0
30487 30448 0
30487 30445 0
-30487 -30448 -30445 0
30178 30169 0
30178 30182 0
-30178 -30169 -30182 0
30171 30172 0
30171 30173 0
-30171 -30172 -30173 0
30489 30454 0
30489 30451 0
-30489 -30454 -30451 0
30177 30178 0
30177 30179 0
-30177 -30178 -30179 0
30187 30181 0
30187 30182 0
-30187 -30181 -30182 0
30491 30466 0
30491 30457 0
-30491 -30466 -30457 0
30186 30187 0
30186 30188 0
-30186 -30187 -30188 0
30493 30472 0
30493 30469 0
-30493 -30472 -30469 0
30495 30460 0
30495 30475 0
-30495 -30460 -30475 0
30497 30478 0
30497 30463 0
-30497 -30478 -30463 0
30499 30307 0
30499 30481 0
-30499 -30307 -30481 0
-30201 -30202 0
-30201 -30203 0
-30201 -30204 0
30201 30202 30203 30204 0
-30205 -30206 0
-30205 -30207 0
-30205 -30208 0
30205 30206 30207 30208 0
-30209 -30210 0
-30209 -30211 0
-30209 -30212 0
30209 30210 30211 30212 0
-30213 -30214 0
-30213 -30215 0
-30213 -30216 0
30213 30214 30215 30216 0
-30217 -30218 0
-30217 -30219 0
30217 30218 30219 0
-30220 -30221 0
-30220 -30222 0
30220 30221 30222 0
-30223 -30224 0
-30223 -30225 0
-30223 -30226 0
30223 30224 30225 30226 0
-30227 -30228 0
-30227 -30229 0
-30227 -30272 0
-30227 -30275 0
30227 30228 30229 30272 30275 0
-30232 -30233 0
-30232 -30234 0
-30232 -30235 0
30232 30233 30234 30235 0
-30236 -30272 0
-30236 -30238 0
30236 30272 30238 0
-30239 -30240 0
-30239 -30241 0
-30239 -30242 0
30239 30240 30241 30242 0
-30243 -30244 0
-30243 -30245 0
-30243 -30246 0
30243 30244 30245 30246 0
-30247 -30248 0
-30247 -30249 0
30247 30248 30249 0
-30250 -30251 0
-30250 -30252 0
30250 30251 30252 0
-30253 -30254 0
-30253 -30255 0
30253 30254 30255 0
-30256 -30257 0
-30256 -30258 0
30256 30257 30258 0
-30259 -30260 0
-30259 -30261 0
30259 30260 30261 0
-30262 -30263 0
-30262 -30264 0
30262 30263 30264 0
-30265 -30266 0
-30265 -30267 0
30265 30266 30267 0
-30268 -30269 0
-30268 -30270 0
30268 30269 30270 0
-30271 -30272 0
-30271 -30273 0
30271 30272 30273 0
-30274 -30275 0
-30274 -30276 0
30274 30275 30276 0
-30277 -30278 0
-30277 -30279 0
30277 30278 30279 0
-30280 -30281 0
-30280 -30282 0
30280 30281 30282 0
-30283 -30284 0
-30283 -30285 0
30283 30284 30285 0
-30286 -30287 0
-30286 -30288 0
30286 30287 30288 0
-30543 -30312 0
-30543 -30291 0
30543 30312 30291 0
-30292 -30293 0
-30292 -30294 0
30292 30293 30294 0
-30295 -30296 0
-30295 -30297 0
30295 30296 30297 0
-30298 -30299 0
-30298 -30300 0
30298 30299 30300 0
-30301 -30302 0
-30301 -30303 0
30301 30302 30303 0
-30304 -30305 0
-30304 -30311 0
30304 30305 30311 0
-30307 -30308 0
-30307 -30309 0
30307 30308 30309 0
-30310 -30311 0
-30310 -30312 0
-30310 -30545 0
30310 30311 30312 30545 0
-30314 -30315 0
-30314 -30316 0
-30314 -30317 0
30314 30315 30316 30317 0
-30318 -30319 0
-30318 -30320 0
-30318 -30321 0
30318 30319 30320 30321 0
-30322 -30323 0
-30322 -30324 0
-30322 -30325 0
30322 30323 30324 30325 0
-30326 -30327 0
-30326 -30328 0
-30326 -30329 0
30326 30327 30328 30329 0
-30330 -30331 0
-30330 -30332 0
-30330 -30333 0
30330 30331 30332 30333 0
-30334 -30335 0
-30334 -30336 0
-30334 -30337 0
30334 30335 30336 30337 0
-30338 -30339 0
-30338 -30340 0
-30338 -30341 0
30338 30339 30340 30341 0
-30342 -30343 0
-30342 -30344 0
30342 30343 30344 0
-30345 -30346 0
-30345 -30347 0
30345 30346 30347 0
-30348 -30349 0
-30348 -30350 0
30348 30349 30350 0
-30351 -30352 0
-30351 -30353 0
30351 30352 30353 0
-30354 -30355 0
-30354 -30356 0
30354 30355 30356 0
-30357 -30358 0
-30357 -30359 0
30357 30358 30359 0
-30360 -30361 0
-30360 -30362 0
30360 30361 30362 0
-30363 -30364 0
-30363 -30365 0
30363 30364 30365 0
-30366 -30367 0
-30366 -30368 0
30366 30367 30368 0
-30369 -30370 0
-30369 -30371 0
30369 30370 30371 0
-30372 -30373 0
-30372 -30374 0
30372 30373 30374 0
-30429 -30376 0
-30429 -30424 0
30429 30376 30424 0
-30378 -30379 0
-30378 -30380 0
30378 30379 30380 0
-30381 -30382 0
-30381 -30383 0
30381 30382 30383 0
-30384 -30385 0
-30384 -30386 0
30384 30385 30386 0
-30387 -30388 0
-30387 -30389 0
30387 30388 30389 0
-30390 -30391 0
-30390 -30392 0
30390 30391 30392 0
-30398 -30394 0
-30398 -30395 0
30398 30394 30395 0
-30396 -30397 0
-30396 -30398 0
30396 30397 30398 0
-30399 -30400 0
-30399 -30401 0
30399 30400 30401 0
-30402 -30403 0
-30402 -30404 0
30402 30403 30404 0
-30405 -30406 0
-30405 -30407 0
30405 30406 30407 0
-30408 -30409 0
-30408 -30410 0
30408 30409 30410 0
-30411 -30412 0
-30411 -30413 0
30411 30412 30413 0
-30414 -30415 0
-30414 -30416 0
30414 30415 30416 0
-30417 -30418 0
-30417 -30419 0
30417 30418 30419 0
-30420 -30421 0
-30420 -30422 0
30420 30421 30422 0
-30428 -30424 0
-30428 -30425 0
30428 30424 30425 0
-30426 -30427 0
-30426 -30428 0
-30426 -30429 0
30426 30427 30428 30429 0
-30430 -30431 0
-30430 -30432 0
-30430 -30433 0
-30430 -30434 0
30430 30431 30432 30433 30434 0
-30435 -30436 0
-30435 -30437 0
30435 30436 30437 0
-30438 -30439 0
-30438 -30440 0
-30438 -30441 0
30438 30439 30440 30441 0
-30442 -30443 0
-30442 -30444 0
30442 30443 30444 0
-30445 -30446 0
-30445 -30447 0
30445 30446 30447 0
-30448 -30449 0
-30448 -30450 0
30448 30449 30450 0
-30451 -30452 0
-30451 -30453 0
30451 30452 30453 0
-30454 -30455 0
-30454 -30456 0
30454 30455 30456 0
-30457 -30458 0
-30457 -30459 0
30457 30458 30459 0
-30460 -30461 0
-30460 -30462 0
30460 30461 30462 0
-30463 -30464 0
-30463 -30465 0
30463 30464 30465 0
-30466 -30467 0
-30466 -30468 0
30466 30467 30468 0
-30469 -30470 0
-30469 -30471 0
30469 30470 30471 0
-30472 -30473 0
-30472 -30474 0
30472 30473 30474 0
-30475 -30476 0
-30475 -30477 0
30475 30476 30477 0
-30478 -30479 0
-30478 -30480 0
30478 30479 30480 0
-30481 -30482 0
-30481 -30483 0
30481 30482 30483 0
-30485 31170 0
30485 -31170 0
-30487 31173 0
30487 -31173 0
-30489 31176 0
30489 -31176 0
-30491 31179 0
30491 -31179 0
-30493 31182 0
30493 -31182 0
-30495 31185 0
30495 -31185 0
-30497 31188 0
30497 -31188 0
-30499 31191 0
30499 -31191 0
-30501 31637 0
30501 -31637 0
-30503 31125 0
30503 -31125 0
-30505 31128 0
30505 -31128 0
-30507 31131 0
30507 -31131 0
-30509 31134 0
30509 -31134 0
-30511 31137 0
30511 -31137 0
-30513 31140 0
30513 -31140 0
-30515 31143 0
30515 -31143 0
-30517 31074 0
30517 -31074 0
-30519 31077 0
30519 -31077 0
-30521 31080 0
30521 -31080 0
-30523 31083 0
30523 -31083 0
-30525 31086 0
30525 -31086 0
-30527 31089 0
30527 -31089 0
-30529 31092 0
30529 -31092 0
-30531 31636 0
30531 -31636 0
-30533 31899 0
30533 -31899 0
-30535 31654 0
30535 -31654 0
-30537 31945 0
30537 -31945 0
-30539 31640 0
30539 -31640 0
-30541 31658 0
30541 -31658 0
-30543 30808 0
30543 -30808 0
-30545 30544 0
30545 -30544 0
-30547 30826 0
30547 -30826 0
-30549 30880 0
30549 -30880 0
-30551 30973 0
30551 -30973 0
-30553 30853 0
30553 -30853 0
-30555 30820 0
30555 -30820 0
-30557 30844 0
30557 -30844 0
31023 30972 0
-31023 -30972 0
31699 31637 0
-31699 -31637 0
31948 31640 0
-31948 -31640 0
31888 31899 0
-31888 -31899 0
30997 30946 0
-30997 -30946 0
31672 30569 0
-31672 -30569 0
31891 31654 0
-31891 -31654 0
31692 31945 0
-31692 -31945 0
31898 31648 0
-31898 -31648 0
31908 31658 0
-31908 -31658 0
31661 31665 0
-31661 -31665 0
31522 31638 0
-31522 -31638 0
31684 31887 0
-31684 -31887 0
31694 31890 0
-31694 -31890 0
32223 31906 0
-32223 -31906 0
32187 31917 0
-32187 -31917 0
32189 31920 0
-32189 -31920 0
32191 31923 0
-32191 -31923 0
32193 31926 0
-32193 -31926 0
32195 31929 0
-32195 -31929 0
32197 31932 0
-32197 -31932 0
32199 31935 0
-32199 -31935 0
32201 31938 0
-32201 -31938 0
31689 31941 0
-31689 -31941 0
31712 31947 0
-31712 -31947 0
30615 31950 0
-30615 -31950 0
32207 31685 0
-32207 -31685 0
31781 30615 0
-31781 -30615 0
30621 30615 0
-30621 -30615 0
31048 31953 0
-31048 -31953 0
30625 31956 0
-30625 -31956 0
31852 30621 0
-31852 -30621 0
31360 30625 0
-31360 -30625 0
30667 30625 0
-30667 -30625 0
31981 31962 0
-31981 -31962 0
31096 31965 0
-31096 -31965 0
31716 31968 0
-31716 -31968 0
30675 31968 0
-30675 -31968 0
31267 31534 0
-31267 -31534 0
31098 31534 0
-31098 -31534 0
31273 31537 0
-31273 -31537 0
31101 31537 0
-31101 -31537 0
31279 31540 0
-31279 -31540 0
31104 31540 0
-31104 -31540 0
31285 31543 0
-31285 -31543 0
31107 31543 0
-31107 -31543 0
31291 31546 0
-31291 -31546 0
31110 31546 0
-31110 -31546 0
31297 31549 0
-31297 -31549 0
31113 31549 0
-31113 -31549 0
31303 31552 0
-31303 -31552 0
31116 31552 0
-31116 -31552 0
31309 31555 0
-31309 -31555 0
31119 31555 0
-31119 -31555 0
31387 30667 0
-31387 -30667 0
32215 31971 0
-32215 -31971 0
31363 31716 0
-31363 -31716 0
31420 30675 0
-31420 -30675 0
30693 30675 0
-30693 -30675 0
31194 31535 0
-31194 -31535 0
31197 31538 0
-31197 -31538 0
31200 31541 0
-31200 -31541 0
31203 31544 0
-31203 -31544 0
31206 31547 0
-31206 -31547 0
31209 31550 0
-31209 -31550 0
31212 31553 0
-31212 -31553 0
31215 31556 0
-31215 -31556 0
31264 30693 0
-31264 -30693 0
31219 31264 0
-31219 -31264 0
31222 31264 0
-31222 -31264 0
31225 31264 0
-31225 -31264 0
31228 31264 0
-31228 -31264 0
31231 31264 0
-31231 -31264 0
31234 31264 0
-31234 -31264 0
31237 31264 0
-31237 -31264 0
31240 31264 0
-31240 -31264 0
32171 31984 0
-32171 -31984 0
32173 31988 0
-32173 -31988 0
32175 31992 0
-32175 -31992 0
32177 31996 0
-32177 -31996 0
32179 32000 0
-32179 -32000 0
32181 32004 0
-32181 -32004 0
32183 32008 0
-32183 -32008 0
31314 31557 0
-31314 -31557 0
31320 31560 0
-31320 -31560 0
31326 31563 0
-31326 -31563 0
31332 31566 0
-31332 -31566 0
31338 31569 0
-31338 -31569 0
31344 31572 0
-31344 -31572 0
31350 31575 0
-31350 -31575 0
31356 31578 0
-31356 -31578 0
31730 31317 0
-31730 -31317 0
32046 31329 0
-32046 -31329 0
31800 31347 0
-31800 -31347 0
31828 31353 0
-31828 -31353 0
31392 31715 0
-31392 -31715 0
32064 31584 0
-32064 -31584 0
31395 31584 0
-31395 -31584 0
31425 31754 0
-31425 -31754 0
32094 31725 0
-32094 -31725 0
31431 31725 0
-31431 -31725 0
31458 31732 0
-31458 -31732 0
31461 31765 0
-31461 -31765 0
31624 31599 0
-31624 -31599 0
31449 31599 0
-31449 -31599 0
31482 31602 0
-31482 -31602 0
32104 31717 0
-32104 -31717 0
31742 31723 0
-31742 -31723 0
31423 31728 0
-31423 -31728 0
32102 31731 0
-32102 -31731 0
31426 32066 0
-31426 -32066 0
31802 31746 0
-31802 -31746 0
31429 31426 0
-31429 -31426 0
31803 31749 0
-31803 -31749 0
31453 31785 0
-31453 -31785 0
31806 31791 0
-31806 -31791 0
31456 31799 0
-31456 -31799 0
31459 32096 0
-31459 -32096 0
31462 32100 0
-31462 -32100 0
31465 31459 0
-31465 -31459 0
32185 32108 0
-32185 -32108 0
31625 31804 0
-31625 -31804 0
31474 31462 0
-31474 -31462 0
31492 31826 0
-31492 -31826 0
-31972 30972 0
-31972 30808 0
31972 -30972 -30808 0
-31910 30927 0
-31910 31143 0
31910 -30927 -31143 0
-32120 30951 0
-32120 31982 0
32120 -30951 -31982 0
-31884 30927 0
-31884 31637 0
31884 -30927 -31637 0
-31969 30972 0
-31969 30820 0
31969 -30972 -30820 0
-31903 30927 0
-31903 31134 0
31903 -30927 -31134 0
-31954 30972 0
-31954 30826 0
31954 -30972 -30826 0
-31873 30924 0
-31873 31092 0
31873 -30924 -31092 0
-31911 30924 0
-31911 31636 0
31911 -30924 -31636 0
-31876 30927 0
-31876 31131 0
31876 -30927 -31131 0
-32132 30963 0
-32132 31982 0
32132 -30963 -31982 0
-31895 30924 0
-31895 31089 0
31895 -30924 -31089 0
-31951 30972 0
-31951 30844 0
31951 -30972 -30844 0
-31874 30939 0
-31874 31188 0
31874 -30939 -31188 0
-31905 30939 0
-31905 31182 0
31905 -30939 -31182 0
-31957 30972 0
-31957 30853 0
31957 -30972 -30853 0
-31872 30927 0
-31872 31140 0
31872 -30927 -31140 0
-32144 30960 0
-32144 31982 0
32144 -30960 -31982 0
-31915 30924 0
-31915 31077 0
31915 -30924 -31077 0
-31878 30939 0
-31878 31179 0
31878 -30939 -31179 0
-32126 30954 0
-32126 31982 0
32126 -30954 -31982 0
-31877 30924 0
-31877 31083 0
31877 -30924 -31083 0
-31896 30939 0
-31896 31185 0
31896 -30939 -31185 0
-31882 30939 0
-31882 31176 0
31882 -30939 -31176 0
-31966 30972 0
-31966 30880 0
31966 -30972 -30880 0
-32150 30966 0
-32150 31982 0
32150 -30966 -31982 0
-31886 30939 0
-31886 31170 0
31886 -30939 -31170 0
-31881 30924 0
-31881 31080 0
31881 -30924 -31080 0
-31922 30951 0
-31922 30946 0
31922 -30951 -30946 0
-31925 30954 0
-31925 30946 0
31925 -30954 -30946 0
-31931 30960 0
-31931 30946 0
31931 -30960 -30946 0
-31934 30963 0
-31934 30946 0
31934 -30963 -30946 0
-31937 30966 0
-31937 30946 0
31937 -30966 -30946 0
-31880 30927 0
-31880 31128 0
31880 -30927 -31128 0
-31885 30924 0
-31885 31074 0
31885 -30924 -31074 0
-31889 31654 0
-31889 31945 0
31889 -31654 -31945 0
-31979 30969 0
-31979 31982 0
31979 -30969 -31982 0
-31940 30969 0
-31940 30946 0
31940 -30969 -30946 0
-31894 30927 0
-31894 31137 0
31894 -30927 -31137 0
-31904 30924 0
-31904 31086 0
31904 -30924 -31086 0
-31914 30927 0
-31914 31125 0
31914 -30927 -31125 0
-32114 30948 0
-32114 31982 0
32114 -30948 -31982 0
-31919 30948 0
-31919 30946 0
31919 -30948 -30946 0
-31912 30939 0
-31912 31191 0
31912 -30939 -31191 0
-31916 30939 0
-31916 31173 0
31916 -30939 -31173 0
-32138 30957 0
-32138 31982 0
32138 -30957 -31982 0
-31928 30957 0
-31928 30946 0
31928 -30957 -30946 0
-31986 30948 0
-31986 31975 0
31986 -30948 -31975 0
-31990 30951 0
-31990 31975 0
31990 -30951 -31975 0
-31994 30954 0
-31994 31975 0
31994 -30954 -31975 0
-31998 30957 0
-31998 31975 0
31998 -30957 -31975 0
-32002 30960 0
-32002 31975 0
32002 -30960 -31975 0
-32006 30963 0
-32006 31975 0
32006 -30963 -31975 0
-32010 30966 0
-32010 31975 0
32010 -30966 -31975 0
-32110 30969 0
-32110 31975 0
32110 -30969 -31975 0
-31963 30972 0
-31963 30973 0
31963 -30972 -30973 0
-31918 31074 0
-31918 30997 0
31918 -31074 -30997 0
-31921 31077 0
-31921 30997 0
31921 -31077 -30997 0
-31924 31080 0
-31924 30997 0
31924 -31080 -30997 0
-31927 31083 0
-31927 30997 0
31927 -31083 -30997 0
-31930 31086 0
-31930 30997 0
31930 -31086 -30997 0
-31933 31089 0
-31933 30997 0
31933 -31089 -30997 0
-31936 31092 0
-31936 30997 0
31936 -31092 -30997 0
-31939 31636 0
-31939 30997 0
31939 -31636 -30997 0
-31949 31644 0
-31949 31668 0
31949 -31644 -31668 0
-31952 31023 0
-31952 32227 0
31952 -31023 -32227 0
-31955 31023 0
-31955 32217 0
31955 -31023 -32217 0
-31958 31023 0
-31958 32223 0
31958 -31023 -32223 0
-31961 31700 0
-31961 31698 0
31961 -31700 -31698 0
-31964 31023 0
-31964 32221 0
31964 -31023 -32221 0
-31967 31023 0
-31967 32219 0
31967 -31023 -32219 0
-31970 31023 0
-31970 32225 0
31970 -31023 -32225 0
-31973 31023 0
-31973 32213 0
31973 -31023 -32213 0
-31534 31170 0
-31534 31048 0
31534 -31170 -31048 0
-31537 31173 0
-31537 31048 0
31537 -31173 -31048 0
-31540 31176 0
-31540 31048 0
31540 -31176 -31048 0
-31543 31179 0
-31543 31048 0
31543 -31179 -31048 0
-31546 31182 0
-31546 31048 0
31546 -31182 -31048 0
-31549 31185 0
-31549 31048 0
31549 -31185 -31048 0
-31552 31188 0
-31552 31048 0
31552 -31188 -31048 0
-31555 31191 0
-31555 31048 0
31555 -31191 -31048 0
-31978 31709 0
-31978 31981 0
31978 -31709 -31981 0
-31985 31125 0
-31985 31981 0
31985 -31125 -31981 0
-31989 31128 0
-31989 31981 0
31989 -31128 -31981 0
-31993 31131 0
-31993 31981 0
31993 -31131 -31981 0
-31997 31134 0
-31997 31981 0
31997 -31134 -31981 0
-32001 31137 0
-32001 31981 0
32001 -31137 -31981 0
-32005 31140 0
-32005 31981 0
32005 -31140 -31981 0
-32009 31143 0
-32009 31981 0
32009 -31143 -31981 0
-31535 31074 0
-31535 31096 0
31535 -31074 -31096 0
-31538 31077 0
-31538 31096 0
31538 -31077 -31096 0
-31541 31080 0
-31541 31096 0
31541 -31080 -31096 0
-31544 31083 0
-31544 31096 0
31544 -31083 -31096 0
-31547 31086 0
-31547 31096 0
31547 -31086 -31096 0
-31550 31089 0
-31550 31096 0
31550 -31089 -31096 0
-31553 31092 0
-31553 31096 0
31553 -31092 -31096 0
-31556 31636 0
-31556 31096 0
31556 -31636 -31096 0
-32014 31098 0
-32014 31387 0
32014 -31098 -31387 0
-32017 31101 0
-32017 31387 0
32017 -31101 -31387 0
-32020 31104 0
-32020 31387 0
32020 -31104 -31387 0
-32023 31107 0
-32023 31387 0
32023 -31107 -31387 0
-32026 31110 0
-32026 31387 0
32026 -31110 -31387 0
-32029 31113 0
-32029 31387 0
32029 -31113 -31387 0
-32032 31116 0
-32032 31387 0
32032 -31116 -31387 0
-32035 31119 0
-32035 31387 0
32035 -31119 -31387 0
-31987 31637 0
-31987 31974 0
31987 -31637 -31974 0
-31991 31125 0
-31991 31974 0
31991 -31125 -31974 0
-31995 31128 0
-31995 31974 0
31995 -31128 -31974 0
-31999 31131 0
-31999 31974 0
31999 -31131 -31974 0
-32003 31134 0
-32003 31974 0
32003 -31134 -31974 0
-32007 31137 0
-32007 31974 0
32007 -31137 -31974 0
-32011 31140 0
-32011 31974 0
32011 -31140 -31974 0
-32111 31143 0
-32111 31974 0
32111 -31143 -31974 0
-32013 31533 0
-32013 31360 0
32013 -31533 -31360 0
-32016 31536 0
-32016 31360 0
32016 -31536 -31360 0
-32019 31539 0
-32019 31360 0
32019 -31539 -31360 0
-32022 31542 0
-32022 31360 0
32022 -31542 -31360 0
-32025 31545 0
-32025 31360 0
32025 -31545 -31360 0
-32028 31548 0
-32028 31360 0
32028 -31548 -31360 0
-32031 31551 0
-32031 31360 0
32031 -31551 -31360 0
-32034 31554 0
-32034 31360 0
32034 -31554 -31360 0
-32106 31170 0
-32106 31980 0
32106 -31170 -31980 0
-32116 31173 0
-32116 31980 0
32116 -31173 -31980 0
-32122 31176 0
-32122 31980 0
32122 -31176 -31980 0
-32128 31179 0
-32128 31980 0
32128 -31179 -31980 0
-32140 31182 0
-32140 31980 0
32140 -31182 -31980 0
-32146 31185 0
-32146 31980 0
32146 -31185 -31980 0
-32134 31188 0
-32134 31980 0
32134 -31188 -31980 0
-32152 31191 0
-32152 31980 0
32152 -31191 -31980 0
-31559 31194 0
-31559 31264 0
31559 -31194 -31264 0
-31562 31197 0
-31562 31264 0
31562 -31197 -31264 0
-31565 31200 0
-31565 31264 0
31565 -31200 -31264 0
-31568 31203 0
-31568 31264 0
31568 -31203 -31264 0
-31571 31206 0
-31571 31264 0
31571 -31206 -31264 0
-31574 31209 0
-31574 31264 0
31574 -31209 -31264 0
-31577 31212 0
-31577 31264 0
31577 -31212 -31264 0
-31580 31215 0
-31580 31264 0
31580 -31215 -31264 0
-31558 31535 0
-31558 31219 0
31558 -31535 -31219 0
-31561 31538 0
-31561 31222 0
31561 -31538 -31222 0
-31564 31541 0
-31564 31225 0
31564 -31541 -31225 0
-31567 31544 0
-31567 31228 0
31567 -31544 -31228 0
-31570 31547 0
-31570 31231 0
31570 -31547 -31231 0
-31573 31550 0
-31573 31234 0
31573 -31550 -31234 0
-31576 31553 0
-31576 31237 0
31576 -31553 -31237 0
-31579 31556 0
-31579 31240 0
31579 -31556 -31240 0
-32071 32012 0
-32071 31264 0
32071 -32012 -31264 0
-32074 32015 0
-32074 31264 0
32074 -32015 -31264 0
-32077 32018 0
-32077 31264 0
32077 -32018 -31264 0
-32080 32021 0
-32080 31264 0
32080 -32021 -31264 0
-32083 32024 0
-32083 31264 0
32083 -32024 -31264 0
-32086 32027 0
-32086 31264 0
32086 -32027 -31264 0
-32089 32030 0
-32089 31264 0
32089 -32030 -31264 0
-32092 32033 0
-32092 31264 0
32092 -32033 -31264 0
-31582 31557 0
-31582 31267 0
31582 -31557 -31267 0
-31317 31557 0
-31317 31534 0
31317 -31557 -31534 0
-31585 31560 0
-31585 31273 0
31585 -31560 -31273 0
-32067 31560 0
-32067 31537 0
32067 -31560 -31537 0
-31588 31563 0
-31588 31279 0
31588 -31563 -31279 0
-31329 31563 0
-31329 31540 0
31329 -31563 -31540 0
-31591 31566 0
-31591 31285 0
31591 -31566 -31285 0
-32097 31566 0
-32097 31543 0
32097 -31566 -31543 0
-31594 31569 0
-31594 31291 0
31594 -31569 -31291 0
-32103 31569 0
-32103 31546 0
32103 -31569 -31546 0
-31597 31572 0
-31597 31297 0
31597 -31572 -31297 0
-31347 31572 0
-31347 31549 0
31347 -31572 -31549 0
-31600 31575 0
-31600 31303 0
31600 -31575 -31303 0
-31353 31575 0
-31353 31552 0
31353 -31575 -31552 0
-31603 31578 0
-31603 31309 0
31603 -31578 -31309 0
-31359 31578 0
-31359 31555 0
31359 -31578 -31555 0
-31583 31314 0
-31583 31534 0
31583 -31314 -31534 0
-32037 31317 0
-32037 31360 0
32037 -31317 -31360 0
-31586 31320 0
-31586 31537 0
31586 -31320 -31537 0
-32040 32067 0
-32040 31360 0
32040 -32067 -31360 0
-31589 31326 0
-31589 31540 0
31589 -31326 -31540 0
-32043 31329 0
-32043 31360 0
32043 -31329 -31360 0
-31592 31332 0
-31592 31543 0
31592 -31332 -31543 0
-32049 32097 0
-32049 31360 0
32049 -32097 -31360 0
-31595 31338 0
-31595 31546 0
31595 -31338 -31546 0
-32052 32103 0
-32052 31360 0
32052 -32103 -31360 0
-31598 31344 0
-31598 31549 0
31598 -31344 -31549 0
-32055 31347 0
-32055 31360 0
32055 -31347 -31360 0
-31601 31350 0
-31601 31552 0
31601 -31350 -31552 0
-32058 31353 0
-32058 31360 0
32058 -31353 -31360 0
-31604 31356 0
-31604 31555 0
31604 -31356 -31555 0
-32061 31359 0
-32061 31360 0
32061 -31359 -31360 0
-31606 31715 0
-31606 31363 0
31606 -31715 -31363 0
-32038 31715 0
-32038 31387 0
32038 -31715 -31387 0
-32041 31584 0
-32041 31387 0
32041 -31584 -31387 0
-32044 31754 0
-32044 31387 0
32044 -31754 -31387 0
-32050 31725 0
-32050 31387 0
32050 -31725 -31387 0
-32053 31732 0
-32053 31387 0
32053 -31732 -31387 0
-32056 31765 0
-32056 31387 0
32056 -31765 -31387 0
-32059 31599 0
-32059 31387 0
32059 -31599 -31387 0
-32062 31602 0
-32062 31387 0
32062 -31602 -31387 0
-32065 31730 0
-32065 31729 0
32065 -31730 -31729 0
-31607 31392 0
-31607 31716 0
31607 -31392 -31716 0
-31613 31395 0
-31613 31728 0
31613 -31395 -31728 0
-32070 32036 0
-32070 31420 0
32070 -32036 -31420 0
-32073 32039 0
-32073 31420 0
32073 -32039 -31420 0
-32076 32042 0
-32076 31420 0
32076 -32042 -31420 0
-32079 32048 0
-32079 31420 0
32079 -32048 -31420 0
-32082 32051 0
-32082 31420 0
32082 -32051 -31420 0
-32085 32054 0
-32085 31420 0
32085 -32054 -31420 0
-32088 32057 0
-32088 31420 0
32088 -32057 -31420 0
-32091 32060 0
-32091 31420 0
32091 -32060 -31420 0
-31612 31584 0
-31612 31423 0
31612 -31584 -31423 0
-31616 31425 0
-31616 31426 0
31616 -31425 -31426 0
-31615 31754 0
-31615 31429 0
31615 -31754 -31429 0
-31619 31431 0
-31619 31785 0
31619 -31431 -31785 0
-32101 31732 0
-32101 32098 0
32101 -31732 -32098 0
-32107 31788 0
-32107 32215 0
32107 -31788 -32215 0
-32109 31788 0
-32109 31981 0
32109 -31788 -31981 0
-32113 31796 0
-32113 31981 0
32113 -31796 -31981 0
-32117 31796 0
-32117 32215 0
32117 -31796 -32215 0
-31622 31449 0
-31622 31799 0
31622 -31449 -31799 0
-31618 31725 0
-31618 31453 0
31618 -31725 -31453 0
-31621 31599 0
-31621 31456 0
31621 -31599 -31456 0
-31628 31458 0
-31628 31459 0
31628 -31458 -31459 0
-31631 31461 0
-31631 31462 0
31631 -31461 -31462 0
-31627 31732 0
-31627 31465 0
31627 -31732 -31465 0
-32119 31814 0
-32119 31981 0
32119 -31814 -31981 0
-32123 31814 0
-32123 32215 0
32123 -31814 -32215 0
-31630 31765 0
-31630 31474 0
31630 -31765 -31474 0
-32125 31823 0
-32125 31981 0
32125 -31823 -31981 0
-32129 31823 0
-32129 32215 0
32129 -31823 -32215 0
-31634 31482 0
-31634 31826 0
31634 -31482 -31826 0
-32131 31829 0
-32131 31981 0
32131 -31829 -31981 0
-32135 31829 0
-32135 32215 0
32135 -31829 -32215 0
-31633 31602 0
-31633 31492 0
31633 -31602 -31492 0
-32137 31841 0
-32137 31981 0
32137 -31841 -31981 0
-32141 31841 0
-32141 32215 0
32141 -31841 -32215 0
-32143 31847 0
-32143 31981 0
32143 -31847 -31981 0
-32147 31847 0
-32147 32215 0
32147 -31847 -32215 0
-32149 31856 0
-32149 31981 0
32149 -31856 -31981 0
-32153 31856 0
-32153 32215 0
32153 -31856 -32215 0
31663 -31636 0
31663 -31637 0
-31663 31636 31637 0
31667 -31654 0
31667 -31692 0
-31667 31654 31692 0
31703 -31672 0
31703 -31908 0
-31703 31672 31908 0
31674 -31661 0
31674 -31522 0
-31674 31661 31522 0
31683 -31891 0
31683 -31644 0
-31683 31891 31644 0
31686 -31941 0
31686 -31946 0
-31686 31941 31946 0
31702 -31694 0
31702 -31699 0
31702 -31658 0
-31702 31694 31699 31658 0
31533 -31534 0
31533 -31535 0
-31533 31534 31535 0
31536 -31537 0
31536 -31538 0
-31536 31537 31538 0
31539 -31540 0
31539 -31541 0
-31539 31540 31541 0
31542 -31543 0
31542 -31544 0
-31542 31543 31544 0
31545 -31546 0
31545 -31547 0
-31545 31546 31547 0
31548 -31549 0
31548 -31550 0
-31548 31549 31550 0
31551 -31552 0
31551 -31553 0
-31551 31552 31553 0
31554 -31555 0
31554 -31556 0
-31554 31555 31556 0
31557 -31558 0
31557 -31559 0
-31557 31558 31559 0
31560 -31561 0
31560 -31562 0
-31560 31561 31562 0
31563 -31564 0
31563 -31565 0
-31563 31564 31565 0
31566 -31567 0
31566 -31568 0
-31566 31567 31568 0
31569 -31570 0
31569 -31571 0
-31569 31570 31571 0
31572 -31573 0
31572 -31574 0
-31572 31573 31574 0
31575 -31576 0
31575 -31577 0
-31575 31576 31577 0
31578 -31579 0
31578 -31580 0
-31578 31579 31580 0
31715 -31582 0
31715 -31583 0
-31715 31582 31583 0
31584 -31585 0
31584 -31586 0
-31584 31585 31586 0
31754 -31588 0
31754 -31589 0
-31754 31588 31589 0
31725 -31591 0
31725 -31592 0
-31725 31591 31592 0
31732 -31594 0
31732 -31595 0
-31732 31594 31595 0
31765 -31597 0
31765 -31598 0
-31765 31597 31598 0
31599 -31600 0
31599 -31601 0
-31599 31600 31601 0
31602 -31603 0
31602 -31604 0
-31602 31603 31604 0
31744 -31606 0
31744 -31607 0
-31744 31606 31607 0
31753 -32067 0
31753 -32068 0
-31753 32067 32068 0
31783 -31612 0
31783 -31613 0
-31783 31612 31613 0
31809 -31615 0
31809 -31616 0
-31809 31615 31616 0
31818 -31618 0
31818 -31619 0
-31818 31618 31619 0
31821 -31621 0
31821 -31622 0
-31821 31621 31622 0
31827 -31624 0
31827 -31625 0
-31827 31624 31625 0
31833 -31627 0
31833 -31628 0
-31833 31627 31628 0
31839 -31630 0
31839 -31631 0
-31839 31630 31631 0
31851 -31633 0
31851 -31634 0
-31851 31633 31634 0
31665 31636 0
31665 31637 0
-31665 -31636 -31637 0
31638 31899 0
31638 31640 0
-31638 -31899 -31640 0
31892 31899 0
31892 31945 0
-31892 -31899 -31945 0
31644 31888 0
31644 31945 0
-31644 -31888 -31945 0
31943 31648 0
31943 31672 0
-31943 -31648 -31672 0
31946 31888 0
31946 31891 0
-31946 -31888 -31891 0
31668 31654 0
31668 31692 0
-31668 -31654 -31692 0
32227 31898 0
32227 31658 0
-32227 -31898 -31658 0
31710 31892 0
31710 31661 0
-31710 -31892 -31661 0
31713 31663 0
31713 31890 0
31713 31665 0
-31713 -31663 -31890 -31665 0
32205 31667 0
32205 31668 0
-32205 -31667 -31668 0
32217 31891 0
32217 31897 0
32217 31672 0
-32217 -31891 -31897 -31672 0
31711 31674 0
31711 31891 0
-31711 -31674 -31891 0
31700 31942 0
31700 31944 0
-31700 -31942 -31944 0
31698 31943 0
31698 31944 0
-31698 -31943 -31944 0
32203 31683 0
32203 31684 0
-32203 -31683 -31684 0
31685 31686 0
31685 31692 0
-31685 -31686 -31692 0
32221 31689 0
32221 31891 0
32221 31888 0
32221 31692 0
-32221 -31689 -31891 -31888 -31692 0
32211 31694 0
32211 31700 0
32211 31698 0
-32211 -31694 -31700 -31698 0
32219 31698 0
32219 31699 0
32219 31700 0
-32219 -31698 -31699 -31700 0
32225 31702 0
32225 31703 0
-32225 -31702 -31703 0
32209 31710 0
32209 31712 0
32209 31711 0
32209 31713 0
-32209 -31710 -31712 -31711 -31713 0
31709 31710 0
31709 31711 0
31709 31712 0
31709 31713 0
-31709 -31710 -31711 -31712 -31713 0
31729 31715 0
31729 31716 0
-31729 -31715 -31716 0
31717 32097 0
31717 31732 0
-31717 -32097 -31732 0
31805 32103 0
31805 31765 0
-31805 -32103 -31765 0
31723 31765 0
31723 31725 0
31723 31732 0
31723 31754 0
-31723 -31765 -31725 -31732 -31754 0
31728 31729 0
31728 31730 0
-31728 -31729 -31730 0
31731 31732 0
31731 32099 0
-31731 -31732 -32099 0
31795 31765 0
31795 32104 0
-31795 -31765 -32104 0
31794 32067 0
31794 31742 0
-31794 -32067 -31742 0
31807 32068 0
31807 31742 0
-31807 -32068 -31742 0
31789 31744 0
31789 31852 0
-31789 -31744 -31852 0
31746 31805 0
31746 31794 0
-31746 -31805 -31794 0
31749 31795 0
31749 31807 0
-31749 -31795 -31807 0
32095 31753 0
32095 31754 0
-32095 -31753 -31754 0
31790 32069 0
31790 31781 0
-31790 -32069 -31781 0
31798 32072 0
31798 31781 0
-31798 -32072 -31781 0
31816 32075 0
31816 31781 0
-31816 -32075 -31781 0
31801 31765 0
31801 32102 0
-31801 -31765 -32102 0
31825 32078 0
31825 31781 0
-31825 -32078 -31781 0
31843 32081 0
31843 31781 0
-31843 -32081 -31781 0
31849 32084 0
31849 31781 0
-31849 -32084 -31781 0
31831 32087 0
31831 31781 0
-31831 -32087 -31781 0
31858 32090 0
31858 31781 0
-31858 -32090 -31781 0
31797 31783 0
31797 31852 0
-31797 -31783 -31852 0
31785 32046 0
31785 32095 0
-31785 -32046 -32095 0
31788 31789 0
31788 31790 0
-31788 -31789 -31790 0
31791 31800 0
31791 31801 0
31791 31794 0
31791 31795 0
-31791 -31800 -31801 -31794 -31795 0
31796 31797 0
31796 31798 0
-31796 -31797 -31798 0
31799 31800 0
31799 31801 0
31799 31802 0
31799 31803 0
-31799 -31800 -31801 -31802 -31803 0
31804 31805 0
31804 31806 0
31804 31807 0
-31804 -31805 -31806 -31807 0
31815 31809 0
31815 31852 0
-31815 -31809 -31852 0
32155 32112 0
32155 32105 0
-32155 -32112 -32105 0
31814 31815 0
31814 31816 0
-31814 -31815 -31816 0
31824 31818 0
31824 31852 0
-31824 -31818 -31852 0
31830 31821 0
31830 31852 0
-31830 -31821 -31852 0
31823 31824 0
31823 31825 0
-31823 -31824 -31825 0
31826 31827 0
31826 31828 0
-31826 -31827 -31828 0
31829 31830 0
31829 31831 0
-31829 -31830 -31831 0
31842 31833 0
31842 31852 0
-31842 -31833 -31852 0
32157 32118 0
32157 32115 0
-32157 -32118 -32115 0
31848 31839 0
31848 31852 0
-31848 -31839 -31852 0
31841 31842 0
31841 31843 0
-31841 -31842 -31843 0
32159 32124 0
32159 32121 0
-32159 -32124 -32121 0
31847 31848 0
31847 31849 0
-31847 -31848 -31849 0
31857 31851 0
31857 31852 0
-31857 -31851 -31852 0
32161 32136 0
32161 32127 0
-32161 -32136 -32127 0
31856 31857 0
31856 31858 0
-31856 -31857 -31858 0
32163 32142 0
32163 32139 0
-32163 -32142 -32139 0
32165 32130 0
32165 32145 0
-32165 -32130 -32145 0
32167 32148 0
32167 32133 0
-32167 -32148 -32133 0
32169 31977 0
32169 32151 0
-32169 -31977 -32151 0
-31871 -31872 0
-31871 -31873 0
-31871 -31874 0
31871 31872 31873 31874 0
-31875 -31876 0
-31875 -31877 0
-31875 -31878 0
31875 31876 31877 31878 0
-31879 -31880 0
-31879 -31881 0
-31879 -31882 0
31879 31880 31881 31882 0
-31883 -31884 0
-31883 -31885 0
-31883 -31886 0
31883 31884 31885 31886 0
-31887 -31888 0
-31887 -31889 0
31887 31888 31889 0
-31890 -31891 0
-31890 -31892 0
31890 31891 31892 0
-31893 -31894 0
-31893 -31895 0
-31893 -31896 0
31893 31894 31895 31896 0
-31897 -31898 0
-31897 -31899 0
-31897 -31942 0
-31897 -31945 0
31897 31898 31899 31942 31945 0
-31902 -31903 0
-31902 -31904 0
-31902 -31905 0
31902 31903 31904 31905 0
-31906 -31942 0
-31906 -31908 0
31906 31942 31908 0
-31909 -31910 0
-31909 -31911 0
-31909 -31912 0
31909 31910 31911 31912 0
-31913 -31914 0
-31913 -31915 0
-31913 -31916 0
31913 31914 31915 31916 0
-31917 -31918 0
-31917 -31919 0
31917 31918 31919 0
-31920 -31921 0
-31920 -31922 0
31920 31921 31922 0
-31923 -31924 0
-31923 -31925 0
31923 31924 31925 0
-31926 -31927 0
-31926 -31928 0
31926 31927 31928 0
-31929 -31930 0
-31929 -31931 0
31929 31930 31931 0
-31932 -31933 0
-31932 -31934 0
31932 31933 31934 0
-31935 -31936 0
-31935 -31937 0
31935 31936 31937 0
-31938 -31939 0
-31938 -31940 0
31938 31939 31940 0
-31941 -31942 0
-31941 -31943 0
31941 31942 31943 0
-31944 -31945 0
-31944 -31946 0
31944 31945 31946 0
-31947 -31948 0
-31947 -31949 0
31947 31948 31949 0
-31950 -31951 0
-31950 -31952 0
31950 31951 31952 0
-31953 -31954 0
-31953 -31955 0
31953 31954 31955 0
-31956 -31957 0
-31956 -31958 0
31956 31957 31958 0
-32213 -31982 0
-32213 -31961 0
32213 31982 31961 0
-31962 -31963 0
-31962 -31964 0
31962 31963 31964 0
-31965 -31966 0
-31965 -31967 0
31965 31966 31967 0
-31968 -31969 0
-31968 -31970 0
31968 31969 31970 0
-31971 -31972 0
-31971 -31973 0
31971 31972 31973 0
-31974 -31975 0
-31974 -31981 0
31974 31975 31981 0
-31977 -31978 0
-31977 -31979 0
31977 31978 31979 0
-31980 -31981 0
-31980 -31982 0
-31980 -32215 0
31980 31981 31982 32215 0
-31984 -31985 0
-31984 -31986 0
-31984 -31987 0
31984 31985 31986 31987 0
-31988 -31989 0
-31988 -31990 0
-31988 -31991 0
31988 31989 31990 31991 0
-31992 -31993 0
-31992 -31994 0
-31992 -31995 0
31992 31993 31994 31995 0
-31996 -31997 0
-31996 -31998 0
-31996 -31999 0
31996 31997 31998 31999 0
-32000 -32001 0
-32000 -32002 0
-32000 -32003 0
32000 32001 32002 32003 0
-32004 -32005 0
-32004 -32006 0
-32004 -32007 0
32004 32005 32006 32007 0
-32008 -32009 0
-32008 -32010 0
-32008 -32011 0
32008 32009 32010 32011 0
-32012 -32013 0
-32012 -32014 0
32012 32013 32014 0
-32015 -32016 0
-32015 -32017 0
32015 32016 32017 0
-32018 -32019 0
-32018 -32020 0
32018 32019 32020 0
-32021 -32022 0
-32021 -32023 0
32021 32022 32023 0
-32024 -32025 0
-32024 -32026 0
32024 32025 32026 0
-32027 -32028 0
-32027 -32029 0
32027 32028 32029 0
-32030 -32031 0
-32030 -32032 0
32030 32031 32032 0
-32033 -32034 0
-32033 -32035 0
32033 32034 32035 0
-32036 -32037 0
-32036 -32038 0
32036 32037 32038 0
-32039 -32040 0
-32039 -32041 0
32039 32040 32041 0
-32042 -32043 0
-32042 -32044 0
32042 32043 32044 0
-32099 -32046 0
-32099 -32094 0
32099 32046 32094 0
-32048 -32049 0
-32048 -32050 0
32048 32049 32050 0
-32051 -32052 0
-32051 -32053 0
32051 32052 32053 0
-32054 -32055 0
-32054 -32056 0
32054 32055 32056 0
-32057 -32058 0
-32057 -32059 0
32057 32058 32059 0
-32060 -32061 0
-32060 -32062 0
32060 32061 32062 0
-32068 -32064 0
-32068 -32065 0
32068 32064 32065 0
-32066 -32067 0
-32066 -32068 0
32066 32067 32068 0
-32069 -32070 0
-32069 -32071 0
32069 32070 32071 0
-32072 -32073 0
-32072 -32074 0
32072 32073 32074 0
-32075 -32076 0
-32075 -32077 0
32075 32076 32077 0
-32078 -32079 0
-32078 -32080 0
32078 32079 32080 0
-32081 -32082 0
-32081 -32083 0
32081 32082 32083 0
-32084 -32085 0
-32084 -32086 0
32084 32085 32086 0
-32087 -32088 0
-32087 -32089 0
32087 32088 32089 0
-32090 -32091 0
-32090 -32092 0
32090 32091 32092 0
-32098 -32094 0
-32098 -32095 0
32098 32094 32095 0
-32096 -32097 0
-32096 -32098 0
-32096 -32099 0
32096 32097 32098 32099 0
-32100 -32101 0
-32100 -32102 0
-32100 -32103 0
-32100 -32104 0
32100 32101 32102 32103 32104 0
-32105 -32106 0
-32105 -32107 0
32105 32106 32107 0
-32108 -32109 0
-32108 -32110 0
-32108 -32111 0
32108 32109 32110 32111 0
-32112 -32113 0
-32112 -32114 0
32112 32113 32114 0
-32115 -32116 0
-32115 -32117 0
32115 32116 32117 0
-32118 -32119 0
-32118 -32120 0
32118 32119 32120 0
-32121 -32122 0
-32121 -32123 0
32121 32122 32123 0
-32124 -32125 0
-32124 -32126 0
32124 32125 32126 0
-32127 -32128 0
-32127 -32129 0
32127 32128 32129 0
-32130 -32131 0
-32130 -32132 0
32130 32131 32132 0
-32133 -32134 0
-32133 -32135 0
32133 32134 32135 0
-32136 -32137 0
-32136 -32138 0
32136 32137 32138 0
-32139 -32140 0
-32139 -32141 0
32139 32140 32141 0
-32142 -32143 0
-32142 -32144 0
32142 32143 32144 0
-32145 -32146 0
-32145 -32147 0
32145 32146 32147 0
-32148 -32149 0
-32148 -32150 0
32148 32149 32150 0
-32151 -32152 0
-32151 -32153 0
32151 32152 32153 0
-32155 32840 0
32155 -32840 0
-32157 32843 0
32157 -32843 0
-32159 32846 0
32159 -32846 0
-32161 32849 0
32161 -32849 0
-32163 32852 0
32163 -32852 0
-32165 32855 0
32165 -32855 0
-32167 32858 0
32167 -32858 0
-32169 32861 0
32169 -32861 0
-32171 33307 0
32171 -33307 0
-32173 32795 0
32173 -32795 0
-32175 32798 0
32175 -32798 0
-32177 32801 0
32177 -32801 0
-32179 32804 0
32179 -32804 0
-32181 32807 0
32181 -32807 0
-32183 32810 0
32183 -32810 0
-32185 32813 0
32185 -32813 0
-32187 32744 0
32187 -32744 0
-32189 32747 0
32189 -32747 0
-32191 32750 0
32191 -32750 0
-32193 32753 0
32193 -32753 0
-32195 32756 0
32195 -32756 0
-32197 32759 0
32197 -32759 0
-32199 32762 0
32199 -32762 0
-32201 33306 0
32201 -33306 0
-32203 33569 0
32203 -33569 0
-32205 33324 0
32205 -33324 0
-32207 33615 0
32207 -33615 0
-32209 33310 0
32209 -33310 0
-32211 33328 0
32211 -33328 0
-32213 32478 0
32213 -32478 0
-32215 32214 0
32215 -32214 0
-32217 32496 0
32217 -32496 0
-32219 32550 0
32219 -32550 0
-32221 32643 0
32221 -32643 0
-32223 32523 0
32223 -32523 0
-32225 32490 0
32225 -32490 0
-32227 32514 0
32227 -32514 0
32693 32642 0
-32693 -32642 0
33369 33307 0
-33369 -33307 0
33618 33310 0
-33618 -33310 0
33558 33569 0
-33558 -33569 0
32667 32616 0
-32667 -32616 0
33342 32239 0
-33342 -32239 0
33561 33324 0
-33561 -33324 0
33362 33615 0
-33362 -33615 0
33568 33318 0
-33568 -33318 0
33578 33328 0
-33578 -33328 0
33331 33335 0
-33331 -33335 0
33192 33308 0
-33192 -33308 0
33354 33557 0
-33354 -33557 0
33364 33560 0
-33364 -33560 0
33893 33576 0
-33893 -33576 0
33857 33587 0
-33857 -33587 0
33859 33590 0
-33859 -33590 0
33861 33593 0
-33861 -33593 0
33863 33596 0
-33863 -33596 0
33865 33599 0
-33865 -33599 0
33867 33602 0
-33867 -33602 0
33869 33605 0
-33869 -33605 0
33871 33608 0
-33871 -33608 0
33359 33611 0
-33359 -33611 0
33382 33617 0
-33382 -33617 0
32285 33620 0
-32285 -33620 0
33877 33355 0
-33877 -33355 0
33451 32285 0
-33451 -32285 0
32291 32285 0
-32291 -32285 0
32718 33623 0
-32718 -33623 0
32295 33626 0
-32295 -33626 0
33522 32291 0
-33522 -32291 0
33030 32295 0
-33030 -32295 0
32337 32295 0
-32337 -32295 0
33651 33632 0
-33651 -33632 0
32766 33635 0
-32766 -33635 0
33386 33638 0
-33386 -33638 0
32345 33638 0
-32345 -33638 0
32937 33204 0
-32937 -33204 0
32768 33204 0
-32768 -33204 0
32943 33207 0
-32943 -33207 0
32771 33207 0
-32771 -33207 0
32949 33210 0
-32949 -33210 0
32774 33210 0
-32774 -33210 0
32955 33213 0
-32955 -33213 0
32777 33213 0
-32777 -33213 0
32961 33216 0
-32961 -33216 0
32780 33216 0
-32780 -33216 0
32967 33219 0
-32967 -33219 0
32783 33219 0
-32783 -33219 0
32973 33222 0
-32973 -33222 0
32786 33222 0
-32786 -33222 0
32979 33225 0
-32979 -33225 0
32789 33225 0
-32789 -33225 0
33057 32337 0
-33057 -32337 0
33885 33641 0
-33885 -33641 0
33033 33386 0
-33033 -33386 0
33090 32345 0
-33090 -32345 0
32363 32345 0
-32363 -32345 0
32864 33205 0
-32864 -33205 0
32867 33208 0
-32867 -33208 0
32870 33211 0
-32870 -33211 0
32873 33214 0
-32873 -33214 0
32876 33217 0
-32876 -33217 0
32879 33220 0
-32879 -33220 0
32882 33223 0
-32882 -33223 0
32885 33226 0
-32885 -33226 0
32934 32363 0
-32934 -32363 0
32889 32934 0
-32889 -32934 0
32892 32934 0
-32892 -32934 0
32895 32934 0
-32895 -32934 0
32898 32934 0
-32898 -32934 0
32901 32934 0
-32901 -32934 0
32904 32934 0
-32904 -32934 0
32907 32934 0
-32907 -32934 0
32910 32934 0
-32910 -32934 0
33841 33654 0
-33841 -33654 0
33843 33658 0
-33843 -33658 0
33845 33662 0
-33845 -33662 0
33847 33666 0
-33847 -33666 0
33849 33670 0
-33849 -33670 0
33851 33674 0
-33851 -33674 0
33853 33678 0
-33853 -33678 0
32984 33227 0
-32984 -33227 0
32990 33230 0
-32990 -33230 0
32996 33233 0
-32996 -33233 0
33002 33236 0
-33002 -33236 0
33008 33239 0
-33008 -33239 0
33014 33242 0
-33014 -33242 0
33020 33245 0
-33020 -33245 0
33026 33248 0
-33026 -33248 0
33400 32987 0
-33400 -32987 0
33716 32999 0
-33716 -32999 0
33470 33017 0
-33470 -33017 0
33498 33023 0
-33498 -33023 0
33062 33385 0
-33062 -33385 0
33734 33254 0
-33734 -33254 0
33065 33254 0
-33065 -33254 0
33095 33424 0
-33095 -33424 0
33764 33395 0
-33764 -33395 0
33101 33395 0
-33101 -33395 0
33128 33402 0
-33128 -33402 0
33131 33435 0
-33131 -33435 0
33294 33269 0
-33294 -33269 0
33119 33269 0
-33119 -33269 0
33152 33272 0
-33152 -33272 0
33774 33387 0
-33774 -33387 0
33412 33393 0
-33412 -33393 0
33093 33398 0
-33093 -33398 0
33772 33401 0
-33772 -33401 0
33096 33736 0
-33096 -33736 0
33472 33416 0
-33472 -33416 0
33099 33096 0
-33099 -33096 0
33473 33419 0
-33473 -33419 0
33123 33455 0
-33123 -33455 0
33476 33461 0
-33476 -33461 0
33126 33469 0
-33126 -33469 0
33129 33766 0
-33129 -33766 0
33132 33770 0
-33132 -33770 0
33135 33129 0
-33135 -33129 0
33855 33778 0
-33855 -33778 0
33295 33474 0
-33295 -33474 0
33144 33132 0
-33144 -33132 0
33162 33496 0
-33162 -33496 0
-33642 32642 0
-33642 32478 0
33642 -32642 -32478 0
-33580 32597 0
-33580 32813 0
33580 -32597 -32813 0
-33790 32621 0
-33790 33652 0
33790 -32621 -33652 0
-33554 32597 0
-33554 33307 0
33554 -32597 -33307 0
-33639 32642 0
-33639 32490 0
33639 -32642 -32490 0
-33573 32597 0
-33573 32804 0
33573 -32597 -32804 0
-33624 32642 0
-33624 32496 0
33624 -32642 -32496 0
-33543 32594 0
-33543 32762 0
33543 -32594 -32762 0
-33581 32594 0
-33581 33306 0
33581 -32594 -33306 0
-33546 32597 0
-33546 32801 0
33546 -32597 -32801 0
-33802 32633 0
-33802 33652 0
33802 -32633 -33652 0
-33565 32594 0
-33565 32759 0
33565 -32594 -32759 0
-33621 32642 0
-33621 32514 0
33621 -32642 -32514 0
-33544 32609 0
-33544 32858 0
33544 -32609 -32858 0
-33575 32609 0
-33575 32852 0
33575 -32609 -32852 0
-33627 32642 0
-33627 32523 0
33627 -32642 -32523 0
-33542 32597 0
-33542 32810 0
33542 -32597 -32810 0
-33814 32630 0
-33814 33652 0
33814 -32630 -33652 0
-33585 32594 0
-33585 32747 0
33585 -32594 -32747 0
-33548 32609 0
-33548 32849 0
33548 -32609 -32849 0
-33796 32624 0
-33796 33652 0
33796 -32624 -33652 0
-33547 32594 0
-33547 32753 0
33547 -32594 -32753 0
-33566 32609 0
-33566 32855 0
33566 -32609 -32855 0
-33552 32609 0
-33552 32846 0
33552 -32609 -32846 0
-33636 32642 0
-33636 32550 0
33636 -32642 -32550 0
-33820 32636 0
-33820 33652 0
33820 -32636 -33652 0
-33556 32609 0
-33556 32840 0
33556 -32609 -32840 0
-33551 32594 0
-33551 32750 0
33551 -32594 -32750 0
-33592 32621 0
-33592 32616 0
33592 -32621 -32616 0
-33595 32624 0
-33595 32616 0
33595 -32624 -32616 0
-33601 32630 0
-33601 32616 0
33601 -32630 -32616 0
-33604 32633 0
-33604 32616 0
33604 -32633 -32616 0
-33607 32636 0
-33607 32616 0
33607 -32636 -32616 0
-33550 32597 0
-33550 32798 0
33550 -32597 -32798 0
-33555 32594 0
-33555 32744 0
33555 -32594 -32744 0
-33559 33324 0
-33559 33615 0
33559 -33324 -33615 0
-33649 32639 0
-33649 33652 0
33649 -32639 -33652 0
-33610 32639 0
-33610 32616 0
33610 -32639 -32616 0
-33564 32597 0
-33564 32807 0
33564 -32597 -32807 0
-33574 32594 0
-33574 32756 0
33574 -32594 -32756 0
-33584 32597 0
-33584 32795 0
33584 -32597 -32795 0
-33784 32618 0
-33784 33652 0
33784 -32618 -33652 0
-33589 32618 0
-33589 32616 0
33589 -32618 -32616 0
-33582 32609 0
-33582 32861 0
33582 -32609 -32861 0
-33586 32609 0
-33586 32843 0
33586 -32609 -32843 0
-33808 32627 0
-33808 33652 0
33808 -32627 -33652 0
-33598 32627 0
-33598 32616 0
33598 -32627 -32616 0
-33656 32618 0
-33656 33645 0
33656 -32618 -33645 0
-33660 32621 0
-33660 33645 0
33660 -32621 -33645 0
-33664 32624 0
-33664 33645 0
33664 -32624 -33645 0
-33668 32627 0
-33668 33645 0
33668 -32627 -33645 0
-33672 32630 0
-33672 33645 0
33672 -32630 -33645 0
-33676 32633 0
-33676 33645 0
33676 -32633 -33645 0
-33680 32636 0
-33680 33645 0
33680 -32636 -33645 0
-33780 32639 0
-33780 33645 0
33780 -32639 -33645 0
-33633 32642 0
-33633 32643 0
33633 -32642 -32643 0
-33588 32744 0
-33588 32667 0
33588 -32744 -32667 0
-33591 32747 0
-33591 32667 0
33591 -32747 -32667 0
-33594 32750 0
-33594 32667 0
33594 -32750 -32667 0
-33597 32753 0
-33597 32667 0
33597 -32753 -32667 0
-33600 32756 0
-33600 32667 0
33600 -32756 -32667 0
-33603 32759 0
-33603 32667 0
33603 -32759 -32667 0
-33606 32762 0
-33606 32667 0
33606 -32762 -32667 0
-33609 33306 0
-33609 32667 0
33609 -33306 -32667 0
-33619 33314 0
-33619 33338 0
33619 -33314 -33338 0
-33622 32693 0
-33622 33897 0
33622 -32693 -33897 0
-33625 32693 0
-33625 33887 0
33625 -32693 -33887 0
-33628 32693 0
-33628 33893 0
33628 -32693 -33893 0
-33631 33370 0
-33631 33368 0
33631 -33370 -33368 0
-33634 32693 0
-33634 33891 0
33634 -32693 -33891 0
-33637 32693 0
-33637 33889 0
33637 -32693 -33889 0
-33640 32693 0
-33640 33895 0
33640 -32693 -33895 0
-33643 32693 0
-33643 33883 0
33643 -32693 -33883 0
-33204 32840 0
-33204 32718 0
33204 -32840 -32718 0
-33207 32843 0
-33207 32718 0
33207 -32843 -32718 0
-33210 32846 0
-33210 32718 0
33210 -32846 -32718 0
-33213 32849 0
-33213 32718 0
33213 -32849 -32718 0
-33216 32852 0
-33216 32718 0
33216 -32852 -32718 0
-33219 32855 0
-33219 32718 0
33219 -32855 -32718 0
-33222 32858 0
-33222 32718 0
33222 -32858 -32718 0
-33225 32861 0
-33225 32718 0
33225 -32861 -32718 0
-33648 33379 0
-33648 33651 0
33648 -33379 -33651 0
-33655 32795 0
-33655 33651 0
33655 -32795 -33651 0
-33659 32798 0
-33659 33651 0
33659 -32798 -33651 0
-33663 32801 0
-33663 33651 0
33663 -32801 -33651 0
-33667 32804 0
-33667 33651 0
33667 -32804 -33651 0
-33671 32807 0
-33671 33651 0
33671 -32807 -33651 0
-33675 32810 0
-33675 33651 0
33675 -32810 -33651 0
-33679 32813 0
-33679 33651 0
33679 -32813 -33651 0
-33205 32744 0
-33205 32766 0
33205 -32744 -32766 0
-33208 32747 0
-33208 32766 0
33208 -32747 -32766 0
-33211 32750 0
-33211 32766 0
33211 -32750 -32766 0
-33214 32753 0
-33214 32766 0
33214 -32753 -32766 0
-33217 32756 0
-33217 32766 0
33217 -32756 -32766 0
-33220 32759 0
-33220 32766 0
33220 -32759 -32766 0
-33223 32762 0
-33223 32766 0
33223 -32762 -32766 0
-33226 33306 0
-33226 32766 0
33226 -33306 -32766 0
-33684 32768 0
-33684 33057 0
33684 -32768 -33057 0
-33687 32771 0
-33687 33057 0
33687 -32771 -33057 0
-33690 32774 0
-33690 33057 0
33690 -32774 -33057 0
-33693 32777 0
-33693 33057 0
33693 -32777 -33057 0
-33696 32780 0
-33696 33057 0
33696 -32780 -33057 0
-33699 32783 0
-33699 33057 0
33699 -32783 -33057 0
-33702 32786 0
-33702 33057 0
33702 -32786 -33057 0
-33705 32789 0
-33705 33057 0
33705 -32789 -33057 0
-33657 33307 0
-33657 33644 0
33657 -33307 -33644 0
-33661 32795 0
-33661 33644 0
33661 -32795 -33644 0
-33665 32798 0
-33665 33644 0
33665 -32798 -33644 0
-33669 32801 0
-33669 33644 0
33669 -32801 -33644 0
-33673 32804 0
-33673 33644 0
33673 -32804 -33644 0
-33677 32807 0
-33677 33644 0
33677 -32807 -33644 0
-33681 32810 0
-33681 33644 0
33681 -32810 -33644 0
-33781 32813 0
-33781 33644 0
33781 -32813 -33644 0
-33683 33203 0
-33683 33030 0
33683 -33203 -33030 0
-33686 33206 0
-33686 33030 0
33686 -33206 -33030 0
-33689 33209 0
-33689 33030 0
33689 -33209 -33030 0
-33692 33212 0
-33692 33030 0
33692 -33212 -33030 0
-33695 33215 0
-33695 33030 0
33695 -33215 -33030 0
-33698 33218 0
-33698 33030 0
33698 -33218 -33030 0
-33701 33221 0
-33701 33030 0
33701 -33221 -33030 0
-33704 33224 0
-33704 33030 0
33704 -33224 -33030 0
-33776 32840 0
-33776 33650 0
33776 -32840 -33650 0
-33786 32843 0
-33786 33650 0
33786 -32843 -33650 0
-33792 32846 0
-33792 33650 0
33792 -32846 -33650 0
-33798 32849 0
-33798 33650 0
33798 -32849 -33650 0
-33810 32852 0
-33810 33650 0
33810 -32852 -33650 0
-33816 32855 0
-33816 33650 0
33816 -32855 -33650 0
-33804 32858 0
-33804 33650 0
33804 -32858 -33650 0
-33822 32861 0
-33822 33650 0
33822 -32861 -33650 0
-33229 32864 0
-33229 32934 0
33229 -32864 -32934 0
-33232 32867 0
-33232 32934 0
33232 -32867 -32934 0
-33235 32870 0
-33235 32934 0
33235 -32870 -32934 0
-33238 32873 0
-33238 32934 0
33238 -32873 -32934 0
-33241 32876 0
-33241 32934 0
33241 -32876 -32934 0
-33244 32879 0
-33244 32934 0
33244 -32879 -32934 0
-33247 32882 0
-33247 32934 0
33247 -32882 -32934 0
-33250 32885 0
-33250 32934 0
33250 -32885 -32934 0
-33228 33205 0
-33228 32889 0
33228 -33205 -32889 0
-33231 33208 0
-33231 32892 0
33231 -33208 -32892 0
-33234 33211 0
-33234 32895 0
33234 -33211 -32895 0
-33237 33214 0
-33237 32898 0
33237 -33214 -32898 0
-33240 33217 0
-33240 32901 0
33240 -33217 -32901 0
-33243 33220 0
-33243 32904 0
33243 -33220 -32904 0
-33246 33223 0
-33246 32907 0
33246 -33223 -32907 0
-33249 33226 0
-33249 32910 0
33249 -33226 -32910 0
-33741 33682 0
-33741 32934 0
33741 -33682 -32934 0
-33744 33685 0
-33744 32934 0
33744 -33685 -32934 0
-33747 33688 0
-33747 32934 0
33747 -33688 -32934 0
-33750 33691 0
-33750 32934 0
33750 -33691 -32934 0
-33753 33694 0
-33753 32934 0
33753 -33694 -32934 0
-33756 33697 0
-33756 32934 0
33756 -33697 -32934 0
-33759 33700 0
-33759 32934 0
33759 -33700 -32934 0
-33762 33703 0
-33762 32934 0
33762 -33703 -32934 0
-33252 33227 0
-33252 32937 0
33252 -33227 -32937 0
-32987 33227 0
-32987 33204 0
32987 -33227 -33204 0
-33255 33230 0
-33255 32943 0
33255 -33230 -32943 0
-33737 33230 0
-33737 33207 0
33737 -33230 -33207 0
-33258 33233 0
-33258 32949 0
33258 -33233 -32949 0
-32999 33233 0
-32999 33210 0
32999 -33233 -33210 0
-33261 33236 0
-33261 32955 0
33261 -33236 -32955 0
-33767 33236 0
-33767 33213 0
33767 -33236 -33213 0
-33264 33239 0
-33264 32961 0
33264 -33239 -32961 0
-33773 33239 0
-33773 33216 0
33773 -33239 -33216 0
-33267 33242 0
-33267 32967 0
33267 -33242 -32967 0
-33017 33242 0
-33017 33219 0
33017 -33242 -33219 0
-33270 33245 0
-33270 32973 0
33270 -33245 -32973 0
-33023 33245 0
-33023 33222 0
33023 -33245 -33222 0
-33273 33248 0
-33273 32979 0
33273 -33248 -32979 0
-33029 33248 0
-33029 33225 0
33029 -33248 -33225 0
-33253 32984 0
-33253 33204 0
33253 -32984 -33204 0
-33707 32987 0
-33707 33030 0
33707 -32987 -33030 0
-33256 32990 0
-33256 33207 0
33256 -32990 -33207 0
-33710 33737 0
-33710 33030 0
33710 -33737 -33030 0
-33259 32996 0
-33259 33210 0
33259 -32996 -33210 0
-33713 32999 0
-33713 33030 0
33713 -32999 -33030 0
-33262 33002 0
-33262 33213 0
33262 -33002 -33213 0
-33719 33767 0
-33719 33030 0
33719 -33767 -33030 0
-33265 33008 0
-33265 33216 0
33265 -33008 -33216 0
-33722 33773 0
-33722 33030 0
33722 -33773 -33030 0
-33268 33014 0
-33268 33219 0
33268 -33014 -33219 0
-33725 33017 0
-33725 33030 0
33725 -33017 -33030 0
-33271 33020 0
-33271 33222 0
33271 -33020 -33222 0
-33728 33023 0
-33728 33030 0
33728 -33023 -33030 0
-33274 33026 0
-33274 33225 0
33274 -33026 -33225 0
-33731 33029 0
-33731 33030 0
33731 -33029 -33030 0
-33276 33385 0
-33276 33033 0
33276 -33385 -33033 0
-33708 33385 0
-33708 33057 0
33708 -33385 -33057 0
-33711 33254 0
-33711 33057 0
33711 -33254 -33057 0
-33714 33424 0
-33714 33057 0
33714 -33424 -33057 0
-33720 33395 0
-33720 33057 0
33720 -33395 -33057 0
-33723 33402 0
-33723 33057 0
33723 -33402 -33057 0
-33726 33435 0
-33726 33057 0
33726 -33435 -33057 0
-33729 33269 0
-33729 33057 0
33729 -33269 -33057 0
-33732 33272 0
-33732 33057 0
33732 -33272 -33057 0
-33735 33400 0
-33735 33399 0
33735 -33400 -33399 0
-33277 33062 0
-33277 33386 0
33277 -33062 -33386 0
-33283 33065 0
-33283 33398 0
33283 -33065 -33398 0
-33740 33706 0
-33740 33090 0
33740 -33706 -33090 0
-33743 33709 0
-33743 33090 0
33743 -33709 -33090 0
-33746 33712 0
-33746 33090 0
33746 -33712 -33090 0
-33749 33718 0
-33749 33090 0
33749 -33718 -33090 0
-33752 33721 0
-33752 33090 0
33752 -33721 -33090 0
-33755 33724 0
-33755 33090 0
33755 -33724 -33090 0
-33758 33727 0
-33758 33090 0
33758 -33727 -33090 0
-33761 33730 0
-33761 33090 0
33761 -33730 -33090 0
-33282 33254 0
-33282 33093 0
33282 -33254 -33093 0
-33286 33095 0
-33286 33096 0
33286 -33095 -33096 0
-33285 33424 0
-33285 33099 0
33285 -33424 -33099 0
-33289 33101 0
-33289 33455 0
33289 -33101 -33455 0
-33771 33402 0
-33771 33768 0
33771 -33402 -33768 0
-33777 33458 0
-33777 33885 0
33777 -33458 -33885 0
-33779 33458 0
-33779 33651 0
33779 -33458 -33651 0
-33783 33466 0
-33783 33651 0
33783 -33466 -33651 0
-33787 33466 0
-33787 33885 0
33787 -33466 -33885 0
-33292 33119 0
-33292 33469 0
33292 -33119 -33469 0
-33288 33395 0
-33288 33123 0
33288 -33395 -33123 0
-33291 33269 0
-33291 33126 0
33291 -33269 -33126 0
-33298 33128 0
-33298 33129 0
33298 -33128 -33129 0
-33301 33131 0
-33301 33132 0
33301 -33131 -33132 0
-33297 33402 0
-33297 33135 0
33297 -33402 -33135 0
-33789 33484 0
-33789 33651 0
33789 -33484 -33651 0
-33793 33484 0
-33793 33885 0
33793 -33484 -33885 0
-33300 33435 0
-33300 33144 0
33300 -33435 -33144 0
-33795 33493 0
-33795 33651 0
33795 -33493 -33651 0
-33799 33493 0
-33799 33885 0
33799 -33493 -33885 0
-33304 33152 0
-33304 33496 0
33304 -33152 -33496 0
-33801 33499 0
-33801 33651 0
33801 -33499 -33651 0
-33805 33499 0
-33805 33885 0
33805 -33499 -33885 0
-33303 33272 0
-33303 33162 0
33303 -33272 -33162 0
-33807 33511 0
-33807 33651 0
33807 -33511 -33651 0
-33811 33511 0
-33811 33885 0
33811 -33511 -33885 0
-33813 33517 0
-33813 33651 0
33813 -33517 -33651 0
-33817 33517 0
-33817 33885 0
33817 -33517 -33885 0
-33819 33526 0
-33819 33651 0
33819 -33526 -33651 0
-33823 33526 0
-33823 33885 0
33823 -33526 -33885 0
33333 -33306 0
33333 -33307 0
-33333 33306 33307 0
33337 -33324 0
33337 -33362 0
-33337 33324 33362 0
33373 -33342 0
33373 -33578 0
-33373 33342 33578 0
33344 -33331 0
33344 -33192 0
-33344 33331 33192 0
33353 -33561 0
33353 -33314 0
-33353 33561 33314 0
33356 -33611 0
33356 -33616 0
-33356 33611 33616 0
33372 -33364 0
33372 -33369 0
33372 -33328 0
-33372 33364 33369 33328 0
33203 -33204 0
33203 -33205 0
-33203 33204 33205 0
33206 -33207 0
33206 -33208 0
-33206 33207 33208 0
33209 -33210 0
33209 -33211 0
-33209 33210 33211 0
33212 -33213 0
33212 -33214 0
-33212 33213 33214 0
33215 -33216 0
33215 -33217 0
-33215 33216 33217 0
33218 -33219 0
33218 -33220 0
-33218 33219 33220 0
33221 -33222 0
33221 -33223 0
-33221 33222 33223 0
33224 -33225 0
33224 -33226 0
-33224 33225 33226 0
33227 -33228 0
33227 -33229 0
-33227 33228 33229 0
33230 -33231 0
33230 -33232 0
-33230 33231 33232 0
33233 -33234 0
33233 -33235 0
-33233 33234 33235 0
33236 -33237 0
33236 -33238 0
-33236 33237 33238 0
33239 -33240 0
33239 -33241 0
-33239 33240 33241 0
33242 -33243 0
33242 -33244 0
-33242 33243 33244 0
33245 -33246 0
33245 -33247 0
-33245 33246 33247 0
33248 -33249 0
33248 -33250 0
-33248 33249 33250 0
33385 -33252 0
33385 -33253 0
-33385 33252 33253 0
33254 -33255 0
33254 -33256 0
-33254 33255 33256 0
33424 -33258 0
33424 -33259 0
-33424 33258 33259 0
33395 -33261 0
33395 -33262 0
-33395 33261 33262 0
33402 -33264 0
33402 -33265 0
-33402 33264 33265 0
33435 -33267 0
33435 -33268 0
-33435 33267 33268 0
33269 -33270 0
33269 -33271 0
-33269 33270 33271 0
33272 -33273 0
33272 -33274 0
-33272 33273 33274 0
33414 -33276 0
33414 -33277 0
-33414 33276 33277 0
33423 -33737 0
33423 -33738 0
-33423 33737 33738 0
33453 -33282 0
33453 -33283 0
-33453 33282 33283 0
33479 -33285 0
33479 -33286 0
-33479 33285 33286 0
33488 -33288 0
33488 -33289 0
-33488 33288 33289 0
33491 -33291 0
33491 -33292 0
-33491 33291 33292 0
33497 -33294 0
33497 -33295 0
-33497 33294 33295 0
33503 -33297 0
33503 -33298 0
-33503 33297 33298 0
33509 -33300 0
33509 -33301 0
-33509 33300 33301 0
33521 -33303 0
33521 -33304 0
-33521 33303 33304 0
33335 33306 0
33335 33307 0
-33335 -33306 -33307 0
33308 33569 0
33308 33310 0
-33308 -33569 -33310 0
33562 33569 0
33562 33615 0
-33562 -33569 -33615 0
33314 33558 0
33314 33615 0
-33314 -33558 -33615 0
33613 33318 0
33613 33342 0
-33613 -33318 -33342 0
33616 33558 0
33616 33561 0
-33616 -33558 -33561 0
33338 33324 0
33338 33362 0
-33338 -33324 -33362 0
33897 33568 0
33897 33328 0
-33897 -33568 -33328 0
33380 33562 0
33380 33331 0
-33380 -33562 -33331 0
33383 33333 0
33383 33560 0
33383 33335 0
-33383 -33333 -33560 -33335 0
33875 33337 0
33875 33338 0
-33875 -33337 -33338 0
33887 33561 0
33887 33567 0
33887 33342 0
-33887 -33561 -33567 -33342 0
33381 33344 0
33381 33561 0
-33381 -33344 -33561 0
33370 33612 0
33370 33614 0
-33370 -33612 -33614 0
33368 33613 0
33368 33614 0
-33368 -33613 -33614 0
33873 33353 0
33873 33354 0
-33873 -33353 -33354 0
33355 33356 0
33355 33362 0
-33355 -33356 -33362 0
33891 33359 0
33891 33561 0
33891 33558 0
33891 33362 0
-33891 -33359 -33561 -33558 -33362 0
33881 33364 0
33881 33370 0
33881 33368 0
-33881 -33364 -33370 -33368 0
33889 33368 0
33889 33369 0
33889 33370 0
-33889 -33368 -33369 -33370 0
33895 33372 0
33895 33373 0
-33895 -33372 -33373 0
33879 33380 0
33879 33382 0
33879 33381 0
33879 33383 0
-33879 -33380 -33382 -33381 -33383 0
33379 33380 0
33379 33381 0
33379 33382 0
33379 33383 0
-33379 -33380 -33381 -33382 -33383 0
33399 33385 0
33399 33386 0
-33399 -33385 -33386 0
33387 33767 0
33387 33402 0
-33387 -33767 -33402 0
33475 33773 0
33475 33435 0
-33475 -33773 -33435 0
33393 33435 0
33393 33395 0
33393 33402 0
33393 33424 0
-33393 -33435 -33395 -33402 -33424 0
33398 33399 0
33398 33400 0
-33398 -33399 -33400 0
33401 33402 0
33401 33769 0
-33401 -33402 -33769 0
33465 33435 0
33465 33774 0
-33465 -33435 -33774 0
33464 33737 0
33464 33412 0
-33464 -33737 -33412 0
33477 33738 0
33477 33412 0
-33477 -33738 -33412 0
33459 33414 0
33459 33522 0
-33459 -33414 -33522 0
33416 33475 0
33416 33464 0
-33416 -33475 -33464 0
33419 33465 0
33419 33477 0
-33419 -33465 -33477 0
33765 33423 0
33765 33424 0
-33765 -33423 -33424 0
33460 33739 0
33460 33451 0
-33460 -33739 -33451 0
33468 33742 0
33468 33451 0
-33468 -33742 -33451 0
33486 33745 0
33486 33451 0
-33486 -33745 -33451 0
33471 33435 0
33471 33772 0
-33471 -33435 -33772 0
33495 33748 0
33495 33451 0
-33495 -33748 -33451 0
33513 33751 0
33513 33451 0
-33513 -33751 -33451 0
33519 33754 0
33519 33451 0
-33519 -33754 -33451 0
33501 33757 0
33501 33451 0
-33501 -33757 -33451 0
33528 33760 0
33528 33451 0
-33528 -33760 -33451 0
33467 33453 0
33467 33522 0
-33467 -33453 -33522 0
33455 33716 0
33455 33765 0
-33455 -33716 -33765 0
33458 33459 0
33458 33460 0
-33458 -33459 -33460 0
33461 33470 0
33461 33471 0
33461 33464 0
33461 33465 0
-33461 -33470 -33471 -33464 -33465 0
33466 33467 0
33466 33468 0
-33466 -33467 -33468 0
33469 33470 0
33469 33471 0
33469 33472 0
33469 33473 0
-33469 -33470 -33471 -33472 -33473 0
33474 33475 0
33474 33476 0
33474 33477 0
-33474 -33475 -33476 -33477 0
33485 33479 0
33485 33522 0
-33485 -33479 -33522 0
33825 33782 0
33825 33775 0
-33825 -33782 -33775 0
33484 33485 0
33484 33486 0
-33484 -33485 -33486 0
33494 33488 0
33494 33522 0
-33494 -33488 -33522 0
33500 33491 0
33500 33522 0
-33500 -33491 -33522 0
33493 33494 0
33493 33495 0
-33493 -33494 -33495 0
33496 33497 0
33496 33498 0
-33496 -33497 -33498 0
33499 33500 0
33499 33501 0
-33499 -33500 -33501 0
33512 33503 0
33512 33522 0
-33512 -33503 -33522 0
33827 33788 0
33827 33785 0
-33827 -33788 -33785 0
33518 33509 0
33518 33522 0
-33518 -33509 -33522 0
33511 33512 0
33511 33513 0
-33511 -33512 -33513 0
33829 33794 0
33829 33791 0
-33829 -33794 -33791 0
33517 33518 0
33517 33519 0
-33517 -33518 -33519 0
33527 33521 0
33527 33522 0
-33527 -33521 -33522 0
33831 33806 0
33831 33797 0
-33831 -33806 -33797 0
33526 33527 0
33526 33528 0
-33526 -33527 -33528 0
33833 33812 0
33833 33809 0
-33833 -33812 -33809 0
33835 33800 0
33835 33815 0
-33835 -33800 -33815 0
33837 33818 0
33837 33803 0
-33837 -33818 -33803 0
33839 33647 0
33839 33821 0
-33839 -33647 -33821 0
-33541 -33542 0
-33541 -33543 0
-33541 -33544 0
33541 33542 33543 33544 0
-33545 -33546 0
-33545 -33547 0
-33545 -33548 0
33545 33546 33547 33548 0
-33549 -33550 0
-33549 -33551 0
-33549 -33552 0
33549 33550 33551 33552 0
-33553 -33554 0
-33553 -33555 0
-33553 -33556 0
33553 33554 33555 33556 0
-33557 -33558 0
-33557 -33559 0
33557 33558 33559 0
-33560 -33561 0
-33560 -33562 0
33560 33561 33562 0
-33563 -33564 0
-33563 -33565 0
-33563 -33566 0
33563 33564 33565 33566 0
-33567 -33568 0
-33567 -33569 0
-33567 -33612 0
-33567 -33615 0
33567 33568 33569 33612 33615 0
-33572 -33573 0
-33572 -33574 0
-33572 -33575 0
33572 33573 33574 33575 0
-33576 -33612 0
-33576 -33578 0
33576 33612 33578 0
-33579 -33580 0
-33579 -33581 0
-33579 -33582 0
33579 33580 33581 33582 0
-33583 -33584 0
-33583 -33585 0
-33583 -33586 0
33583 33584 33585 33586 0
-33587 -33588 0
-33587 -33589 0
33587 33588 33589 0
-33590 -33591 0
-33590 -33592 0
33590 33591 33592 0
-33593 -33594 0
-33593 -33595 0
33593 33594 33595 0
-33596 -33597 0
-33596 -33598 0
33596 33597 33598 0
-33599 -33600 0
-33599 -33601 0
33599 33600 33601 0
-33602 -33603 0
-33602 -33604 0
33602 33603 33604 0
-33605 -33606 0
-33605 -33607 0
33605 33606 33607 0
-33608 -33609 0
-33608 -33610 0
33608 33609 33610 0
-33611 -33612 0
-33611 -33613 0
33611 33612 33613 0
-33614 -33615 0
-33614 -33616 0
33614 33615 33616 0
-33617 -33618 0
-33617 -33619 0
33617 33618 33619 0
-33620 -33621 0
-33620 -33622 0
33620 33621 33622 0
-33623 -33624 0
-33623 -33625 0
33623 33624 33625 0
-33626 -33627 0
-33626 -33628 0
33626 33627 33628 0
-33883 -33652 0
-33883 -33631 0
33883 33652 33631 0
-33632 -33633 0
-33632 -33634 0
33632 33633 33634 0
-33635 -33636 0
-33635 -33637 0
33635 33636 33637 0
-33638 -33639 0
-33638 -33640 0
33638 33639 33640 0
-33641 -33642 0
-33641 -33643 0
33641 33642 33643 0
-33644 -33645 0
-33644 -33651 0
33644 33645 33651 0
-33647 -33648 0
-33647 -33649 0
33647 33648 33649 0
-33650 -33651 0
-33650 -33652 0
-33650 -33885 0
33650 33651 33652 33885 0
-33654 -33655 0
-33654 -33656 0
-33654 -33657 0
33654 33655 33656 33657 0
-33658 -33659 0
-33658 -33660 0
-33658 -33661 0
33658 33659 33660 33661 0
-33662 -33663 0
-33662 -33664 0
-33662 -33665 0
33662 33663 33664 33665 0
-33666 -33667 0
-33666 -33668 0
-33666 -33669 0
33666 33667 33668 33669 0
-33670 -33671 0
-33670 -33672 0
-33670 -33673 0
33670 33671 33672 33673 0
-33674 -33675 0
-33674 -33676 0
-33674 -33677 0
33674 33675 33676 33677 0
-33678 -33679 0
-33678 -33680 0
-33678 -33681 0
33678 33679 33680 33681 0
-33682 -33683 0
-33682 -33684 0
33682 33683 33684 0
-33685 -33686 0
-33685 -33687 0
33685 33686 33687 0
-33688 -33689 0
-33688 -33690 0
33688 33689 33690 0
-33691 -33692 0
-33691 -33693 0
33691 33692 33693 0
-33694 -33695 0
-33694 -33696 0
33694 33695 33696 0
-33697 -33698 0
-33697 -33699 0
33697 33698 33699 0
-33700 -33701 0
-33700 -33702 0
33700 33701 33702 0
-33703 -33704 0
-33703 -33705 0
33703 33704 33705 0
-33706 -33707 0
-33706 -33708 0
33706 33707 33708 0
-33709 -33710 0
-33709 -33711 0
33709 33710 33711 0
-33712 -33713 0
-33712 -33714 0
33712 33713 33714 0
-33769 -33716 0
-33769 -33764 0
33769 33716 33764 0
-33718 -33719 0
-33718 -33720 0
33718 33719 33720 0
-33721 -33722 0
-33721 -33723 0
33721 33722 33723 0
-33724 -33725 0
-33724 -33726 0
33724 33725 33726 0
-33727 -33728 0
-33727 -33729 0
33727 33728 33729 0
-33730 -33731 0
-33730 -33732 0
33730 33731 33732 0
-33738 -33734 0
-33738 -33735 0
33738 33734 33735 0
-33736 -33737 0
-33736 -33738 0
33736 33737 33738 0
-33739 -33740 0
-33739 -33741 0
33739 33740 33741 0
-33742 -33743 0
-33742 -33744 0
33742 33743 33744 0
-33745 -33746 0
-33745 -33747 0
33745 33746 33747 0
-33748 -33749 0
-33748 -33750 0
33748 33749 33750 0
-33751 -33752 0
-33751 -33753 0
33751 33752 33753 0
-33754 -33755 0
-33754 -33756 0
33754 33755 33756 0
-33757 -33758 0
-33757 -33759 0
33757 33758 33759 0
-33760 -33761 0
-33760 -33762 0
33760 33761 33762 0
-33768 -33764 0
-33768 -33765 0
33768 33764 33765 0
-33766 -33767 0
-33766 -33768 0
-33766 -33769 0
33766 33767 33768 33769 0
-33770 -33771 0
-33770 -33772 0
-33770 -33773 0
-33770 -33774 0
33770 33771 33772 33773 33774 0
-33775 -33776 0
-33775 -33777 0
33775 33776 33777 0
-33778 -33779 0
-33778 -33780 0
-33778 -33781 0
33778 33779 33780 33781 0
-33782 -33783 0
-33782 -33784 0
33782 33783 33784 0
-33785 -33786 0
-33785 -33787 0
33785 33786 33787 0
-33788 -33789 0
-33788 -33790 0
33788 33789 33790 0
-33791 -33792 0
-33791 -33793 0
33791 33792 33793 0
-33794 -33795 0
-33794 -33796 0
33794 33795 33796 0
-33797 -33798 0
-33797 -33799 0
33797 33798 33799 0
-33800 -33801 0
-33800 -33802 0
33800 33801 33802 0
-33803 -33804 0
-33803 -33805 0
33803 33804 33805 0
-33806 -33807 0
-33806 -33808 0
33806 33807 33808 0
-33809 -33810 0
-33809 -33811 0
33809 33810 33811 0
-33812 -33813 0
-33812 -33814 0
33812 33813 33814 0
-33815 -33816 0
-33815 -33817 0
33815 33816 33817 0
-33818 -33819 0
-33818 -33820 0
33818 33819 33820 0
-33821 -33822 0
-33821 -33823 0
33821 33822 33823 0
-33825 34510 0
33825 -34510 0
-33827 34513 0
33827 -34513 0
-33829 34516 0
33829 -34516 0
-33831 34519 0
33831 -34519 0
-33833 34522 0
33833 -34522 0
-33835 34525 0
33835 -34525 0
-33837 34528 0
33837 -34528 0
-33839 34531 0
33839 -34531 0
-33841 34977 0
33841 -34977 0
-33843 34465 0
33843 -34465 0
-33845 34468 0
33845 -34468 0
-33847 34471 0
33847 -34471 0
-33849 34474 0
33849 -34474 0
-33851 34477 0
33851 -34477 0
-33853 34480 0
33853 -34480 0
-33855 34483 0
33855 -34483 0
-33857 34414 0
33857 -34414 0
-33859 34417 0
33859 -34417 0
-33861 34420 0
33861 -34420 0
-33863 34423 0
33863 -34423 0
-33865 34426 0
33865 -34426 0
-33867 34429 0
33867 -34429 0
-33869 34432 0
33869 -34432 0
-33871 34976 0
33871 -34976 0
-33873 35239 0
33873 -35239 0
-33875 34994 0
33875 -34994 0
-33877 35285 0
33877 -35285 0
-33879 34980 0
33879 -34980 0
-33881 34998 0
33881 -34998 0
-33883 34148 0
33883 -34148 0
-33885 33884 0
33885 -33884 0
-33887 34166 0
33887 -34166 0
-33889 34220 0
33889 -34220 0
-33891 34313 0
33891 -34313 0
-33893 34193 0
33893 -34193 0
-33895 34160 0
33895 -34160 0
-33897 34184 0
33897 -34184 0
34363 34312 0
-34363 -34312 0
35039 34977 0
-35039 -34977 0
35288 34980 0
-35288 -34980 0
35228 35239 0
-35228 -35239 0
34337 34286 0
-34337 -34286 0
35012 33909 0
-35012 -33909 0
35231 34994 0
-35231 -34994 0
35032 35285 0
-35032 -35285 0
35238 34988 0
-35238 -34988 0
35248 34998 0
-35248 -34998 0
35001 35005 0
-35001 -35005 0
34862 34978 0
-34862 -34978 0
35024 35227 0
-35024 -35227 0
35034 35230 0
-35034 -35230 0
35563 35246 0
-35563 -35246 0
35527 35257 0
-35527 -35257 0
35529 35260 0
-35529 -35260 0
35531 35263 0
-35531 -35263 0
35533 35266 0
-35533 -35266 0
35535 35269 0
-35535 -35269 0
35537 35272 0
-35537 -35272 0
35539 35275 0
-35539 -35275 0
35541 35278 0
-35541 -35278 0
35029 35281 0
-35029 -35281 0
35052 35287 0
-35052 -35287 0
33955 35290 0
-33955 -35290 0
35547 35025 0
-35547 -35025 0
35121 33955 0
-35121 -33955 0
33961 33955 0
-33961 -33955 0
34388 35293 0
-34388 -35293 0
33965 35296 0
-33965 -35296 0
35192 33961 0
-35192 -33961 0
34700 33965 0
-34700 -33965 0
34007 33965 0
-34007 -33965 0
35321 35302 0
-35321 -35302 0
34436 35305 0
-34436 -35305 0
35056 35308 0
-35056 -35308 0
34015 35308 0
-34015 -35308 0
34607 34874 0
-34607 -34874 0
34438 34874 0
-34438 -34874 0
34613 34877 0
-34613 -34877 0
34441 34877 0
-34441 -34877 0
34619 34880 0
-34619 -34880 0
34444 34880 0
-34444 -34880 0
34625 34883 0
-34625 -34883 0
34447 34883 0
-34447 -34883 0
34631 34886 0
-34631 -34886 0
34450 34886 0
-34450 -34886 0
34637 34889 0
-34637 -34889 0
34453 34889 0
-34453 -34889 0
34643 34892 0
-34643 -34892 0
34456 34892 0
-34456 -34892 0
34649 34895 0
-34649 -34895 0
34459 34895 0
-34459 -34895 0
34727 34007 0
-34727 -34007 0
35555 35311 0
-35555 -35311 0
34703 35056 0
-34703 -35056 0
34760 34015 0
-34760 -34015 0
34033 34015 0
-34033 -34015 0
34534 34875 0
-34534 -34875 0
34537 34878 0
-34537 -34878 0
34540 34881 0
-34540 -34881 0
34543 34884 0
-34543 -34884 0
34546 34887 0
-34546 -34887 0
34549 34890 0
-34549 -34890 0
34552 34893 0
-34552 -34893 0
34555 34896 0
-34555 -34896 0
34604 34033 0
-34604 -34033 0
34559 34604 0
-34559 -34604 0
34562 34604 0
-34562 -34604 0
34565 34604 0
-34565 -34604 0
34568 34604 0
-34568 -34604 0
34571 34604 0
-34571 -34604 0
34574 34604 0
-34574 -34604 0
34577 34604 0
-34577 -34604 0
34580 34604 0
-34580 -34604 0
35511 35324 0
-35511 -35324 0
35513 35328 0
-35513 -35328 0
35515 35332 0
-35515 -35332 0
35517 35336 0
-35517 -35336 0
35519 35340 0
-35519 -35340 0
35521 35344 0
-35521 -35344 0
35523 35348 0
-35523 -35348 0
34654 34897 0
-34654 -34897 0
34660 34900 0
-34660 -34900 0
34666 34903 0
-34666 -34903 0
34672 34906 0
-34672 -34906 0
34678 34909 0
-34678 -34909 0
34684 34912 0
-34684 -34912 0
34690 34915 0
-34690 -34915 0
34696 34918 0
-34696 -34918 0
35070 34657 0
-35070 -34657 0
35386 34669 0
-35386 -34669 0
35140 34687 0
-35140 -34687 0
35168 34693 0
-35168 -34693 0
34732 35055 0
-34732 -35055 0
35404 34924 0
-35404 -34924 0
34735 34924 0
-34735 -34924 0
34765 35094 0
-34765 -35094 0
35434 35065 0
-35434 -35065 0
34771 35065 0
-34771 -35065 0
34798 35072 0
-34798 -35072 0
34801 35105 0
-34801 -35105 0
34964 34939 0
-34964 -34939 0
34789 34939 0
-34789 -34939 0
34822 34942 0
-34822 -34942 0
35444 35057 0
-35444 -35057 0
35082 35063 0
-35082 -35063 0
34763 35068 0
-34763 -35068 0
35442 35071 0
-35442 -35071 0
34766 35406 0
-34766 -35406 0
35142 35086 0
-35142 -35086 0
34769 34766 0
-34769 -34766 0
35143 35089 0
-35143 -35089 0
34793 35125 0
-34793 -35125 0
35146 35131 0
-35146 -35131 0
34796 35139 0
-34796 -35139 0
34799 35436 0
-34799 -35436 0
34802 35440 0
-34802 -35440 0
34805 34799 0
-34805 -34799 0
35525 35448 0
-35525 -35448 0
34965 35144 0
-34965 -35144 0
34814 34802 0
-34814 -34802 0
34832 35166 0
-34832 -35166 0
-35312 34312 0
-35312 34148 0
35312 -34312 -34148 0
-35250 34267 0
-35250 34483 0
35250 -34267 -34483 0
-35460 34291 0
-35460 35322 0
35460 -34291 -35322 0
-35224 34267 0
-35224 34977 0
35224 -34267 -34977 0
-35309 34312 0
-35309 34160 0
35309 -34312 -34160 0
-35243 34267 0
-35243 34474 0
35243 -34267 -34474 0
-35294 34312 0
-35294 34166 0
35294 -34312 -34166 0
-35213 34264 0
-35213 34432 0
35213 -34264 -34432 0
-35251 34264 0
-35251 34976 0
35251 -34264 -34976 0
-35216 34267 0
-35216 34471 0
35216 -34267 -34471 0
-35472 34303 0
-35472 35322 0
35472 -34303 -35322 0
-35235 34264 0
-35235 34429 0
35235 -34264 -34429 0
-35291 34312 0
-35291 34184 0
35291 -34312 -34184 0
-35214 34279 0
-35214 34528 0
35214 -34279 -34528 0
-35245 34279 0
-35245 34522 0
35245 -34279 -34522 0
-35297 34312 0
-35297 34193 0
35297 -34312 -34193 0
-35212 34267 0
-35212 34480 0
35212 -34267 -34480 0
-35484 34300 0
-35484 35322 0
35484 -34300 -35322 0
-35255 34264 0
-35255 34417 0
35255 -34264 -34417 0
-35218 34279 0
-35218 34519 0
35218 -34279 -34519 0
-35466 34294 0
-35466 35322 0
35466 -34294 -35322 0
-35217 34264 0
-35217 34423 0
35217 -34264 -34423 0
-35236 34279 0
-35236 34525 0
35236 -34279 -34525 0
-35222 34279 0
-35222 34516 0
35222 -34279 -34516 0
-35306 34312 0
-35306 34220 0
35306 -34312 -34220 0
-35490 34306 0
-35490 35322 0
35490 -34306 -35322 0
-35226 34279 0
-35226 34510 0
35226 -34279 -34510 0
-35221 34264 0
-35221 34420 0
35221 -34264 -34420 0
-35262 34291 0
-35262 34286 0
35262 -34291 -34286 0
-35265 34294 0
-35265 34286 0
35265 -34294 -34286 0
-35271 34300 0
-35271 34286 0
35271 -34300 -34286 0
-35274 34303 0
-35274 34286 0
35274 -34303 -34286 0
-35277 34306 0
-35277 34286 0
35277 -34306 -34286 0
-35220 34267 0
-35220 34468 0
35220 -34267 -34468 0
-35225 34264 0
-35225 34414 0
35225 -34264 -34414 0
-35229 34994 0
-35229 35285 0
35229 -34994 -35285 0
-35319 34309 0
-35319 35322 0
35319 -34309 -35322 0
-35280 34309 0
-35280 34286 0
35280 -34309 -34286 0
-35234 34267 0
-35234 34477 0
35234 -34267 -34477 0
-35244 34264 0
-35244 34426 0
35244 -34264 -34426 0
-35254 34267 0
-35254 34465 0
35254 -34267 -34465 0
-35454 34288 0
-35454 35322 0
35454 -34288 -35322 0
-35259 34288 0
-35259 34286 0
35259 -34288 -34286 0
-35252 34279 0
-35252 34531 0
35252 -34279 -34531 0
-35256 34279 0
-35256 34513 0
35256 -34279 -34513 0
-35478 34297 0
-35478 35322 0
35478 -34297 -35322 0
-35268 34297 0
-35268 34286 0
35268 -34297 -34286 0
-35326 34288 0
-35326 35315 0
35326 -34288 -35315 0
-35330 34291 0
-35330 35315 0
35330 -34291 -35315 0
-35334 34294 0
-35334 35315 0
35334 -34294 -35315 0
-35338 34297 0
-35338 35315 0
35338 -34297 -35315 0
-35342 34300 0
-35342 35315 0
35342 -34300 -35315 0
-35346 34303 0
-35346 35315 0
35346 -34303 -35315 0
-35350 34306 0
-35350 35315 0
35350 -34306 -35315 0
-35450 34309 0
-35450 35315 0
35450 -34309 -35315 0
-35303 34312 0
-35303 34313 0
35303 -34312 -34313 0
-35258 34414 0
-35258 34337 0
35258 -34414 -34337 0
-35261 34417 0
-35261 34337 0
35261 -34417 -34337 0
-35264 34420 0
-35264 34337 0
35264 -34420 -34337 0
-35267 34423 0
-35267 34337 0
35267 -34423 -34337 0
-35270 34426 0
-35270 34337 0
35270 -34426 -34337 0
-35273 34429 0
-35273 34337 0
35273 -34429 -34337 0
-35276 34432 0
-35276 34337 0
35276 -34432 -34337 0
-35279 34976 0
-35279 34337 0
35279 -34976 -34337 0
-35289 34984 0
-35289 35008 0
35289 -34984 -35008 0
-35292 34363 0
-35292 35567 0
35292 -34363 -35567 0
-35295 34363 0
-35295 35557 0
35295 -34363 -35557 0
-35298 34363 0
-35298 35563 0
35298 -34363 -35563 0
-35301 35040 0
-35301 35038 0
35301 -35040 -35038 0
-35304 34363 0
-35304 35561 0
35304 -34363 -35561 0
-35307 34363 0
-35307 35559 0
35307 -34363 -35559 0
-35310 34363 0
-35310 35565 0
35310 -34363 -35565 0
-35313 34363 0
-35313 35553 0
35313 -34363 -35553 0
-34874 34510 0
-34874 34388 0
34874 -34510 -34388 0
-34877 34513 0
-34877 34388 0
34877 -34513 -34388 0
-34880 34516 0
-34880 34388 0
34880 -34516 -34388 0
-34883 34519 0
-34883 34388 0
34883 -34519 -34388 0
-34886 34522 0
-34886 34388 0
34886 -34522 -34388 0
-34889 34525 0
-34889 34388 0
34889 -34525 -34388 0
-34892 34528 0
-34892 34388 0
34892 -34528 -34388 0
-34895 34531 0
-34895 34388 0
34895 -34531 -34388 0
-35318 35049 0
-35318 35321 0
35318 -35049 -35321 0
-35325 34465 0
-35325 35321 0
35325 -34465 -35321 0
-35329 34468 0
-35329 35321 0
35329 -34468 -35321 0
-35333 34471 0
-35333 35321 0
35333 -34471 -35321 0
-35337 34474 0
-35337 35321 0
35337 -34474 -35321 0
-35341 34477 0
-35341 35321 0
35341 -34477 -35321 0
-35345 34480 0
-35345 35321 0
35345 -34480 -35321 0
-35349 34483 0
-35349 35321 0
35349 -34483 -35321 0
-34875 34414 0
-34875 34436 0
34875 -34414 -34436 0
-34878 34417 0
-34878 34436 0
34878 -34417 -34436 0
-34881 34420 0
-34881 34436 0
34881 -34420 -34436 0
-34884 34423 0
-34884 34436 0
34884 -34423 -34436 0
-34887 34426 0
-34887 34436 0
34887 -34426 -34436 0
-34890 34429 0
-34890 34436 0
34890 -34429 -34436 0
-34893 34432 0
-34893 34436 0
34893 -34432 -34436 0
-34896 34976 0
-34896 34436 0
34896 -34976 -34436 0
-35354 34438 0
-35354 34727 0
35354 -34438 -34727 0
-35357 34441 0
-35357 34727 0
35357 -34441 -34727 0
-35360 34444 0
-35360 34727 0
35360 -34444 -34727 0
-35363 34447 0
-35363 34727 0
35363 -34447 -34727 0
-35366 34450 0
-35366 34727 0
35366 -34450 -34727 0
-35369 34453 0
-35369 34727 0
35369 -34453 -34727 0
-35372 34456 0
-35372 34727 0
35372 -34456 -34727 0
-35375 34459 0
-35375 34727 0
35375 -34459 -34727 0
-35327 34977 0
-35327 35314 0
35327 -34977 -35314 0
-35331 34465 0
-35331 35314 0
35331 -34465 -35314 0
-35335 34468 0
-35335 35314 0
35335 -34468 -35314 0
-35339 34471 0
-35339 35314 0
35339 -34471 -35314 0
-35343 34474 0
-35343 35314 0
35343 -34474 -35314 0
-35347 34477 0
-35347 35314 0
35347 -34477 -35314 0
-35351 34480 0
-35351 35314 0
35351 -34480 -35314 0
-35451 34483 0
-35451 35314 0
35451 -34483 -35314 0
-35353 34873 0
-35353 34700 0
35353 -34873 -34700 0
-35356 34876 0
-35356 34700 0
35356 -34876 -34700 0
-35359 34879 0
-35359 34700 0
35359 -34879 -34700 0
-35362 34882 0
-35362 34700 0
35362 -34882 -34700 0
-35365 34885 0
-35365 34700 0
35365 -34885 -34700 0
-35368 34888 0
-35368 34700 0
35368 -34888 -34700 0
-35371 34891 0
-35371 34700 0
35371 -34891 -34700 0
-35374 34894 0
-35374 34700 0
35374 -34894 -34700 0
-35446 34510 0
-35446 35320 0
35446 -34510 -35320 0
-35456 34513 0
-35456 35320 0
35456 -34513 -35320 0
-35462 34516 0
-35462 35320 0
35462 -34516 -35320 0
-35468 34519 0
-35468 35320 0
35468 -34519 -35320 0
-35480 34522 0
-35480 35320 0
35480 -34522 -35320 0
-35486 34525 0
-35486 35320 0
35486 -34525 -35320 0
-35474 34528 0
-35474 35320 0
35474 -34528 -35320 0
-35492 34531 0
-35492 35320 0
35492 -34531 -35320 0
-34899 34534 0
-34899 34604 0
34899 -34534 -34604 0
-34902 34537 0
-34902 34604 0
34902 -34537 -34604 0
-34905 34540 0
-34905 34604 0
34905 -34540 -34604 0
-34908 34543 0
-34908 34604 0
34908 -34543 -34604 0
-34911 34546 0
-34911 34604 0
34911 -34546 -34604 0
-34914 34549 0
-34914 34604 0
34914 -34549 -34604 0
-34917 34552 0
-34917 34604 0
34917 -34552 -34604 0
-34920 34555 0
-34920 34604 0
34920 -34555 -34604 0
-34898 34875 0
-34898 34559 0
34898 -34875 -34559 0
-34901 34878 0
-34901 34562 0
34901 -34878 -34562 0
-34904 34881 0
-34904 34565 0
34904 -34881 -34565 0
-34907 34884 0
-34907 34568 0
34907 -34884 -34568 0
-34910 34887 0
-34910 34571 0
34910 -34887 -34571 0
-34913 34890 0
-34913 34574 0
34913 -34890 -34574 0
-34916 34893 0
-34916 34577 0
34916 -34893 -34577 0
-34919 34896 0
-34919 34580 0
34919 -34896 -34580 0
-35411 35352 0
-35411 34604 0
35411 -35352 -34604 0
-35414 35355 0
-35414 34604 0
35414 -35355 -34604 0
-35417 35358 0
-35417 34604 0
35417 -35358 -34604 0
-35420 35361 0
-35420 34604 0
35420 -35361 -34604 0
-35423 35364 0
-35423 34604 0
35423 -35364 -34604 0
-35426 35367 0
-35426 34604 0
35426 -35367 -34604 0
-35429 35370 0
-35429 34604 0
35429 -35370 -34604 0
-35432 35373 0
-35432 34604 0
35432 -35373 -34604 0
-34922 34897 0
-34922 34607 0
34922 -34897 -34607 0
-34657 34897 0
-34657 34874 0
34657 -34897 -34874 0
-34925 34900 0
-34925 34613 0
34925 -34900 -34613 0
-35407 34900 0
-35407 34877 0
35407 -34900 -34877 0
-34928 34903 0
-34928 34619 0
34928 -34903 -34619 0
-34669 34903 0
-34669 34880 0
34669 -34903 -34880 0
-34931 34906 0
-34931 34625 0
34931 -34906 -34625 0
-35437 34906 0
-35437 34883 0
35437 -34906 -34883 0
-34934 34909 0
-34934 34631 0
34934 -34909 -34631 0
-35443 34909 0
-35443 34886 0
35443 -34909 -34886 0
-34937 34912 0
-34937 34637 0
34937 -34912 -34637 0
-34687 34912 0
-34687 34889 0
34687 -34912 -34889 0
-34940 34915 0
-34940 34643 0
34940 -34915 -34643 0
-34693 34915 0
-34693 34892 0
34693 -34915 -34892 0
-34943 34918 0
-34943 34649 0
34943 -34918 -34649 0
-34699 34918 0
-34699 34895 0
34699 -34918 -34895 0
-34923 34654 0
-34923 34874 0
34923 -34654 -34874 0
-35377 34657 0
-35377 34700 0
35377 -34657 -34700 0
-34926 34660 0
-34926 34877 0
34926 -34660 -34877 0
-35380 35407 0
-35380 34700 0
35380 -35407 -34700 0
-34929 34666 0
-34929 34880 0
34929 -34666 -34880 0
-35383 34669 0
-35383 34700 0
35383 -34669 -34700 0
-34932 34672 0
-34932 34883 0
34932 -34672 -34883 0
-35389 35437 0
-35389 34700 0
35389 -35437 -34700 0
-34935 34678 0
-34935 34886 0
34935 -34678 -34886 0
-35392 35443 0
-35392 34700 0
35392 -35443 -34700 0
-34938 34684 0
-34938 34889 0
34938 -34684 -34889 0
-35395 34687 0
-35395 34700 0
35395 -34687 -34700 0
-34941 34690 0
-34941 34892 0
34941 -34690 -34892 0
-35398 34693 0
-35398 34700 0
35398 -34693 -34700 0
-34944 34696 0
-34944 34895 0
34944 -34696 -34895 0
-35401 34699 0
-35401 34700 0
35401 -34699 -34700 0
-34946 35055 0
-34946 34703 0
34946 -35055 -34703 0
-35378 35055 0
-35378 34727 0
35378 -35055 -34727 0
-35381 34924 0
-35381 34727 0
35381 -34924 -34727 0
-35384 35094 0
-35384 34727 0
35384 -35094 -34727 0
-35390 35065 0
-35390 34727 0
35390 -35065 -34727 0
-35393 35072 0
-35393 34727 0
35393 -35072 -34727 0
-35396 35105 0
-35396 34727 0
35396 -35105 -34727 0
-35399 34939 0
-35399 34727 0
35399 -34939 -34727 0
-35402 34942 0
-35402 34727 0
35402 -34942 -34727 0
-35405 35070 0
-35405 35069 0
35405 -35070 -35069 0
-34947 34732 0
-34947 35056 0
34947 -34732 -35056 0
-34953 34735 0
-34953 35068 0
34953 -34735 -35068 0
-35410 35376 0
-35410 34760 0
35410 -35376 -34760 0
-35413 35379 0
-35413 34760 0
35413 -35379 -34760 0
-35416 35382 0
-35416 34760 0
35416 -35382 -34760 0
-35419 35388 0
-35419 34760 0
35419 -35388 -34760 0
-35422 35391 0
-35422 34760 0
35422 -35391 -34760 0
-35425 35394 0
-35425 34760 0
35425 -35394 -34760 0
-35428 35397 0
-35428 34760 0
35428 -35397 -34760 0
-35431 35400 0
-35431 34760 0
35431 -35400 -34760 0
-34952 34924 0
-34952 34763 0
34952 -34924 -34763 0
-34956 34765 0
-34956 34766 0
34956 -34765 -34766 0
-34955 35094 0
-34955 34769 0
34955 -35094 -34769 0
-34959 34771 0
-34959 35125 0
34959 -34771 -35125 0
-35441 35072 0
-35441 35438 0
35441 -35072 -35438 0
-35447 35128 0
-35447 35555 0
35447 -35128 -35555 0
-35449 35128 0
-35449 35321 0
35449 -35128 -35321 0
-35453 35136 0
-35453 35321 0
35453 -35136 -35321 0
-35457 35136 0
-35457 35555 0
35457 -35136 -35555 0
-34962 34789 0
-34962 35139 0
34962 -34789 -35139 0
-34958 35065 0
-34958 34793 0
34958 -35065 -34793 0
-34961 34939 0
-34961 34796 0
34961 -34939 -34796 0
-34968 34798 0
-34968 34799 0
34968 -34798 -34799 0
-34971 34801 0
-34971 34802 0
34971 -34801 -34802 0
-34967 35072 0
-34967 34805 0
34967 -35072 -34805 0
-35459 35154 0
-35459 35321 0
35459 -35154 -35321 0
-35463 35154 0
-35463 35555 0
35463 -35154 -35555 0
-34970 35105 0
-34970 34814 0
34970 -35105 -34814 0
-35465 35163 0
-35465 35321 0
35465 -35163 -35321 0
-35469 35163 0
-35469 35555 0
35469 -35163 -35555 0
-34974 34822 0
-34974 35166 0
34974 -34822 -35166 0
-35471 35169 0
-35471 35321 0
35471 -35169 -35321 0
-35475 35169 0
-35475 35555 0
35475 -35169 -35555 0
-34973 34942 0
-34973 34832 0
34973 -34942 -34832 0
-35477 35181 0
-35477 35321 0
35477 -35181 -35321 0
-35481 35181 0
-35481 35555 0
35481 -35181 -35555 0
-35483 35187 0
-35483 35321 0
35483 -35187 -35321 0
-35487 35187 0
-35487 35555 0
35487 -35187 -35555 0
-35489 35196 0
-35489 35321 0
35489 -35196 -35321 0
-35493 35196 0
-35493 35555 0
35493 -35196 -35555 0
35003 -34976 0
35003 -34977 0
-35003 34976 34977 0
35007 -34994 0
35007 -35032 0
-35007 34994 35032 0
35043 -35012 0
35043 -35248 0
-35043 35012 35248 0
35014 -35001 0
35014 -34862 0
-35014 35001 34862 0
35023 -35231 0
35023 -34984 0
-35023 35231 34984 0
35026 -35281 0
35026 -35286 0
-35026 35281 35286 0
35042 -35034 0
35042 -35039 0
35042 -34998 0
-35042 35034 35039 34998 0
34873 -34874 0
34873 -34875 0
-34873 34874 34875 0
34876 -34877 0
34876 -34878 0
-34876 34877 34878 0
34879 -34880 0
34879 -34881 0
-34879 34880 34881 0
34882 -34883 0
34882 -34884 0
-34882 34883 34884 0
34885 -34886 0
34885 -34887 0
-34885 34886 34887 0
34888 -34889 0
34888 -34890 0
-34888 34889 34890 0
34891 -34892 0
34891 -34893 0
-34891 34892 34893 0
34894 -34895 0
34894 -34896 0
-34894 34895 34896 0
34897 -34898 0
34897 -34899 0
-34897 34898 34899 0
34900 -34901 0
34900 -34902 0
-34900 34901 34902 0
34903 -34904 0
34903 -34905 0
-34903 34904 34905 0
34906 -34907 0
34906 -34908 0
-34906 34907 34908 0
34909 -34910 0
34909 -34911 0
-34909 34910 34911 0
34912 -34913 0
34912 -34914 0
-34912 34913 34914 0
34915 -34916 0
34915 -34917 0
-34915 34916 34917 0
34918 -34919 0
34918 -34920 0
-34918 34919 34920 0
35055 -34922 0
35055 -34923 0
-35055 34922 34923 0
34924 -34925 0
34924 -34926 0
-34924 34925 34926 0
35094 -34928 0
35094 -34929 0
-35094 34928 34929 0
35065 -34931 0
35065 -34932 0
-35065 34931 34932 0
35072 -34934 0
35072 -34935 0
-35072 34934 34935 0
35105 -34937 0
35105 -34938 0
-35105 34937 34938 0
34939 -34940 0
34939 -34941 0
-34939 34940 34941 0
34942 -34943 0
34942 -34944 0
-34942 34943 34944 0
35084 -34946 0
35084 -34947 0
-35084 34946 34947 0
35093 -35407 0
35093 -35408 0
-35093 35407 35408 0
35123 -34952 0
35123 -34953 0
-35123 34952 34953 0
35149 -34955 0
35149 -34956 0
-35149 34955 34956 0
35158 -34958 0
35158 -34959 0
-35158 34958 34959 0
35161 -34961 0
35161 -34962 0
-35161 34961 34962 0
35167 -34964 0
35167 -34965 0
-35167 34964 34965 0
35173 -34967 0
35173 -34968 0
-35173 34967 34968 0
35179 -34970 0
35179 -34971 0
-35179 34970 34971 0
35191 -34973 0
35191 -34974 0
-35191 34973 34974 0
35005 34976 0
35005 34977 0
-35005 -34976 -34977 0
34978 35239 0
34978 34980 0
-34978 -35239 -34980 0
35232 35239 0
35232 35285 0
-35232 -35239 -35285 0
34984 35228 0
34984 35285 0
-34984 -35228 -35285 0
35283 34988 0
35283 35012 0
-35283 -34988 -35012 0
35286 35228 0
35286 35231 0
-35286 -35228 -35231 0
35008 34994 0
35008 35032 0
-35008 -34994 -35032 0
35567 35238 0
35567 34998 0
-35567 -35238 -34998 0
35050 35232 0
35050 35001 0
-35050 -35232 -35001 0
35053 35003 0
35053 35230 0
35053 35005 0
-35053 -35003 -35230 -35005 0
35545 35007 0
35545 35008 0
-35545 -35007 -35008 0
35557 35231 0
35557 35237 0
35557 35012 0
-35557 -35231 -35237 -35012 0
35051 35014 0
35051 35231 0
-35051 -35014 -35231 0
35040 35282 0
35040 35284 0
-35040 -35282 -35284 0
35038 35283 0
35038 35284 0
-35038 -35283 -35284 0
35543 35023 0
35543 35024 0
-35543 -35023 -35024 0
35025 35026 0
35025 35032 0
-35025 -35026 -35032 0
35561 35029 0
35561 35231 0
35561 35228 0
35561 35032 0
-35561 -35029 -35231 -35228 -35032 0
35551 35034 0
35551 35040 0
35551 35038 0
-35551 -35034 -35040 -35038 0
35559 35038 0
35559 35039 0
35559 35040 0
-35559 -35038 -35039 -35040 0
35565 35042 0
35565 35043 0
-35565 -35042 -35043 0
35549 35050 0
35549 35052 0
35549 35051 0
35549 35053 0
-35549 -35050 -35052 -35051 -35053 0
35049 35050 0
35049 35051 0
35049 35052 0
35049 35053 0
-35049 -35050 -35051 -35052 -35053 0
35069 35055 0
35069 35056 0
-35069 -35055 -35056 0
35057 35437 0
35057 35072 0
-35057 -35437 -35072 0
35145 35443 0
35145 35105 0
-35145 -35443 -35105 0
35063 35105 0
35063 35065 0
35063 35072 0
35063 35094 0
-35063 -35105 -35065 -35072 -35094 0
35068 35069 0
35068 35070 0
-35068 -35069 -35070 0
35071 35072 0
35071 35439 0
-35071 -35072 -35439 0
35135 35105 0
35135 35444 0
-35135 -35105 -35444 0
35134 35407 0
35134 35082 0
-35134 -35407 -35082 0
35147 35408 0
35147 35082 0
-35147 -35408 -35082 0
35129 35084 0
35129 35192 0
-35129 -35084 -35192 0
35086 35145 0
35086 35134 0
-35086 -35145 -35134 0
35089 35135 0
35089 35147 0
-35089 -35135 -35147 0
35435 35093 0
35435 35094 0
-35435 -35093 -35094 0
35130 35409 0
35130 35121 0
-35130 -35409 -35121 0
35138 35412 0
35138 35121 0
-35138 -35412 -35121 0
35156 35415 0
35156 35121 0
-35156 -35415 -35121 0
35141 35105 0
35141 35442 0
-35141 -35105 -35442 0
35165 35418 0
35165 35121 0
-35165 -35418 -35121 0
35183 35421 0
35183 35121 0
-35183 -35421 -35121 0
35189 35424 0
35189 35121 0
-35189 -35424 -35121 0
35171 35427 0
35171 35121 0
-35171 -35427 -35121 0
35198 35430 0
35198 35121 0
-35198 -35430 -35121 0
35137 35123 0
35137 35192 0
-35137 -35123 -35192 0
35125 35386 0
35125 35435 0
-35125 -35386 -35435 0
35128 35129 0
35128 35130 0
-35128 -35129 -35130 0
35131 35140 0
35131 35141 0
35131 35134 0
35131 35135 0
-35131 -35140 -35141 -35134 -35135 0
35136 35137 0
35136 35138 0
-35136 -35137 -35138 0
35139 35140 0
35139 35141 0
35139 35142 0
35139 35143 0
-35139 -35140 -35141 -35142 -35143 0
35144 35145 0
35144 35146 0
35144 35147 0
-35144 -35145 -35146 -35147 0
35155 35149 0
35155 35192 0
-35155 -35149 -35192 0
35495 35452 0
35495 35445 0
-35495 -35452 -35445 0
35154 35155 0
35154 35156 0
-35154 -35155 -35156 0
35164 35158 0
35164 35192 0
-35164 -35158 -35192 0
35170 35161 0
35170 35192 0
-35170 -35161 -35192 0
35163 35164 0
35163 35165 0
-35163 -35164 -35165 0
35166 35167 0
35166 35168 0
-35166 -35167 -35168 0
35169 35170 0
35169 35171 0
-35169 -35170 -35171 0
35182 35173 0
35182 35192 0
-35182 -35173 -35192 0
35497 35458 0
35497 35455 0
-35497 -35458 -35455 0
35188 35179 0
35188 35192 0
-35188 -35179 -35192 0
35181 35182 0
35181 35183 0
-35181 -35182 -35183 0
35499 35464 0
35499 35461 0
-35499 -35464 -35461 0
35187 35188 0
35187 35189 0
-35187 -35188 -35189 0
35197 35191 0
35197 35192 0
-35197 -35191 -35192 0
35501 35476 0
35501 35467 0
-35501 -35476 -35467 0
35196 35197 0
35196 35198 0
-35196 -35197 -35198 0
35503 35482 0
35503 35479 0
-35503 -35482 -35479 0
35505 35470 0
35505 35485 0
-35505 -35470 -35485 0
35507 35488 0
35507 35473 0
-35507 -35488 -35473 0
35509 35317 0
35509 35491 0
-35509 -35317 -35491 0
-35211 -35212 0
-35211 -35213 0
-35211 -35214 0
35211 35212 35213 35214 0
-35215 -35216 0
-35215 -35217 0
-35215 -35218 0
35215 35216 35217 35218 0
-35219 -35220 0
-35219 -35221 0
-35219 -35222 0
35219 35220 35221 35222 0
-35223 -35224 0
-35223 -35225 0
-35223 -35226 0
35223 35224 35225 35226 0
-35227 -35228 0
-35227 -35229 0
35227 35228 35229 0
-35230 -35231 0
-35230 -35232 0
35230 35231 35232 0
-35233 -35234 0
-35233 -35235 0
-35233 -35236 0
35233 35234 35235 35236 0
-35237 -35238 0
-35237 -35239 0
-35237 -35282 0
-35237 -35285 0
35237 35238 35239 35282 35285 0
-35242 -35243 0
-35242 -35244 0
-35242 -35245 0
35242 35243 35244 35245 0
-35246 -35282 0
-35246 -35248 0
35246 35282 35248 0
-35249 -35250 0
-35249 -35251 0
-35249 -35252 0
35249 35250 35251 35252 0
-35253 -35254 0
-35253 -35255 0
-35253 -35256 0
35253 35254 35255 35256 0
-35257 -35258 0
-35257 -35259 0
35257 35258 35259 0
-35260 -35261 0
-35260 -35262 0
35260 35261 35262 0
-35263 -35264 0
-35263 -35265 0
35263 35264 35265 0
-35266 -35267 0
-35266 -35268 0
35266 35267 35268 0
-35269 -35270 0
-35269 -35271 0
35269 35270 35271 0
-35272 -35273 0
-35272 -35274 0
35272 35273 35274 0
-35275 -35276 0
-35275 -35277 0
35275 35276 35277 0
-35278 -35279 0
-35278 -35280 0
35278 35279 35280 0
-35281 -35282 0
-35281 -35283 0
35281 35282 35283 0
-35284 -35285 0
-35284 -35286 0
35284 35285 35286 0
-35287 -35288 0
-35287 -35289 0
35287 35288 35289 0
-35290 -35291 0
-35290 -35292 0
35290 35291 35292 0
-35293 -35294 0
-35293 -35295 0
35293 35294 35295 0
-35296 -35297 0
-35296 -35298 0
35296 35297 35298 0
-35553 -35322 0
-35553 -35301 0
35553 35322 35301 0
-35302 -35303 0
-35302 -35304 0
35302 35303 35304 0
-35305 -35306 0
-35305 -35307 0
35305 35306 35307 0
-35308 -35309 0
-35308 -35310 0
35308 35309 35310 0
-35311 -35312 0
-35311 -35313 0
35311 35312 35313 0
-35314 -35315 0
-35314 -35321 0
35314 35315 35321 0
-35317 -35318 0
-35317 -35319 0
35317 35318 35319 0
-35320 -35321 0
-35320 -35322 0
-35320 -35555 0
35320 35321 35322 35555 0
-35324 -35325 0
-35324 -35326 0
-35324 -35327 0
35324 35325 35326 35327 0
-35328 -35329 0
-35328 -35330 0
-35328 -35331 0
35328 35329 35330 35331 0
-35332 -35333 0
-35332 -35334 0
-35332 -35335 0
35332 35333 35334 35335 0
-35336 -35337 0
-35336 -35338 0
-35336 -35339 0
35336 35337 35338 35339 0
-35340 -35341 0
-35340 -35342 0
-35340 -35343 0
35340 35341 35342 35343 0
-35344 -35345 0
-35344 -35346 0
-35344 -35347 0
35344 35345 35346 35347 0
-35348 -35349 0
-35348 -35350 0
-35348 -35351 0
35348 35349 35350 35351 0
-35352 -35353 0
-35352 -35354 0
35352 35353 35354 0
-35355 -35356 0
-35355 -35357 0
35355 35356 35357 0
-35358 -35359 0
-35358 -35360 0
35358 35359 35360 0
-35361 -35362 0
-35361 -35363 0
35361 35362 35363 0
-35364 -35365 0
-35364 -35366 0
35364 35365 35366 0
-35367 -35368 0
-35367 -35369 0
35367 35368 35369 0
-35370 -35371 0
-35370 -35372 0
35370 35371 35372 0
-35373 -35374 0
-35373 -35375 0
35373 35374 35375 0
-35376 -35377 0
-35376 -35378 0
35376 35377 35378 0
-35379 -35380 0
-35379 -35381 0
35379 35380 35381 0
-35382 -35383 0
-35382 -35384 0
35382 35383 35384 0
-35439 -35386 0
-35439 -35434 0
35439 35386 35434 0
-35388 -35389 0
-35388 -35390 0
35388 35389 35390 0
-35391 -35392 0
-35391 -35393 0
35391 35392 35393 0
-35394 -35395 0
-35394 -35396 0
35394 35395 35396 0
-35397 -35398 0
-35397 -35399 0
35397 35398 35399 0
-35400 -35401 0
-35400 -35402 0
35400 35401 35402 0
-35408 -35404 0
-35408 -35405 0
35408 35404 35405 0
-35406 -35407 0
-35406 -35408 0
35406 35407 35408 0
-35409 -35410 0
-35409 -35411 0
35409 35410 35411 0
-35412 -35413 0
-35412 -35414 0
35412 35413 35414 0
-35415 -35416 0
-35415 -35417 0
35415 35416 35417 0
-35418 -35419 0
-35418 -35420 0
35418 35419 35420 0
-35421 -35422 0
-35421 -35423 0
35421 35422 35423 0
-35424 -35425 0
-35424 -35426 0
35424 35425 35426 0
-35427 -35428 0
-35427 -35429 0
35427 35428 35429 0
-35430 -35431 0
-35430 -35432 0
35430 35431 35432 0
-35438 -35434 0
-35438 -35435 0
35438 35434 35435 0
-35436 -35437 0
-35436 -35438 0
-35436 -35439 0
35436 35437 35438 35439 0
-35440 -35441 0
-35440 -35442 0
-35440 -35443 0
-35440 -35444 0
35440 35441 35442 35443 35444 0
-35445 -35446 0
-35445 -35447 0
35445 35446 35447 0
-35448 -35449 0
-35448 -35450 0
-35448 -35451 0
35448 35449 35450 35451 0
-35452 -35453 0
-35452 -35454 0
35452 35453 35454 0
-35455 -35456 0
-35455 -35457 0
35455 35456 35457 0
-35458 -35459 0
-35458 -35460 0
35458 35459 35460 0
-35461 -35462 0
-35461 -35463 0
35461 35462 35463 0
-35464 -35465 0
-35464 -35466 0
35464 35465 35466 0
-35467 -35468 0
-35467 -35469 0
35467 35468 35469 0
-35470 -35471 0
-35470 -35472 0
35470 35471 35472 0
-35473 -35474 0
-35473 -35475 0
35473 35474 35475 0
-35476 -35477 0
-35476 -35478 0
35476 35477 35478 0
-35479 -35480 0
-35479 -35481 0
35479 35480 35481 0
-35482 -35483 0
-35482 -35484 0
35482 35483 35484 0
-35485 -35486 0
-35485 -35487 0
35485 35486 35487 0
-35488 -35489 0
-35488 -35490 0
35488 35489 35490 0
-35491 -35492 0
-35491 -35493 0
35491 35492 35493 0
-35495 36180 0
35495 -36180 0
-35497 36183 0
35497 -36183 0
-35499 36186 0
35499 -36186 0
-35501 36189 0
35501 -36189 0
-35503 36192 0
35503 -36192 0
-35505 36195 0
35505 -36195 0
-35507 36198 0
35507 -36198 0
-35509 36201 0
35509 -36201 0
-35511 36647 0
35511 -36647 0
-35513 36135 0
35513 -36135 0
-35515 36138 0
35515 -36138 0
-35517 36141 0
35517 -36141 0
-35519 36144 0
35519 -36144 0
-35521 36147 0
35521 -36147 0
-35523 36150 0
35523 -36150 0
-35525 36153 0
35525 -36153 0
-35527 36084 0
35527 -36084 0
-35529 36087 0
35529 -36087 0
-35531 36090 0
35531 -36090 0
-35533 36093 0
35533 -36093 0
-35535 36096 0
35535 -36096 0
-35537 36099 0
35537 -36099 0
-35539 36102 0
35539 -36102 0
-35541 36646 0
35541 -36646 0
-35543 36909 0
35543 -36909 0
-35545 36664 0
35545 -36664 0
-35547 36955 0
35547 -36955 0
-35549 36650 0
35549 -36650 0
-35551 36668 0
35551 -36668 0
-35553 35818 0
35553 -35818 0
-35555 35554 0
35555 -35554 0
-35557 35836 0
35557 -35836 0
-35559 35890 0
35559 -35890 0
-35561 35983 0
35561 -35983 0
-35563 35863 0
35563 -35863 0
-35565 35830 0
35565 -35830 0
-35567 35854 0
35567 -35854 0
36033 35982 0
-36033 -35982 0
36709 36647 0
-36709 -36647 0
36958 36650 0
-36958 -36650 0
36898 36909 0
-36898 -36909 0
36007 35956 0
-36007 -35956 0
36682 35579 0
-36682 -35579 0
36901 36664 0
-36901 -36664 0
36702 36955 0
-36702 -36955 0
36908 36658 0
-36908 -36658 0
36918 36668 0
-36918 -36668 0
36671 36675 0
-36671 -36675 0
36532 36648 0
-36532 -36648 0
36694 36897 0
-36694 -36897 0
36704 36900 0
-36704 -36900 0
37233 36916 0
-37233 -36916 0
37197 36927 0
-37197 -36927 0
37199 36930 0
-37199 -36930 0
37201 36933 0
-37201 -36933 0
37203 36936 0
-37203 -36936 0
37205 36939 0
-37205 -36939 0
37207 36942 0
-37207 -36942 0
37209 36945 0
-37209 -36945 0
37211 36948 0
-37211 -36948 0
36699 36951 0
-36699 -36951 0
36722 36957 0
-36722 -36957 0
35625 36960 0
-35625 -36960 0
37217 36695 0
-37217 -36695 0
36791 35625 0
-36791 -35625 0
35631 35625 0
-35631 -35625 0
36058 36963 0
-36058 -36963 0
35635 36966 0
-35635 -36966 0
36862 35631 0
-36862 -35631 0
36370 35635 0
-36370 -35635 0
35677 35635 0
-35677 -35635 0
36991 36972 0
-36991 -36972 0
36106 36975 0
-36106 -36975 0
36726 36978 0
-36726 -36978 0
35685 36978 0
-35685 -36978 0
36277 36544 0
-36277 -36544 0
36108 36544 0
-36108 -36544 0
36283 36547 0
-36283 -36547 0
36111 36547 0
-36111 -36547 0
36289 36550 0
-36289 -36550 0
36114 36550 0
-36114 -36550 0
36295 36553 0
-36295 -36553 0
36117 36553 0
-36117 -36553 0
36301 36556 0
-36301 -36556 0
36120 36556 0
-36120 -36556 0
36307 36559 0
-36307 -36559 0
36123 36559 0
-36123 -36559 0
36313 36562 0
-36313 -36562 0
36126 36562 0
-36126 -36562 0
36319 36565 0
-36319 -36565 0
36129 36565 0
-36129 -36565 0
36397 35677 0
-36397 -35677 0
37225 36981 0
-37225 -36981 0
36373 36726 0
-36373 -36726 0
36430 35685 0
-36430 -35685 0
35703 35685 0
-35703 -35685 0
36204 36545 0
-36204 -36545 0
36207 36548 0
-36207 -36548 0
36210 36551 0
-36210 -36551 0
36213 36554 0
-36213 -36554 0
36216 36557 0
-36216 -36557 0
36219 36560 0
-36219 -36560 0
36222 36563 0
-36222 -36563 0
36225 36566 0
-36225 -36566 0
36274 35703 0
-36274 -35703 0
36229 36274 0
-36229 -36274 0
36232 36274 0
-36232 -36274 0
36235 36274 0
-36235 -36274 0
36238 36274 0
-36238 -36274 0
36241 36274 0
-36241 -36274 0
36244 36274 0
-36244 -36274 0
36247 36274 0
-36247 -36274 0
36250 36274 0
-36250 -36274 0
37181 36994 0
-37181 -36994 0
37183 36998 0
-37183 -36998 0
37185 37002 0
-37185 -37002 0
37187 37006 0
-37187 -37006 0
37189 37010 0
-37189 -37010 0
37191 37014 0
-37191 -37014 0
37193 37018 0
-37193 -37018 0
36324 36567 0
-36324 -36567 0
36330 36570 0
-36330 -36570 0
36336 36573 0
-36336 -36573 0
36342 36576 0
-36342 -36576 0
36348 36579 0
-36348 -36579 0
36354 36582 0
-36354 -36582 0
36360 36585 0
-36360 -36585 0
36366 36588 0
-36366 -36588 0
36740 36327 0
-36740 -36327 0
37056 36339 0
-37056 -36339 0
36810 36357 0
-36810 -36357 0
36838 36363 0
-36838 -36363 0
36402 36725 0
-36402 -36725 0
37074 36594 0
-37074 -36594 0
36405 36594 0
-36405 -36594 0
36435 36764 0
-36435 -36764 0
37104 36735 0
-37104 -36735 0
36441 36735 0
-36441 -36735 0
36468 36742 0
-36468 -36742 0
36471 36775 0
-36471 -36775 0
36634 36609 0
-36634 -36609 0
36459 36609 0
-36459 -36609 0
36492 36612 0
-36492 -36612 0
37114 36727 0
-37114 -36727 0
36752 36733 0
-36752 -36733 0
36433 36738 0
-36433 -36738 0
37112 36741 0
-37112 -36741 0
36436 37076 0
-36436 -37076 0
36812 36756 0
-36812 -36756 0
36439 36436 0
-36439 -36436 0
36813 36759 0
-36813 -36759 0
36463 36795 0
-36463 -36795 0
36816 36801 0
-36816 -36801 0
36466 36809 0
-36466 -36809 0
36469 37106 0
-36469 -37106 0
36472 37110 0
-36472 -37110 0
36475 36469 0
-36475 -36469 0
37195 37118 0
-37195 -37118 0
36635 36814 0
-36635 -36814 0
36484 36472 0
-36484 -36472 0
36502 36836 0
-36502 -36836 0
-36982 35982 0
-36982 35818 0
36982 -35982 -35818 0
-36920 35937 0
-36920 36153 0
36920 -35937 -36153 0
-37130 35961 0
-37130 36992 0
37130 -35961 -36992 0
-36894 35937 0
-36894 36647 0
36894 -35937 -36647 0
-36979 35982 0
-36979 35830 0
36979 -35982 -35830 0
-36913 35937 0
-36913 36144 0
36913 -35937 -36144 0
-36964 35982 0
-36964 35836 0
36964 -35982 -35836 0
-36883 35934 0
-36883 36102 0
36883 -35934 -36102 0
-36921 35934 0
-36921 36646 0
36921 -35934 -36646 0
-36886 35937 0
-36886 36141 0
36886 -35937 -36141 0
-37142 35973 0
-37142 36992 0
37142 -35973 -36992 0
-36905 35934 0
-36905 36099 0
36905 -35934 -36099 0
-36961 35982 0
-36961 35854 0
36961 -35982 -35854 0
-36884 35949 0
-36884 36198 0
36884 -35949 -36198 0
-36915 35949 0
-36915 36192 0
36915 -35949 -36192 0
-36967 35982 0
-36967 35863 0
36967 -35982 -35863 0
-36882 35937 0
-36882 36150 0
36882 -35937 -36150 0
-37154 35970 0
-37154 36992 0
37154 -35970 -36992 0
-36925 35934 0
-36925 36087 0
36925 -35934 -36087 0
-36888 35949 0
-36888 36189 0
36888 -35949 -36189 0
-37136 35964 0
-37136 36992 0
37136 -35964 -36992 0
-36887 35934 0
-36887 36093 0
36887 -35934 -36093 0
-36906 35949 0
-36906 36195 0
36906 -35949 -36195 0
-36892 35949 0
-36892 36186 0
36892 -35949 -36186 0
-36976 35982 0
-36976 35890 0
36976 -35982 -35890 0
-37160 35976 0
-37160 36992 0
37160 -35976 -36992 0
-36896 35949 0
-36896 36180 0
36896 -35949 -36180 0
-36891 35934 0
-36891 36090 0
36891 -35934 -36090 0
-36932 35961 0
-36932 35956 0
36932 -35961 -35956 0
-36935 35964 0
-36935 35956 0
36935 -35964 -35956 0
-36941 35970 0
-36941 35956 0
36941 -35970 -35956 0
-36944 35973 0
-36944 35956 0
36944 -35973 -35956 0
-36947 35976 0
-36947 35956 0
36947 -35976 -35956 0
-36890 35937 0
-36890 36138 0
36890 -35937 -36138 0
-36895 35934 0
-36895 36084 0
36895 -35934 -36084 0
-36899 36664 0
-36899 36955 0
36899 -36664 -36955 0
-36989 35979 0
-36989 36992 0
36989 -35979 -36992 0
-36950 35979 0
-36950 35956 0
36950 -35979 -35956 0
-36904 35937 0
-36904 36147 0
36904 -35937 -36147 0
-36914 35934 0
-36914 36096 0
36914 -35934 -36096 0
-36924 35937 0
-36924 36135 0
36924 -35937 -36135 0
-37124 35958 0
-37124 36992 0
37124 -35958 -36992 0
-36929 35958 0
-36929 35956 0
36929 -35958 -35956 0
-36922 35949 0
-36922 36201 0
36922 -35949 -36201 0
-36926 35949 0
-36926 36183 0
36926 -35949 -36183 0
-37148 35967 0
-37148 36992 0
37148 -35967 -36992 0
-36938 35967 0
-36938 35956 0
36938 -35967 -35956 0
-36996 35958 0
-36996 36985 0
36996 -35958 -36985 0
-37000 35961 0
-37000 36985 0
37000 -35961 -36985 0
-37004 35964 0
-37004 36985 0
37004 -35964 -36985 0
-37008 35967 0
-37008 36985 0
37008 -35967 -36985 0
-37012 35970 0
-37012 36985 0
37012 -35970 -36985 0
-37016 35973 0
-37016 36985 0
37016 -35973 -36985 0
-37020 35976 0
-37020 36985 0
37020 -35976 -36985 0
-37120 35979 0
-37120 36985 0
37120 -35979 -36985 0
-36973 35982 0
-36973 35983 0
36973 -35982 -35983 0
-36928 36084 0
-36928 36007 0
36928 -36084 -36007 0
-36931 36087 0
-36931 36007 0
36931 -36087 -36007 0
-36934 36090 0
-36934 36007 0
36934 -36090 -36007 0
-36937 36093 0
-36937 36007 0
36937 -36093 -36007 0
-36940 36096 0
-36940 36007 0
36940 -36096 -36007 0
-36943 36099 0
-36943 36007 0
36943 -36099 -36007 0
-36946 36102 0
-36946 36007 0
36946 -36102 -36007 0
-36949 36646 0
-36949 36007 0
36949 -36646 -36007 0
-36959 36654 0
-36959 36678 0
36959 -36654 -36678 0
-36962 36033 0
-36962 37237 0
36962 -36033 -37237 0
-36965 36033 0
-36965 37227 0
36965 -36033 -37227 0
-36968 36033 0
-36968 37233 0
36968 -36033 -37233 0
-36971 36710 0
-36971 36708 0
36971 -36710 -36708 0
-36974 36033 0
-36974 37231 0
36974 -36033 -37231 0
-36977 36033 0
-36977 37229 0
36977 -36033 -37229 0
-36980 36033 0
-36980 37235 0
36980 -36033 -37235 0
-36983 36033 0
-36983 37223 0
36983 -36033 -37223 0
-36544 36180 0
-36544 36058 0
36544 -36180 -36058 0
-36547 36183 0
-36547 36058 0
36547 -36183 -36058 0
-36550 36186 0
-36550 36058 0
36550 -36186 -36058 0
-36553 36189 0
-36553 36058 0
36553 -36189 -36058 0
-36556 36192 0
-36556 36058 0
36556 -36192 -36058 0
-36559 36195 0
-36559 36058 0
36559 -36195 -36058 0
-36562 36198 0
-36562 36058 0
36562 -36198 -36058 0
-36565 36201 0
-36565 36058 0
36565 -36201 -36058 0
-36988 36719 0
-36988 36991 0
36988 -36719 -36991 0
-36995 36135 0
-36995 36991 0
36995 -36135 -36991 0
-36999 36138 0
-36999 36991 0
36999 -36138 -36991 0
-37003 36141 0
-37003 36991 0
37003 -36141 -36991 0
-37007 36144 0
-37007 36991 0
37007 -36144 -36991 0
-37011 36147 0
-37011 36991 0
37011 -36147 -36991 0
-37015 36150 0
-37015 36991 0
37015 -36150 -36991 0
-37019 36153 0
-37019 36991 0
37019 -36153 -36991 0
-36545 36084 0
-36545 36106 0
36545 -36084 -36106 0
-36548 36087 0
-36548 36106 0
36548 -36087 -36106 0
-36551 36090 0
-36551 36106 0
36551 -36090 -36106 0
-36554 36093 0
-36554 36106 0
36554 -36093 -36106 0
-36557 36096 0
-36557 36106 0
36557 -36096 -36106 0
-36560 36099 0
-36560 36106 0
36560 -36099 -36106 0
-36563 36102 0
-36563 36106 0
36563 -36102 -36106 0
-36566 36646 0
-36566 36106 0
36566 -36646 -36106 0
-37024 36108 0
-37024 36397 0
37024 -36108 -36397 0
-37027 36111 0
-37027 36397 0
37027 -36111 -36397 0
-37030 36114 0
-37030 36397 0
37030 -36114 -36397 0
-37033 36117 0
-37033 36397 0
37033 -36117 -36397 0
-37036 36120 0
-37036 36397 0
37036 -36120 -36397 0
-37039 36123 0
-37039 36397 0
37039 -36123 -36397 0
-37042 36126 0
-37042 36397 0
37042 -36126 -36397 0
-37045 36129 0
-37045 36397 0
37045 -36129 -36397 0
-36997 36647 0
-36997 36984 0
36997 -36647 -36984 0
-37001 36135 0
-37001 36984 0
37001 -36135 -36984 0
-37005 36138 0
-37005 36984 0
37005 -36138 -36984 0
-37009 36141 0
-37009 36984 0
37009 -36141 -36984 0
-37013 36144 0
-37013 36984 0
37013 -36144 -36984 0
-37017 36147 0
-37017 36984 0
37017 -36147 -36984 0
-37021 36150 0
-37021 36984 0
37021 -36150 -36984 0
-37121 36153 0
-37121 36984 0
37121 -36153 -36984 0
-37023 36543 0
-37023 36370 0
37023 -36543 -36370 0
-37026 36546 0
-37026 36370 0
37026 -36546 -36370 0
-37029 36549 0
-37029 36370 0
37029 -36549 -36370 0
-37032 36552 0
-37032 36370 0
37032 -36552 -36370 0
-37035 36555 0
-37035 36370 0
37035 -36555 -36370 0
-37038 36558 0
-37038 36370 0
37038 -36558 -36370 0
-37041 36561 0
-37041 36370 0
37041 -36561 -36370 0
-37044 36564 0
-37044 36370 0
37044 -36564 -36370 0
-37116 36180 0
-37116 36990 0
37116 -36180 -36990 0
-37126 36183 0
-37126 36990 0
37126 -36183 -36990 0
-37132 36186 0
-37132 36990 0
37132 -36186 -36990 0
-37138 36189 0
-37138 36990 0
37138 -36189 -36990 0
-37150 36192 0
-37150 36990 0
37150 -36192 -36990 0
-37156 36195 0
-37156 36990 0
37156 -36195 -36990 0
-37144 36198 0
-37144 36990 0
37144 -36198 -36990 0
-37162 36201 0
-37162 36990 0
37162 -36201 -36990 0
-36569 36204 0
-36569 36274 0
36569 -36204 -36274 0
-36572 36207 0
-36572 36274 0
36572 -36207 -36274 0
-36575 36210 0
-36575 36274 0
36575 -36210 -36274 0
-36578 36213 0
-36578 36274 0
36578 -36213 -36274 0
-36581 36216 0
-36581 36274 0
36581 -36216 -36274 0
-36584 36219 0
-36584 36274 0
36584 -36219 -36274 0
-36587 36222 0
-36587 36274 0
36587 -36222 -36274 0
-36590 36225 0
-36590 36274 0
36590 -36225 -36274 0
-36568 36545 0
-36568 36229 0
36568 -36545 -36229 0
-36571 36548 0
-36571 36232 0
36571 -36548 -36232 0
-36574 36551 0
-36574 36235 0
36574 -36551 -36235 0
-36577 36554 0
-36577 36238 0
36577 -36554 -36238 0
-36580 36557 0
-36580 36241 0
36580 -36557 -36241 0
-36583 36560 0
-36583 36244 0
36583 -36560 -36244 0
-36586 36563 0
-36586 36247 0
36586 -36563 -36247 0
-36589 36566 0
-36589 36250 0
36589 -36566 -36250 0
-37081 37022 0
-37081 36274 0
37081 -37022 -36274 0
-37084 37025 0
-37084 36274 0
37084 -37025 -36274 0
-37087 37028 0
-37087 36274 0
37087 -37028 -36274 0
-37090 37031 0
-37090 36274 0
37090 -37031 -36274 0
-37093 37034 0
-37093 36274 0
37093 -37034 -36274 0
-37096 37037 0
-37096 36274 0
37096 -37037 -36274 0
-37099 37040 0
-37099 36274 0
37099 -37040 -36274 0
-37102 37043 0
-37102 36274 0
37102 -37043 -36274 0
-36592 36567 0
-36592 36277 0
36592 -36567 -36277 0
-36327 36567 0
-36327 36544 0
36327 -36567 -36544 0
-36595 36570 0
-36595 36283 0
36595 -36570 -36283 0
-37077 36570 0
-37077 36547 0
37077 -36570 -36547 0
-36598 36573 0
-36598 36289 0
36598 -36573 -36289 0
-36339 36573 0
-36339 36550 0
36339 -36573 -36550 0
-36601 36576 0
-36601 36295 0
36601 -36576 -36295 0
-37107 36576 0
-37107 36553 0
37107 -36576 -36553 0
-36604 36579 0
-36604 36301 0
36604 -36579 -36301 0
-37113 36579 0
-37113 36556 0
37113 -36579 -36556 0
-36607 36582 0
-36607 36307 0
36607 -36582 -36307 0
-36357 36582 0
-36357 36559 0
36357 -36582 -36559 0
-36610 36585 0
-36610 36313 0
36610 -36585 -36313 0
-36363 36585 0
-36363 36562 0
36363 -36585 -36562 0
-36613 36588 0
-36613 36319 0
36613 -36588 -36319 0
-36369 36588 0
-36369 36565 0
36369 -36588 -36565 0
-36593 36324 0
-36593 36544 0
36593 -36324 -36544 0
-37047 36327 0
-37047 36370 0
37047 -36327 -36370 0
-36596 36330 0
-36596 36547 0
36596 -36330 -36547 0
-37050 37077 0
-37050 36370 0
37050 -37077 -36370 0
-36599 36336 0
-36599 36550 0
36599 -36336 -36550 0
-37053 36339 0
-37053 36370 0
37053 -36339 -36370 0
-36602 36342 0
-36602 36553 0
36602 -36342 -36553 0
-37059 37107 0
-37059 36370 0
37059 -37107 -36370 0
-36605 36348 0
-36605 36556 0
36605 -36348 -36556 0
-37062 37113 0
-37062 36370 0
37062 -37113 -36370 0
-36608 36354 0
-36608 36559 0
36608 -36354 -36559 0
-37065 36357 0
-37065 36370 0
37065 -36357 -36370 0
-36611 36360 0
-36611 36562 0
36611 -36360 -36562 0
-37068 36363 0
-37068 36370 0
37068 -36363 -36370 0
-36614 36366 0
-36614 36565 0
36614 -36366 -36565 0
-37071 36369 0
-37071 36370 0
37071 -36369 -36370 0
-36616 36725 0
-36616 36373 0
36616 -36725 -36373 0
-37048 36725 0
-37048 36397 0
37048 -36725 -36397 0
-37051 36594 0
-37051 36397 0
37051 -36594 -36397 0
-37054 36764 0
-37054 36397 0
37054 -36764 -36397 0
-37060 36735 0
-37060 36397 0
37060 -36735 -36397 0
-37063 36742 0
-37063 36397 0
37063 -36742 -36397 0
-37066 36775 0
-37066 36397 0
37066 -36775 -36397 0
-37069 36609 0
-37069 36397 0
37069 -36609 -36397 0
-37072 36612 0
-37072 36397 0
37072 -36612 -36397 0
-37075 36740 0
-37075 36739 0
37075 -36740 -36739 0
-36617 36402 0
-36617 36726 0
36617 -36402 -36726 0
-36623 36405 0
-36623 36738 0
36623 -36405 -36738 0
-37080 37046 0
-37080 36430 0
37080 -37046 -36430 0
-37083 37049 0
-37083 36430 0
37083 -37049 -36430 0
-37086 37052 0
-37086 36430 0
37086 -37052 -36430 0
-37089 37058 0
-37089 36430 0
37089 -37058 -36430 0
-37092 37061 0
-37092 36430 0
37092 -37061 -36430 0
-37095 37064 0
-37095 36430 0
37095 -37064 -36430 0
-37098 37067 0
-37098 36430 0
37098 -37067 -36430 0
-37101 37070 0
-37101 36430 0
37101 -37070 -36430 0
-36622 36594 0
-36622 36433 0
36622 -36594 -36433 0
-36626 36435 0
-36626 36436 0
36626 -36435 -36436 0
-36625 36764 0
-36625 36439 0
36625 -36764 -36439 0
-36629 36441 0
-36629 36795 0
36629 -36441 -36795 0
-37111 36742 0
-37111 37108 0
37111 -36742 -37108 0
-37117 36798 0
-37117 37225 0
37117 -36798 -37225 0
-37119 36798 0
-37119 36991 0
37119 -36798 -36991 0
-37123 36806 0
-37123 36991 0
37123 -36806 -36991 0
-37127 36806 0
-37127 37225 0
37127 -36806 -37225 0
-36632 36459 0
-36632 36809 0
36632 -36459 -36809 0
-36628 36735 0
-36628 36463 0
36628 -36735 -36463 0
-36631 36609 0
-36631 36466 0
36631 -36609 -36466 0
-36638 36468 0
-36638 36469 0
36638 -36468 -36469 0
-36641 36471 0
-36641 36472 0
36641 -36471 -36472 0
-36637 36742 0
-36637 36475 0
36637 -36742 -36475 0
-37129 36824 0
-37129 36991 0
37129 -36824 -36991 0
-37133 36824 0
-37133 37225 0
37133 -36824 -37225 0
-36640 36775 0
-36640 36484 0
36640 -36775 -36484 0
-37135 36833 0
-37135 36991 0
37135 -36833 -36991 0
-37139 36833 0
-37139 37225 0
37139 -36833 -37225 0
-36644 36492 0
-36644 36836 0
36644 -36492 -36836 0
-37141 36839 0
-37141 36991 0
37141 -36839 -36991 0
-37145 36839 0
-37145 37225 0
37145 -36839 -37225 0
-36643 36612 0
-36643 36502 0
36643 -36612 -36502 0
-37147 36851 0
-37147 36991 0
37147 -36851 -36991 0
-37151 36851 0
-37151 37225 0
37151 -36851 -37225 0
-37153 36857 0
-37153 36991 0
37153 -36857 -36991 0
-37157 36857 0
-37157 37225 0
37157 -36857 -37225 0
-37159 36866 0
-37159 36991 0
37159 -36866 -36991 0
-37163 36866 0
-37163 37225 0
37163 -36866 -37225 0
36673 -36646 0
36673 -36647 0
-36673 36646 36647 0
36677 -36664 0
36677 -36702 0
-36677 36664 36702 0
36713 -36682 0
36713 -36918 0
-36713 36682 36918 0
36684 -36671 0
36684 -36532 0
-36684 36671 36532 0
36693 -36901 0
36693 -36654 0
-36693 36901 36654 0
36696 -36951 0
36696 -36956 0
-36696 36951 36956 0
36712 -36704 0
36712 -36709 0
36712 -36668 0
-36712 36704 36709 36668 0
36543 -36544 0
36543 -36545 0
-36543 36544 36545 0
36546 -36547 0
36546 -36548 0
-36546 36547 36548 0
36549 -36550 0
36549 -36551 0
-36549 36550 36551 0
36552 -36553 0
36552 -36554 0
-36552 36553 36554 0
36555 -36556 0
36555 -36557 0
-36555 36556 36557 0
36558 -36559 0
36558 -36560 0
-36558 36559 36560 0
36561 -36562 0
36561 -36563 0
-36561 36562 36563 0
36564 -36565 0
36564 -36566 0
-36564 36565 36566 0
36567 -36568 0
36567 -36569 0
-36567 36568 36569 0
36570 -36571 0
36570 -36572 0
-36570 36571 36572 0
36573 -36574 0
36573 -36575 0
-36573 36574 36575 0
36576 -36577 0
36576 -36578 0
-36576 36577 36578 0
36579 -36580 0
36579 -36581 0
-36579 36580 36581 0
36582 -36583 0
36582 -36584 0
-36582 36583 36584 0
36585 -36586 0
36585 -36587 0
-36585 36586 36587 0
36588 -36589 0
36588 -36590 0
-36588 36589 36590 0
36725 -36592 0
36725 -36593 0
-36725 36592 36593 0
36594 -36595 0
36594 -36596 0
-36594 36595 36596 0
36764 -36598 0
36764 -36599 0
-36764 36598 36599 0
36735 -36601 0
36735 -36602 0
-36735 36601 36602 0
36742 -36604 0
36742 -36605 0
-36742 36604 36605 0
36775 -36607 0
36775 -36608 0
-36775 36607 36608 0
36609 -36610 0
36609 -36611 0
-36609 36610 36611 0
36612 -36613 0
36612 -36614 0
-36612 36613 36614 0
36754 -36616 0
36754 -36617 0
-36754 36616 36617 0
36763 -37077 0
36763 -37078 0
-36763 37077 37078 0
36793 -36622 0
36793 -36623 0
-36793 36622 36623 0
36819 -36625 0
36819 -36626 0
-36819 36625 36626 0
36828 -36628 0
36828 -36629 0
-36828 36628 36629 0
36831 -36631 0
36831 -36632 0
-36831 36631 36632 0
36837 -36634 0
36837 -36635 0
-36837 36634 36635 0
36843 -36637 0
36843 -36638 0
-36843 36637 36638 0
36849 -36640 0
36849 -36641 0
-36849 36640 36641 0
36861 -36643 0
36861 -36644 0
-36861 36643 36644 0
36675 36646 0
36675 36647 0
-36675 -36646 -36647 0
36648 36909 0
36648 36650 0
-36648 -36909 -36650 0
36902 36909 0
36902 36955 0
-36902 -36909 -36955 0
36654 36898 0
36654 36955 0
-36654 -36898 -36955 0
36953 36658 0
36953 36682 0
-36953 -36658 -36682 0
36956 36898 0
36956 36901 0
-36956 -36898 -36901 0
36678 36664 0
36678 36702 0
-36678 -36664 -36702 0
37237 36908 0
37237 36668 0
-37237 -36908 -36668 0
36720 36902 0
36720 36671 0
-36720 -36902 -36671 0
36723 36673 0
36723 36900 0
36723 36675 0
-36723 -36673 -36900 -36675 0
37215 36677 0
37215 36678 0
-37215 -36677 -36678 0
37227 36901 0
37227 36907 0
37227 36682 0
-37227 -36901 -36907 -36682 0
36721 36684 0
36721 36901 0
-36721 -36684 -36901 0
36710 36952 0
36710 36954 0
-36710 -36952 -36954 0
36708 36953 0
36708 36954 0
-36708 -36953 -36954 0
37213 36693 0
37213 36694 0
-37213 -36693 -36694 0
36695 36696 0
36695 36702 0
-36695 -36696 -36702 0
37231 36699 0
37231 36901 0
37231 36898 0
37231 36702 0
-37231 -36699 -36901 -36898 -36702 0
37221 36704 0
37221 36710 0
37221 36708 0
-37221 -36704 -36710 -36708 0
37229 36708 0
37229 36709 0
37229 36710 0
-37229 -36708 -36709 -36710 0
37235 36712 0
37235 36713 0
-37235 -36712 -36713 0
37219 36720 0
37219 36722 0
37219 36721 0
37219 36723 0
-37219 -36720 -36722 -36721 -36723 0
36719 36720 0
36719 36721 0
36719 36722 0
36719 36723 0
-36719 -36720 -36721 -36722 -36723 0
36739 36725 0
36739 36726 0
-36739 -36725 -36726 0
36727 37107 0
36727 36742 0
-36727 -37107 -36742 0
36815 37113 0
36815 36775 0
-36815 -37113 -36775 0
36733 36775 0
36733 36735 0
36733 36742 0
36733 36764 0
-36733 -36775 -36735 -36742 -36764 0
36738 36739 0
36738 36740 0
-36738 -36739 -36740 0
36741 36742 0
36741 37109 0
-36741 -36742 -37109 0
36805 36775 0
36805 37114 0
-36805 -36775 -37114 0
36804 37077 0
36804 36752 0
-36804 -37077 -36752 0
36817 37078 0
36817 36752 0
-36817 -37078 -36752 0
36799 36754 0
36799 36862 0
-36799 -36754 -36862 0
36756 36815 0
36756 36804 0
-36756 -36815 -36804 0
36759 36805 0
36759 36817 0
-36759 -36805 -36817 0
37105 36763 0
37105 36764 0
-37105 -36763 -36764 0
36800 37079 0
36800 36791 0
-36800 -37079 -36791 0
36808 37082 0
36808 36791 0
-36808 -37082 -36791 0
36826 37085 0
36826 36791 0
-36826 -37085 -36791 0
36811 36775 0
36811 37112 0
-36811 -36775 -37112 0
36835 37088 0
36835 36791 0
-36835 -37088 -36791 0
36853 37091 0
36853 36791 0
-36853 -37091 -36791 0
36859 37094 0
36859 36791 0
-36859 -37094 -36791 0
36841 37097 0
36841 36791 0
-36841 -37097 -36791 0
36868 37100 0
36868 36791 0
-36868 -37100 -36791 0
36807 36793 0
36807 36862 0
-36807 -36793 -36862 0
36795 37056 0
36795 37105 0
-36795 -37056 -37105 0
36798 36799 0
36798 36800 0
-36798 -36799 -36800 0
36801 36810 0
36801 36811 0
36801 36804 0
36801 36805 0
-36801 -36810 -36811 -36804 -36805 0
36806 36807 0
36806 36808 0
-36806 -36807 -36808 0
36809 36810 0
36809 36811 0
36809 36812 0
36809 36813 0
-36809 -36810 -36811 -36812 -36813 0
36814 36815 0
36814 36816 0
36814 36817 0
-36814 -36815 -36816 -36817 0
36825 36819 0
36825 36862 0
-36825 -36819 -36862 0
37165 37122 0
37165 37115 0
-37165 -37122 -37115 0
36824 36825 0
36824 36826 0
-36824 -36825 -36826 0
36834 36828 0
36834 36862 0
-36834 -36828 -36862 0
36840 36831 0
36840 36862 0
-36840 -36831 -36862 0
36833 36834 0
36833 36835 0
-36833 -36834 -36835 0
36836 36837 0
36836 36838 0
-36836 -36837 -36838 0
36839 36840 0
36839 36841 0
-36839 -36840 -36841 0
36852 36843 0
36852 36862 0
-36852 -36843 -36862 0
37167 37128 0
37167 37125 0
-37167 -37128 -37125 0
36858 36849 0
36858 36862 0
-36858 -36849 -36862 0
36851 36852 0
36851 36853 0
-36851 -36852 -36853 0
37169 37134 0
37169 37131 0
-37169 -37134 -37131 0
36857 36858 0
36857 36859 0
-36857 -36858 -36859 0
36867 36861 0
36867 36862 0
-36867 -36861 -36862 0
37171 37146 0
37171 37137 0
-37171 -37146 -37137 0
36866 36867 0
36866 36868 0
-36866 -36867 -36868 0
37173 37152 0
37173 37149 0
-37173 -37152 -37149 0
37175 37140 0
37175 37155 0
-37175 -37140 -37155 0
37177 37158 0
37177 37143 0
-37177 -37158 -37143 0
37179 36987 0
37179 37161 0
-37179 -36987 -37161 0
-36881 -36882 0
-36881 -36883 0
-36881 -36884 0
36881 36882 36883 36884 0
-36885 -36886 0
-36885 -36887 0
-36885 -36888 0
36885 36886 36887 36888 0
-36889 -36890 0
-36889 -36891 0
-36889 -36892 0
36889 36890 36891 36892 0
-36893 -36894 0
-36893 -36895 0
-36893 -36896 0
36893 36894 36895 36896 0
-36897 -36898 0
-36897 -36899 0
36897 36898 36899 0
-36900 -36901 0
-36900 -36902 0
36900 36901 36902 0
-36903 -36904 0
-36903 -36905 0
-36903 -36906 0
36903 36904 36905 36906 0
-36907 -36908 0
-36907 -36909 0
-36907 -36952 0
-36907 -36955 0
36907 36908 36909 36952 36955 0
-36912 -36913 0
-36912 -36914 0
-36912 -36915 0
36912 36913 36914 36915 0
-36916 -36952 0
-36916 -36918 0
36916 36952 36918 0
-36919 -36920 0
-36919 -36921 0
-36919 -36922 0
36919 36920 36921 36922 0
-36923 -36924 0
-36923 -36925 0
-36923 -36926 0
36923 36924 36925 36926 0
-36927 -36928 0
-36927 -36929 0
36927 36928 36929 0
-36930 -36931 0
-36930 -36932 0
36930 36931 36932 0
-36933 -36934 0
-36933 -36935 0
36933 36934 36935 0
-36936 -36937 0
-36936 -36938 0
36936 36937 36938 0
-36939 -36940 0
-36939 -36941 0
36939 36940 36941 0
-36942 -36943 0
-36942 -36944 0
36942 36943 36944 0
-36945 -36946 0
-36945 -36947 0
36945 36946 36947 0
-36948 -36949 0
-36948 -36950 0
36948 36949 36950 0
-36951 -36952 0
-36951 -36953 0
36951 36952 36953 0
-36954 -36955 0
-36954 -36956 0
36954 36955 36956 0
-36957 -36958 0
-36957 -36959 0
36957 36958 36959 0
-36960 -36961 0
-36960 -36962 0
36960 36961 36962 0
-36963 -36964 0
-36963 -36965 0
36963 36964 36965 0
-36966 -36967 0
-36966 -36968 0
36966 36967 36968 0
-37223 -36992 0
-37223 -36971 0
37223 36992 36971 0
-36972 -36973 0
-36972 -36974 0
36972 36973 36974 0
-36975 -36976 0
-36975 -36977 0
36975 36976 36977 0
-36978 -36979 0
-36978 -36980 0
36978 36979 36980 0
-36981 -36982 0
-36981 -36983 0
36981 36982 36983 0
-36984 -36985 0
-36984 -36991 0
36984 36985 36991 0
-36987 -36988 0
-36987 -36989 0
36987 36988 36989 0
-36990 -36991 0
-36990 -36992 0
-36990 -37225 0
36990 36991 36992 37225 0
-36994 -36995 0
-36994 -36996 0
-36994 -36997 0
36994 36995 36996 36997 0
-36998 -36999 0
-36998 -37000 0
-36998 -37001 0
36998 36999 37000 37001 0
-37002 -37003 0
-37002 -37004 0
-37002 -37005 0
37002 37003 37004 37005 0
-37006 -37007 0
-37006 -37008 0
-37006 -37009 0
37006 37007 37008 37009 0
-37010 -37011 0
-37010 -37012 0
-37010 -37013 0
37010 37011 37012 37013 0
-37014 -37015 0
-37014 -37016 0
-37014 -37017 0
37014 37015 37016 37017 0
-37018 -37019 0
-37018 -37020 0
-37018 -37021 0
37018 37019 37020 37021 0
-37022 -37023 0
-37022 -37024 0
37022 37023 37024 0
-37025 -37026 0
-37025 -37027 0
37025 37026 37027 0
-37028 -37029 0
-37028 -37030 0
37028 37029 37030 0
-37031 -37032 0
-37031 -37033 0
37031 37032 37033 0
-37034 -37035 0
-37034 -37036 0
37034 37035 37036 0
-37037 -37038 0
-37037 -37039 0
37037 37038 37039 0
-37040 -37041 0
-37040 -37042 0
37040 37041 37042 0
-37043 -37044 0
-37043 -37045 0
37043 37044 37045 0
-37046 -37047 0
-37046 -37048 0
37046 37047 37048 0
-37049 -37050 0
-37049 -37051 0
37049 37050 37051 0
-37052 -37053 0
-37052 -37054 0
37052 37053 37054 0
-37109 -37056 0
-37109 -37104 0
37109 37056 37104 0
-37058 -37059 0
-37058 -37060 0
37058 37059 37060 0
-37061 -37062 0
-37061 -37063 0
37061 37062 37063 0
-37064 -37065 0
-37064 -37066 0
37064 37065 37066 0
-37067 -37068 0
-37067 -37069 0
37067 37068 37069 0
-37070 -37071 0
-37070 -37072 0
37070 37071 37072 0
-37078 -37074 0
-37078 -37075 0
37078 37074 37075 0
-37076 -37077 0
-37076 -37078 0
37076 37077 37078 0
-37079 -37080 0
-37079 -37081 0
37079 37080 37081 0
-37082 -37083 0
-37082 -37084 0
37082 37083 37084 0
-37085 -37086 0
-37085 -37087 0
37085 37086 37087 0
-37088 -37089 0
-37088 -37090 0
37088 37089 37090 0
-37091 -37092 0
-37091 -37093 0
37091 37092 37093 0
-37094 -37095 0
-37094 -37096 0
37094 37095 37096 0
-37097 -37098 0
-37097 -37099 0
37097 37098 37099 0
-37100 -37101 0
-37100 -37102 0
37100 37101 37102 0
-37108 -37104 0
-37108 -37105 0
37108 37104 37105 0
-37106 -37107 0
-37106 -37108 0
-37106 -37109 0
37106 37107 37108 37109 0
-37110 -37111 0
-37110 -37112 0
-37110 -37113 0
-37110 -37114 0
37110 37111 37112 37113 37114 0
-37115 -37116 0
-37115 -37117 0
37115 37116 37117 0
-37118 -37119 0
-37118 -37120 0
-37118 -37121 0
37118 37119 37120 37121 0
-37122 -37123 0
-37122 -37124 0
37122 37123 37124 0
-37125 -37126 0
-37125 -37127 0
37125 37126 37127 0
-37128 -37129 0
-37128 -37130 0
37128 37129 37130 0
-37131 -37132 0
-37131 -37133 0
37131 37132 37133 0
-37134 -37135 0
-37134 -37136 0
37134 37135 37136 0
-37137 -37138 0
-37137 -37139 0
37137 37138 37139 0
-37140 -37141 0
-37140 -37142 0
37140 37141 37142 0
-37143 -37144 0
-37143 -37145 0
37143 37144 37145 0
-37146 -37147 0
-37146 -37148 0
37146 37147 37148 0
-37149 -37150 0
-37149 -37151 0
37149 37150 37151 0
-37152 -37153 0
-37152 -37154 0
37152 37153 37154 0
-37155 -37156 0
-37155 -37157 0
37155 37156 37157 0
-37158 -37159 0
-37158 -37160 0
37158 37159 37160 0
-37161 -37162 0
-37161 -37163 0
37161 37162 37163 0
-37165 37850 0
37165 -37850 0
-37167 37853 0
37167 -37853 0
-37169 37856 0
37169 -37856 0
-37171 37859 0
37171 -37859 0
-37173 37862 0
37173 -37862 0
-37175 37865 0
37175 -37865 0
-37177 37868 0
37177 -37868 0
-37179 37871 0
37179 -37871 0
-37181 38317 0
37181 -38317 0
-37183 37805 0
37183 -37805 0
-37185 37808 0
37185 -37808 0
-37187 37811 0
37187 -37811 0
-37189 37814 0
37189 -37814 0
-37191 37817 0
37191 -37817 0
-37193 37820 0
37193 -37820 0
-37195 37823 0
37195 -37823 0
-37197 37754 0
37197 -37754 0
-37199 37757 0
37199 -37757 0
-37201 37760 0
37201 -37760 0
-37203 37763 0
37203 -37763 0
-37205 37766 0
37205 -37766 0
-37207 37769 0
37207 -37769 0
-37209 37772 0
37209 -37772 0
-37211 38316 0
37211 -38316 0
-37213 38579 0
37213 -38579 0
-37215 38334 0
37215 -38334 0
-37217 38625 0
37217 -38625 0
-37219 38320 0
37219 -38320 0
-37221 38338 0
37221 -38338 0
-37223 37488 0
37223 -37488 0
-37225 37224 0
37225 -37224 0
-37227 37506 0
37227 -37506 0
-37229 37560 0
37229 -37560 0
-37231 37653 0
37231 -37653 0
-37233 37533 0
37233 -37533 0
-37235 37500 0
37235 -37500 0
-37237 37524 0
37237 -37524 0
37703 37652 0
-37703 -37652 0
38379 38317 0
-38379 -38317 0
38628 38320 0
-38628 -38320 0
38568 38579 0
-38568 -38579 0
37677 37626 0
-37677 -37626 0
38352 37249 0
-38352 -37249 0
38571 38334 0
-38571 -38334 0
38372 38625 0
-38372 -38625 0
38578 38328 0
-38578 -38328 0
38588 38338 0
-38588 -38338 0
38341 38345 0
-38341 -38345 0
38202 38318 0
-38202 -38318 0
38364 38567 0
-38364 -38567 0
38374 38570 0
-38374 -38570 0
38903 38586 0
-38903 -38586 0
38867 38597 0
-38867 -38597 0
38869 38600 0
-38869 -38600 0
38871 38603 0
-38871 -38603 0
38873 38606 0
-38873 -38606 0
38875 38609 0
-38875 -38609 0
38877 38612 0
-38877 -38612 0
38879 38615 0
-38879 -38615 0
38881 38618 0
-38881 -38618 0
38369 38621 0
-38369 -38621 0
38392 38627 0
-38392 -38627 0
37295 38630 0
-37295 -38630 0
38887 38365 0
-38887 -38365 0
38461 37295 0
-38461 -37295 0
37301 37295 0
-37301 -37295 0
37728 38633 0
-37728 -38633 0
37305 38636 0
-37305 -38636 0
38532 37301 0
-38532 -37301 0
38040 37305 0
-38040 -37305 0
37347 37305 0
-37347 -37305 0
38661 38642 0
-38661 -38642 0
37776 38645 0
-37776 -38645 0
38396 38648 0
-38396 -38648 0
37355 38648 0
-37355 -38648 0
37947 38214 0
-37947 -38214 0
37778 38214 0
-37778 -38214 0
37953 38217 0
-37953 -38217 0
37781 38217 0
-37781 -38217 0
37959 38220 0
-37959 -38220 0
37784 38220 0
-37784 -38220 0
37965 38223 0
-37965 -38223 0
37787 38223 0
-37787 -38223 0
37971 38226 0
-37971 -38226 0
37790 38226 0
-37790 -38226 0
37977 38229 0
-37977 -38229 0
37793 38229 0
-37793 -38229 0
37983 38232 0
-37983 -38232 0
37796 38232 0
-37796 -38232 0
37989 38235 0
-37989 -38235 0
37799 38235 0
-37799 -38235 0
38067 37347 0
-38067 -37347 0
38895 38651 0
-38895 -38651 0
38043 38396 0
-38043 -38396 0
38100 37355 0
-38100 -37355 0
37373 37355 0
-37373 -37355 0
37874 38215 0
-37874 -38215 0
37877 38218 0
-37877 -38218 0
37880 38221 0
-37880 -38221 0
37883 38224 0
-37883 -38224 0
37886 38227 0
-37886 -38227 0
37889 38230 0
-37889 -38230 0
37892 38233 0
-37892 -38233 0
37895 38236 0
-37895 -38236 0
37944 37373 0
-37944 -37373 0
37899 37944 0
-37899 -37944 0
37902 37944 0
-37902 -37944 0
37905 37944 0
-37905 -37944 0
37908 37944 0
-37908 -37944 0
37911 37944 0
-37911 -37944 0
37914 37944 0
-37914 -37944 0
37917 37944 0
-37917 -37944 0
37920 37944 0
-37920 -37944 0
38851 38664 0
-38851 -38664 0
38853 38668 0
-38853 -38668 0
38855 38672 0
-38855 -38672 0
38857 38676 0
-38857 -38676 0
38859 38680 0
-38859 -38680 0
38861 38684 0
-38861 -38684 0
38863 38688 0
-38863 -38688 0
37994 38237 0
-37994 -38237 0
38000 38240 0
-38000 -38240 0
38006 38243 0
-38006 -38243 0
38012 38246 0
-38012 -38246 0
38018 38249 0
-38018 -38249 0
38024 38252 0
-38024 -38252 0
38030 38255 0
-38030 -38255 0
38036 38258 0
-38036 -38258 0
38410 37997 0
-38410 -37997 0
38726 38009 0
-38726 -38009 0
38480 38027 0
-38480 -38027 0
38508 38033 0
-38508 -38033 0
38072 38395 0
-38072 -38395 0
38744 38264 0
-38744 -38264 0
38075 38264 0
-38075 -38264 0
38105 38434 0
-38105 -38434 0
38774 38405 0
-38774 -38405 0
38111 38405 0
-38111 -38405 0
38138 38412 0
-38138 -38412 0
38141 38445 0
-38141 -38445 0
38304 38279 0
-38304 -38279 0
38129 38279 0
-38129 -38279 0
38162 38282 0
-38162 -38282 0
38784 38397 0
-38784 -38397 0
38422 38403 0
-38422 -38403 0
38103 38408 0
-38103 -38408 0
38782 38411 0
-38782 -38411 0
38106 38746 0
-38106 -38746 0
38482 38426 0
-38482 -38426 0
38109 38106 0
-38109 -38106 0
38483 38429 0
-38483 -38429 0
38133 38465 0
-38133 -38465 0
38486 38471 0
-38486 -38471 0
38136 38479 0
-38136 -38479 0
38139 38776 0
-38139 -38776 0
38142 38780 0
-38142 -38780 0
38145 38139 0
-38145 -38139 0
38865 38788 0
-38865 -38788 0
38305 38484 0
-38305 -38484 0
38154 38142 0
-38154 -38142 0
38172 38506 0
-38172 -38506 0
-38652 37652 0
-38652 37488 0
38652 -37652 -37488 0
-38590 37607 0
-38590 37823 0
38590 -37607 -37823 0
-38800 37631 0
-38800 38662 0
38800 -37631 -38662 0
-38564 37607 0
-38564 38317 0
38564 -37607 -38317 0
-38649 37652 0
-38649 37500 0
38649 -37652 -37500 0
-38583 37607 0
-38583 37814 0
38583 -37607 -37814 0
-38634 37652 0
-38634 37506 0
38634 -37652 -37506 0
-38553 37604 0
-38553 37772 0
38553 -37604 -37772 0
-38591 37604 0
-38591 38316 0
38591 -37604 -38316 0
-38556 37607 0
-38556 37811 0
38556 -37607 -37811 0
-38812 37643 0
-38812 38662 0
38812 -37643 -38662 0
-38575 37604 0
-38575 37769 0
38575 -37604 -37769 0
-38631 37652 0
-38631 37524 0
38631 -37652 -37524 0
-38554 37619 0
-38554 37868 0
38554 -37619 -37868 0
-38585 37619 0
-38585 37862 0
38585 -37619 -37862 0
-38637 37652 0
-38637 37533 0
38637 -37652 -37533 0
-38552 37607 0
-38552 37820 0
38552 -37607 -37820 0
-38824 37640 0
-38824 38662 0
38824 -37640 -38662 0
-38595 37604 0
-38595 37757 0
38595 -37604 -37757 0
-38558 37619 0
-38558 37859 0
38558 -37619 -37859 0
-38806 37634 0
-38806 38662 0
38806 -37634 -38662 0
-38557 37604 0
-38557 37763 0
38557 -37604 -37763 0
-38576 37619 0
-38576 37865 0
38576 -37619 -37865 0
-38562 37619 0
-38562 37856 0
38562 -37619 -37856 0
-38646 37652 0
-38646 37560 0
38646 -37652 -37560 0
-38830 37646 0
-38830 38662 0
38830 -37646 -38662 0
-38566 37619 0
-38566 37850 0
38566 -37619 -37850 0
-38561 37604 0
-38561 37760 0
38561 -37604 -37760 0
-38602 37631 0
-38602 37626 0
38602 -37631 -37626 0
-38605 37634 0
-38605 37626 0
38605 -37634 -37626 0
-38611 37640 0
-38611 37626 0
38611 -37640 -37626 0
-38614 37643 0
-38614 37626 0
38614 -37643 -37626 0
-38617 37646 0
-38617 37626 0
38617 -37646 -37626 0
-38560 37607 0
-38560 37808 0
38560 -37607 -37808 0
-38565 37604 0
-38565 37754 0
38565 -37604 -37754 0
-38569 38334 0
-38569 38625 0
38569 -38334 -38625 0
-38659 37649 0
-38659 38662 0
38659 -37649 -38662 0
-38620 37649 0
-38620 37626 0
38620 -37649 -37626 0
-38574 37607 0
-38574 37817 0
38574 -37607 -37817 0
-38584 37604 0
-38584 37766 0
38584 -37604 -37766 0
-38594 37607 0
-38594 37805 0
38594 -37607 -37805 0
-38794 37628 0
-38794 38662 0
38794 -37628 -38662 0
-38599 37628 0
-38599 37626 0
38599 -37628 -37626 0
-38592 37619 0
-38592 37871 0
38592 -37619 -37871 0
-38596 37619 0
-38596 37853 0
38596 -37619 -37853 0
-38818 37637 0
-38818 38662 0
38818 -37637 -38662 0
-38608 37637 0
-38608 37626 0
38608 -37637 -37626 0
-38666 37628 0
-38666 38655 0
38666 -37628 -38655 0
-38670 37631 0
-38670 38655 0
38670 -37631 -38655 0
-38674 37634 0
-38674 38655 0
38674 -37634 -38655 0
-38678 37637 0
-38678 38655 0
38678 -37637 -38655 0
-38682 37640 0
-38682 38655 0
38682 -37640 -38655 0
-38686 37643 0
-38686 38655 0
38686 -37643 -38655 0
-38690 37646 0
-38690 38655 0
38690 -37646 -38655 0
-38790 37649 0
-38790 38655 0
38790 -37649 -38655 0
-38643 37652 0
-38643 37653 0
38643 -37652 -37653 0
-38598 37754 0
-38598 37677 0
38598 -37754 -37677 0
-38601 37757 0
-38601 37677 0
38601 -37757 -37677 0
-38604 37760 0
-38604 37677 0
38604 -37760 -37677 0
-38607 37763 0
-38607 37677 0
38607 -37763 -37677 0
-38610 37766 0
-38610 37677 0
38610 -37766 -37677 0
-38613 37769 0
-38613 37677 0
38613 -37769 -37677 0
-38616 37772 0
-38616 37677 0
38616 -37772 -37677 0
-38619 38316 0
-38619 37677 0
38619 -38316 -37677 0
-38629 38324 0
-38629 38348 0
38629 -38324 -38348 0
-38632 37703 0
-38632 38907 0
38632 -37703 -38907 0
-38635 37703 0
-38635 38897 0
38635 -37703 -38897 0
-38638 37703 0
-38638 38903 0
38638 -37703 -38903 0
-38641 38380 0
-38641 38378 0
38641 -38380 -38378 0
-38644 37703 0
-38644 38901 0
38644 -37703 -38901 0
-38647 37703 0
-38647 38899 0
38647 -37703 -38899 0
-38650 37703 0
-38650 38905 0
38650 -37703 -38905 0
-38653 37703 0
-38653 38893 0
38653 -37703 -38893 0
-38214 37850 0
-38214 37728 0
38214 -37850 -37728 0
-38217 37853 0
-38217 37728 0
38217 -37853 -37728 0
-38220 37856 0
-38220 37728 0
38220 -37856 -37728 0
-38223 37859 0
-38223 37728 0
38223 -37859 -37728 0
-38226 37862 0
-38226 37728 0
38226 -37862 -37728 0
-38229 37865 0
-38229 37728 0
38229 -37865 -37728 0
-38232 37868 0
-38232 37728 0
38232 -37868 -37728 0
-38235 37871 0
-38235 37728 0
38235 -37871 -37728 0
-38658 38389 0
-38658 38661 0
38658 -38389 -38661 0
-38665 37805 0
-38665 38661 0
38665 -37805 -38661 0
-38669 37808 0
-38669 38661 0
38669 -37808 -38661 0
-38673 37811 0
-38673 38661 0
38673 -37811 -38661 0
-38677 37814 0
-38677 38661 0
38677 -37814 -38661 0
-38681 37817 0
-38681 38661 0
38681 -37817 -38661 0
-38685 37820 0
-38685 38661 0
38685 -37820 -38661 0
-38689 37823 0
-38689 38661 0
38689 -37823 -38661 0
-38215 37754 0
-38215 37776 0
38215 -37754 -37776 0
-38218 37757 0
-38218 37776 0
38218 -37757 -37776 0
-38221 37760 0
-38221 37776 0
38221 -37760 -37776 0
-38224 37763 0
-38224 37776 0
38224 -37763 -37776 0
-38227 37766 0
-38227 37776 0
38227 -37766 -37776 0
-38230 37769 0
-38230 37776 0
38230 -37769 -37776 0
-38233 37772 0
-38233 37776 0
38233 -37772 -37776 0
-38236 38316 0
-38236 37776 0
38236 -38316 -37776 0
-38694 37778 0
-38694 38067 0
38694 -37778 -38067 0
-38697 37781 0
-38697 38067 0
38697 -37781 -38067 0
-38700 37784 0
-38700 38067 0
38700 -37784 -38067 0
-38703 37787 0
-38703 38067 0
38703 -37787 -38067 0
-38706 37790 0
-38706 38067 0
38706 -37790 -38067 0
-38709 37793 0
-38709 38067 0
38709 -37793 -38067 0
-38712 37796 0
-38712 38067 0
38712 -37796 -38067 0
-38715 37799 0
-38715 38067 0
38715 -37799 -38067 0
-38667 38317 0
-38667 38654 0
38667 -38317 -38654 0
-38671 37805 0
-38671 38654 0
38671 -37805 -38654 0
-38675 37808 0
-38675 38654 0
38675 -37808 -38654 0
-38679 37811 0
-38679 38654 0
38679 -37811 -38654 0
-38683 37814 0
-38683 38654 0
38683 -37814 -38654 0
-38687 37817 0
-38687 38654 0
38687 -37817 -38654 0
-38691 37820 0
-38691 38654 0
38691 -37820 -38654 0
-38791 37823 0
-38791 38654 0
38791 -37823 -38654 0
-38693 38213 0
-38693 38040 0
38693 -38213 -38040 0
-38696 38216 0
-38696 38040 0
38696 -38216 -38040 0
-38699 38219 0
-38699 38040 0
38699 -38219 -38040 0
-38702 38222 0
-38702 38040 0
38702 -38222 -38040 0
-38705 38225 0
-38705 38040 0
38705 -38225 -38040 0
-38708 38228 0
-38708 38040 0
38708 -38228 -38040 0
-38711 38231 0
-38711 38040 0
38711 -38231 -38040 0
-38714 38234 0
-38714 38040 0
38714 -38234 -38040 0
-38786 37850 0
-38786 38660 0
38786 -37850 -38660 0
-38796 37853 0
-38796 38660 0
38796 -37853 -38660 0
-38802 37856 0
-38802 38660 0
38802 -37856 -38660 0
-38808 37859 0
-38808 38660 0
38808 -37859 -38660 0
-38820 37862 0
-38820 38660 0
38820 -37862 -38660 0
-38826 37865 0
-38826 38660 0
38826 -37865 -38660 0
-38814 37868 0
-38814 38660 0
38814 -37868 -38660 0
-38832 37871 0
-38832 38660 0
38832 -37871 -38660 0
-38239 37874 0
-38239 37944 0
38239 -37874 -37944 0
-38242 37877 0
-38242 37944 0
38242 -37877 -37944 0
-38245 37880 0
-38245 37944 0
38245 -37880 -37944 0
-38248 37883 0
-38248 37944 0
38248 -37883 -37944 0
-38251 37886 0
-38251 37944 0
38251 -37886 -37944 0
-38254 37889 0
-38254 37944 0
38254 -37889 -37944 0
-38257 37892 0
-38257 37944 0
38257 -37892 -37944 0
-38260 37895 0
-38260 37944 0
38260 -37895 -37944 0
-38238 38215 0
-38238 37899 0
38238 -38215 -37899 0
-38241 38218 0
-38241 37902 0
38241 -38218 -37902 0
-38244 38221 0
-38244 37905 0
38244 -38221 -37905 0
-38247 38224 0
-38247 37908 0
38247 -38224 -37908 0
-38250 38227 0
-38250 37911 0
38250 -38227 -37911 0
-38253 38230 0
-38253 37914 0
38253 -38230 -37914 0
-38256 38233 0
-38256 37917 0
38256 -38233 -37917 0
-38259 38236 0
-38259 37920 0
38259 -38236 -37920 0
-38751 38692 0
-38751 37944 0
38751 -38692 -37944 0
-38754 38695 0
-38754 37944 0
38754 -38695 -37944 0
-38757 38698 0
-38757 37944 0
38757 -38698 -37944 0
-38760 38701 0
-38760 37944 0
38760 -38701 -37944 0
-38763 38704 0
-38763 37944 0
38763 -38704 -37944 0
-38766 38707 0
-38766 37944 0
38766 -38707 -37944 0
-38769 38710 0
-38769 37944 0
38769 -38710 -37944 0
-38772 38713 0
-38772 37944 0
38772 -38713 -37944 0
-38262 38237 0
-38262 37947 0
38262 -38237 -37947 0
-37997 38237 0
-37997 38214 0
37997 -38237 -38214 0
-38265 38240 0
-38265 37953 0
38265 -38240 -37953 0
-38747 38240 0
-38747 38217 0
38747 -38240 -38217 0
-38268 38243 0
-38268 37959 0
38268 -38243 -37959 0
-38009 38243 0
-38009 38220 0
38009 -38243 -38220 0
-38271 38246 0
-38271 37965 0
38271 -38246 -37965 0
-38777 38246 0
-38777 38223 0
38777 -38246 -38223 0
-38274 38249 0
-38274 37971 0
38274 -38249 -37971 0
-38783 38249 0
-38783 38226 0
38783 -38249 -38226 0
-38277 38252 0
-38277 37977 0
38277 -38252 -37977 0
-38027 38252 0
-38027 38229 0
38027 -38252 -38229 0
-38280 38255 0
-38280 37983 0
38280 -38255 -37983 0
-38033 38255 0
-38033 38232 0
38033 -38255 -38232 0
-38283 38258 0
-38283 37989 0
38283 -38258 -37989 0
-38039 38258 0
-38039 38235 0
38039 -38258 -38235 0
-38263 37994 0
-38263 38214 0
38263 -37994 -38214 0
-38717 37997 0
-38717 38040 0
38717 -37997 -38040 0
-38266 38000 0
-38266 38217 0
38266 -38000 -38217 0
-38720 38747 0
-38720 38040 0
38720 -38747 -38040 0
-38269 38006 0
-38269 38220 0
38269 -38006 -38220 0
-38723 38009 0
-38723 38040 0
38723 -38009 -38040 0
-38272 38012 0
-38272 38223 0
38272 -38012 -38223 0
-38729 38777 0
-38729 38040 0
38729 -38777 -38040 0
-38275 38018 0
-38275 38226 0
38275 -38018 -38226 0
-38732 38783 0
-38732 38040 0
38732 -38783 -38040 0
-38278 38024 0
-38278 38229 0
38278 -38024 -38229 0
-38735 38027 0
-38735 38040 0
38735 -38027 -38040 0
-38281 38030 0
-38281 38232 0
38281 -38030 -38232 0
-38738 38033 0
-38738 38040 0
38738 -38033 -38040 0
-38284 38036 0
-38284 38235 0
38284 -38036 -38235 0
-38741 38039 0
-38741 38040 0
38741 -38039 -38040 0
-38286 38395 0
-38286 38043 0
38286 -38395 -38043 0
-38718 38395 0
-38718 38067 0
38718 -38395 -38067 0
-38721 38264 0
-38721 38067 0
38721 -38264 -38067 0
-38724 38434 0
-38724 38067 0
38724 -38434 -38067 0
-38730 38405 0
-38730 38067 0
38730 -38405 -38067 0
-38733 38412 0
-38733 38067 0
38733 -38412 -38067 0
-38736 38445 0
-38736 38067 0
38736 -38445 -38067 0
-38739 38279 0
-38739 38067 0
38739 -38279 -38067 0
-38742 38282 0
-38742 38067 0
38742 -38282 -38067 0
-38745 38410 0
-38745 38409 0
38745 -38410 -38409 0
-38287 38072 0
-38287 38396 0
38287 -38072 -38396 0
-38293 38075 0
-38293 38408 0
38293 -38075 -38408 0
-38750 38716 0
-38750 38100 0
38750 -38716 -38100 0
-38753 38719 0
-38753 38100 0
38753 -38719 -38100 0
-38756 38722 0
-38756 38100 0
38756 -38722 -38100 0
-38759 38728 0
-38759 38100 0
38759 -38728 -38100 0
-38762 38731 0
-38762 38100 0
38762 -38731 -38100 0
-38765 38734 0
-38765 38100 0
38765 -38734 -38100 0
-38768 38737 0
-38768 38100 0
38768 -38737 -38100 0
-38771 38740 0
-38771 38100 0
38771 -38740 -38100 0
-38292 38264 0
-38292 38103 0
38292 -38264 -38103 0
-38296 38105 0
-38296 38106 0
38296 -38105 -38106 0
-38295 38434 0
-38295 38109 0
38295 -38434 -38109 0
-38299 38111 0
-38299 38465 0
38299 -38111 -38465 0
-38781 38412 0
-38781 38778 0
38781 -38412 -38778 0
-38787 38468 0
-38787 38895 0
38787 -38468 -38895 0
-38789 38468 0
-38789 38661 0
38789 -38468 -38661 0
-38793 38476 0
-38793 38661 0
38793 -38476 -38661 0
-38797 38476 0
-38797 38895 0
38797 -38476 -38895 0
-38302 38129 0
-38302 38479 0
38302 -38129 -38479 0
-38298 38405 0
-38298 38133 0
38298 -38405 -38133 0
-38301 38279 0
-38301 38136 0
38301 -38279 -38136 0
-38308 38138 0
-38308 38139 0
38308 -38138 -38139 0
-38311 38141 0
-38311 38142 0
38311 -38141 -38142 0
-38307 38412 0
-38307 38145 0
38307 -38412 -38145 0
-38799 38494 0
-38799 38661 0
38799 -38494 -38661 0
-38803 38494 0
-38803 38895 0
38803 -38494 -38895 0
-38310 38445 0
-38310 38154 0
38310 -38445 -38154 0
-38805 38503 0
-38805 38661 0
38805 -38503 -38661 0
-38809 38503 0
-38809 38895 0
38809 -38503 -38895 0
-38314 38162 0
-38314 38506 0
38314 -38162 -38506 0
-38811 38509 0
-38811 38661 0
38811 -38509 -38661 0
-38815 38509 0
-38815 38895 0
38815 -38509 -38895 0
-38313 38282 0
-38313 38172 0
38313 -38282 -38172 0
-38817 38521 0
-38817 38661 0
38817 -38521 -38661 0
-38821 38521 0
-38821 38895 0
38821 -38521 -38895 0
-38823 38527 0
-38823 38661 0
38823 -38527 -38661 0
-38827 38527 0
-38827 38895 0
38827 -38527 -38895 0
-38829 38536 0
-38829 38661 0
38829 -38536 -38661 0
-38833 38536 0
-38833 38895 0
38833 -38536 -38895 0
38343 -38316 0
38343 -38317 0
-38343 38316 38317 0
38347 -38334 0
38347 -38372 0
-38347 38334 38372 0
38383 -38352 0
38383 -38588 0
-38383 38352 38588 0
38354 -38341 0
38354 -38202 0
-38354 38341 38202 0
38363 -38571 0
38363 -38324 0
-38363 38571 38324 0
38366 -38621 0
38366 -38626 0
-38366 38621 38626 0
38382 -38374 0
38382 -38379 0
38382 -38338 0
-38382 38374 38379 38338 0
38213 -38214 0
38213 -38215 0
-38213 38214 38215 0
38216 -38217 0
38216 -38218 0
-38216 38217 38218 0
38219 -38220 0
38219 -38221 0
-38219 38220 38221 0
38222 -38223 0
38222 -38224 0
-38222 38223 38224 0
38225 -38226 0
38225 -38227 0
-38225 38226 38227 0
38228 -38229 0
38228 -38230 0
-38228 38229 38230 0
38231 -38232 0
38231 -38233 0
-38231 38232 38233 0
38234 -38235 0
38234 -38236 0
-38234 38235 38236 0
38237 -38238 0
38237 -38239 0
-38237 38238 38239 0
38240 -38241 0
38240 -38242 0
-38240 38241 38242 0
38243 -38244 0
38243 -38245 0
-38243 38244 38245 0
38246 -38247 0
38246 -38248 0
-38246 38247 38248 0
38249 -38250 0
38249 -38251 0
-38249 38250 38251 0
38252 -38253 0
38252 -38254 0
-38252 38253 38254 0
38255 -38256 0
38255 -38257 0
-38255 38256 38257 0
38258 -38259 0
38258 -38260 0
-38258 38259 38260 0
38395 -38262 0
38395 -38263 0
-38395 38262 38263 0
38264 -38265 0
38264 -38266 0
-38264 38265 38266 0
38434 -38268 0
38434 -38269 0
-38434 38268 38269 0
38405 -38271 0
38405 -38272 0
-38405 38271 38272 0
38412 -38274 0
38412 -38275 0
-38412 38274 38275 0
38445 -38277 0
38445 -38278 0
-38445 38277 38278 0
38279 -38280 0
38279 -38281 0
-38279 38280 38281 0
38282 -38283 0
38282 -38284 0
-38282 38283 38284 0
38424 -38286 0
38424 -38287 0
-38424 38286 38287 0
38433 -38747 0
38433 -38748 0
-38433 38747 38748 0
38463 -38292 0
38463 -38293 0
-38463 38292 38293 0
38489 -38295 0
38489 -38296 0
-38489 38295 38296 0
38498 -38298 0
38498 -38299 0
-38498 38298 38299 0
38501 -38301 0
38501 -38302 0
-38501 38301 38302 0
38507 -38304 0
38507 -38305 0
-38507 38304 38305 0
38513 -38307 0
38513 -38308 0
-38513 38307 38308 0
38519 -38310 0
38519 -38311 0
-38519 38310 38311 0
38531 -38313 0
38531 -38314 0
-38531 38313 38314 0
38345 38316 0
38345 38317 0
-38345 -38316 -38317 0
38318 38579 0
38318 38320 0
-38318 -38579 -38320 0
38572 38579 0
38572 38625 0
-38572 -38579 -38625 0
38324 38568 0
38324 38625 0
-38324 -38568 -38625 0
38623 38328 0
38623 38352 0
-38623 -38328 -38352 0
38626 38568 0
38626 38571 0
-38626 -38568 -38571 0
38348 38334 0
38348 38372 0
-38348 -38334 -38372 0
38907 38578 0
38907 38338 0
-38907 -38578 -38338 0
38390 38572 0
38390 38341 0
-38390 -38572 -38341 0
38393 38343 0
38393 38570 0
38393 38345 0
-38393 -38343 -38570 -38345 0
38885 38347 0
38885 38348 0
-38885 -38347 -38348 0
38897 38571 0
38897 38577 0
38897 38352 0
-38897 -38571 -38577 -38352 0
38391 38354 0
38391 38571 0
-38391 -38354 -38571 0
38380 38622 0
38380 38624 0
-38380 -38622 -38624 0
38378 38623 0
38378 38624 0
-38378 -38623 -38624 0
38883 38363 0
38883 38364 0
-38883 -38363 -38364 0
38365 38366 0
38365 38372 0
-38365 -38366 -38372 0
38901 38369 0
38901 38571 0
38901 38568 0
38901 38372 0
-38901 -38369 -38571 -38568 -38372 0
38891 38374 0
38891 38380 0
38891 38378 0
-38891 -38374 -38380 -38378 0
38899 38378 0
38899 38379 0
38899 38380 0
-38899 -38378 -38379 -38380 0
38905 38382 0
38905 38383 0
-38905 -38382 -38383 0
38889 38390 0
38889 38392 0
38889 38391 0
38889 38393 0
-38889 -38390 -38392 -38391 -38393 0
38389 38390 0
38389 38391 0
38389 38392 0
38389 38393 0
-38389 -38390 -38391 -38392 -38393 0
38409 38395 0
38409 38396 0
-38409 -38395 -38396 0
38397 38777 0
38397 38412 0
-38397 -38777 -38412 0
38485 38783 0
38485 38445 0
-38485 -38783 -38445 0
38403 38445 0
38403 38405 0
38403 38412 0
38403 38434 0
-38403 -38445 -38405 -38412 -38434 0
38408 38409 0
38408 38410 0
-38408 -38409 -38410 0
38411 38412 0
38411 38779 0
-38411 -38412 -38779 0
38475 38445 0
38475 38784 0
-38475 -38445 -38784 0
38474 38747 0
38474 38422 0
-38474 -38747 -38422 0
38487 38748 0
38487 38422 0
-38487 -38748 -38422 0
38469 38424 0
38469 38532 0
-38469 -38424 -38532 0
38426 38485 0
38426 38474 0
-38426 -38485 -38474 0
38429 38475 0
38429 38487 0
-38429 -38475 -38487 0
38775 38433 0
38775 38434 0
-38775 -38433 -38434 0
38470 38749 0
38470 38461 0
-38470 -38749 -38461 0
38478 38752 0
38478 38461 0
-38478 -38752 -38461 0
38496 38755 0
38496 38461 0
-38496 -38755 -38461 0
38481 38445 0
38481 38782 0
-38481 -38445 -38782 0
38505 38758 0
38505 38461 0
-38505 -38758 -38461 0
38523 38761 0
38523 38461 0
-38523 -38761 -38461 0
38529 38764 0
38529 38461 0
-38529 -38764 -38461 0
38511 38767 0
38511 38461 0
-38511 -38767 -38461 0
38538 38770 0
38538 38461 0
-38538 -38770 -38461 0
38477 38463 0
38477 38532 0
-38477 -38463 -38532 0
38465 38726 0
38465 38775 0
-38465 -38726 -38775 0
38468 38469 0
38468 38470 0
-38468 -38469 -38470 0
38471 38480 0
38471 38481 0
38471 38474 0
38471 38475 0
-38471 -38480 -38481 -38474 -38475 0
38476 38477 0
38476 38478 0
-38476 -38477 -38478 0
38479 38480 0
38479 38481 0
38479 38482 0
38479 38483 0
-38479 -38480 -38481 -38482 -38483 0
38484 38485 0
38484 38486 0
38484 38487 0
-38484 -38485 -38486 -38487 0
38495 38489 0
38495 38532 0
-38495 -38489 -38532 0
38835 38792 0
38835 38785 0
-38835 -38792 -38785 0
38494 38495 0
38494 38496 0
-38494 -38495 -38496 0
38504 38498 0
38504 38532 0
-38504 -38498 -38532 0
38510 38501 0
38510 38532 0
-38510 -38501 -38532 0
38503 38504 0
38503 38505 0
-38503 -38504 -38505 0
38506 38507 0
38506 38508 0
-38506 -38507 -38508 0
38509 38510 0
38509 38511 0
-38509 -38510 -38511 0
38522 38513 0
38522 38532 0
-38522 -38513 -38532 0
38837 38798 0
38837 38795 0
-38837 -38798 -38795 0
38528 38519 0
38528 38532 0
-38528 -38519 -38532 0
38521 38522 0
38521 38523 0
-38521 -38522 -38523 0
38839 38804 0
38839 38801 0
-38839 -38804 -38801 0
38527 38528 0
38527 38529 0
-38527 -38528 -38529 0
38537 38531 0
38537 38532 0
-38537 -38531 -38532 0
38841 38816 0
38841 38807 0
-38841 -38816 -38807 0
38536 38537 0
38536 38538 0
-38536 -38537 -38538 0
38843 38822 0
38843 38819 0
-38843 -38822 -38819 0
38845 38810 0
38845 38825 0
-38845 -38810 -38825 0
38847 38828 0
38847 38813 0
-38847 -38828 -38813 0
38849 38657 0
38849 38831 0
-38849 -38657 -38831 0
-38551 -38552 0
-38551 -38553 0
-38551 -38554 0
38551 38552 38553 38554 0
-38555 -38556 0
-38555 -38557 0
-38555 -38558 0
38555 38556 38557 38558 0
-38559 -38560 0
-38559 -38561 0
-38559 -38562 0
38559 38560 38561 38562 0
-38563 -38564 0
-38563 -38565 0
-38563 -38566 0
38563 38564 38565 38566 0
-38567 -38568 0
-38567 -38569 0
38567 38568 38569 0
-38570 -38571 0
-38570 -38572 0
38570 38571 38572 0
-38573 -38574 0
-38573 -38575 0
-38573 -38576 0
38573 38574 38575 38576 0
-38577 -38578 0
-38577 -38579 0
-38577 -38622 0
-38577 -38625 0
38577 38578 38579 38622 38625 0
-38582 -38583 0
-38582 -38584 0
-38582 -38585 0
38582 38583 38584 38585 0
-38586 -38622 0
-38586 -38588 0
38586 38622 38588 0
-38589 -38590 0
-38589 -38591 0
-38589 -38592 0
38589 38590 38591 38592 0
-38593 -38594 0
-38593 -38595 0
-38593 -38596 0
38593 38594 38595 38596 0
-38597 -38598 0
-38597 -38599 0
38597 38598 38599 0
-38600 -38601 0
-38600 -38602 0
38600 38601 38602 0
-38603 -38604 0
-38603 -38605 0
38603 38604 38605 0
-38606 -38607 0
-38606 -38608 0
38606 38607 38608 0
-38609 -38610 0
-38609 -38611 0
38609 38610 38611 0
-38612 -38613 0
-38612 -38614 0
38612 38613 38614 0
-38615 -38616 0
-38615 -38617 0
38615 38616 38617 0
-38618 -38619 0
-38618 -38620 0
38618 38619 38620 0
-38621 -38622 0
-38621 -38623 0
38621 38622 38623 0
-38624 -38625 0
-38624 -38626 0
38624 38625 38626 0
-38627 -38628 0
-38627 -38629 0
38627 38628 38629 0
-38630 -38631 0
-38630 -38632 0
38630 38631 38632 0
-38633 -38634 0
-38633 -38635 0
38633 38634 38635 0
-38636 -38637 0
-38636 -38638 0
38636 38637 38638 0
-38893 -38662 0
-38893 -38641 0
38893 38662 38641 0
-38642 -38643 0
-38642 -38644 0
38642 38643 38644 0
-38645 -38646 0
-38645 -38647 0
38645 38646 38647 0
-38648 -38649 0
-38648 -38650 0
38648 38649 38650 0
-38651 -38652 0
-38651 -38653 0
38651 38652 38653 0
-38654 -38655 0
-38654 -38661 0
38654 38655 38661 0
-38657 -38658 0
-38657 -38659 0
38657 38658 38659 0
-38660 -38661 0
-38660 -38662 0
-38660 -38895 0
38660 38661 38662 38895 0
-38664 -38665 0
-38664 -38666 0
-38664 -38667 0
38664 38665 38666 38667 0
-38668 -38669 0
-38668 -38670 0
-38668 -38671 0
38668 38669 38670 38671 0
-38672 -38673 0
-38672 -38674 0
-38672 -38675 0
38672 38673 38674 38675 0
-38676 -38677 0
-38676 -38678 0
-38676 -38679 0
38676 38677 38678 38679 0
-38680 -38681 0
-38680 -38682 0
-38680 -38683 0
38680 38681 38682 38683 0
-38684 -38685 0
-38684 -38686 0
-38684 -38687 0
38684 38685 38686 38687 0
-38688 -38689 0
-38688 -38690 0
-38688 -38691 0
38688 38689 38690 38691 0
-38692 -38693 0
-38692 -38694 0
38692 38693 38694 0
-38695 -38696 0
-38695 -38697 0
38695 38696 38697 0
-38698 -38699 0
-38698 -38700 0
38698 38699 38700 0
-38701 -38702 0
-38701 -38703 0
38701 38702 38703 0
-38704 -38705 0
-38704 -38706 0
38704 38705 38706 0
-38707 -38708 0
-38707 -38709 0
38707 38708 38709 0
-38710 -38711 0
-38710 -38712 0
38710 38711 38712 0
-38713 -38714 0
-38713 -38715 0
38713 38714 38715 0
-38716 -38717 0
-38716 -38718 0
38716 38717 38718 0
-38719 -38720 0
-38719 -38721 0
38719 38720 38721 0
-38722 -38723 0
-38722 -38724 0
38722 38723 38724 0
-38779 -38726 0
-38779 -38774 0
38779 38726 38774 0
-38728 -38729 0
-38728 -38730 0
38728 38729 38730 0
-38731 -38732 0
-38731 -38733 0
38731 38732 38733 0
-38734 -38735 0
-38734 -38736 0
38734 38735 38736 0
-38737 -38738 0
-38737 -38739 0
38737 38738 38739 0
-38740 -38741 0
-38740 -38742 0
38740 38741 38742 0
-38748 -38744 0
-38748 -38745 0
38748 38744 38745 0
-38746 -38747 0
-38746 -38748 0
38746 38747 38748 0
-38749 -38750 0
-38749 -38751 0
38749 38750 38751 0
-38752 -38753 0
-38752 -38754 0
38752 38753 38754 0
-38755 -38756 0
-38755 -38757 0
38755 38756 38757 0
-38758 -38759 0
-38758 -38760 0
38758 38759 38760 0
-38761 -38762 0
-38761 -38763 0
38761 38762 38763 0
-38764 -38765 0
-38764 -38766 0
38764 38765 38766 0
-38767 -38768 0
-38767 -38769 0
38767 38768 38769 0
-38770 -38771 0
-38770 -38772 0
38770 38771 38772 0
-38778 -38774 0
-38778 -38775 0
38778 38774 38775 0
-38776 -38777 0
-38776 -38778 0
-38776 -38779 0
38776 38777 38778 38779 0
-38780 -38781 0
-38780 -38782 0
-38780 -38783 0
-38780 -38784 0
38780 38781 38782 38783 38784 0
-38785 -38786 0
-38785 -38787 0
38785 38786 38787 0
-38788 -38789 0
-38788 -38790 0
-38788 -38791 0
38788 38789 38790 38791 0
-38792 -38793 0
-38792 -38794 0
38792 38793 38794 0
-38795 -38796 0
-38795 -38797 0
38795 38796 38797 0
-38798 -38799 0
-38798 -38800 0
38798 38799 38800 0
-38801 -38802 0
-38801 -38803 0
38801 38802 38803 0
-38804 -38805 0
-38804 -38806 0
38804 38805 38806 0
-38807 -38808 0
-38807 -38809 0
38807 38808 38809 0
-38810 -38811 0
-38810 -38812 0
38810 38811 38812 0
-38813 -38814 0
-38813 -38815 0
38813 38814 38815 0
-38816 -38817 0
-38816 -38818 0
38816 38817 38818 0
-38819 -38820 0
-38819 -38821 0
38819 38820 38821 0
-38822 -38823 0
-38822 -38824 0
38822 38823 38824 0
-38825 -38826 0
-38825 -38827 0
38825 38826 38827 0
-38828 -38829 0
-38828 -38830 0
38828 38829 38830 0
-38831 -38832 0
-38831 -38833 0
38831 38832 38833 0
-38835 39520 0
38835 -39520 0
-38837 39523 0
38837 -39523 0
-38839 39526 0
38839 -39526 0
-38841 39529 0
38841 -39529 0
-38843 39532 0
38843 -39532 0
-38845 39535 0
38845 -39535 0
-38847 39538 0
38847 -39538 0
-38849 39541 0
38849 -39541 0
-38851 39987 0
38851 -39987 0
-38853 39475 0
38853 -39475 0
-38855 39478 0
38855 -39478 0
-38857 39481 0
38857 -39481 0
-38859 39484 0
38859 -39484 0
-38861 39487 0
38861 -39487 0
-38863 39490 0
38863 -39490 0
-38865 39493 0
38865 -39493 0
-38867 39424 0
38867 -39424 0
-38869 39427 0
38869 -39427 0
-38871 39430 0
38871 -39430 0
-38873 39433 0
38873 -39433 0
-38875 39436 0
38875 -39436 0
-38877 39439 0
38877 -39439 0
-38879 39442 0
38879 -39442 0
-38881 39986 0
38881 -39986 0
-38883 40249 0
38883 -40249 0
-38885 40004 0
38885 -40004 0
-38887 40295 0
38887 -40295 0
-38889 39990 0
38889 -39990 0
-38891 40008 0
38891 -40008 0
-38893 39158 0
38893 -39158 0
-38895 38894 0
38895 -38894 0
-38897 39176 0
38897 -39176 0
-38899 39230 0
38899 -39230 0
-38901 39323 0
38901 -39323 0
-38903 39203 0
38903 -39203 0
-38905 39170 0
38905 -39170 0
-38907 39194 0
38907 -39194 0
39373 39322 0
-39373 -39322 0
40049 39987 0
-40049 -39987 0
40298 39990 0
-40298 -39990 0
40238 40249 0
-40238 -40249 0
39347 39296 0
-39347 -39296 0
40022 38919 0
-40022 -38919 0
40241 40004 0
-40241 -40004 0
40042 40295 0
-40042 -40295 0
40248 39998 0
-40248 -39998 0
40258 40008 0
-40258 -40008 0
40011 40015 0
-40011 -40015 0
39872 39988 0
-39872 -39988 0
40034 40237 0
-40034 -40237 0
40044 40240 0
-40044 -40240 0
40573 40256 0
-40573 -40256 0
40537 40267 0
-40537 -40267 0
40539 40270 0
-40539 -40270 0
40541 40273 0
-40541 -40273 0
40543 40276 0
-40543 -40276 0
40545 40279 0
-40545 -40279 0
40547 40282 0
-40547 -40282 0
40549 40285 0
-40549 -40285 0
40551 40288 0
-40551 -40288 0
40039 40291 0
-40039 -40291 0
40062 40297 0
-40062 -40297 0
38965 40300 0
-38965 -40300 0
40557 40035 0
-40557 -40035 0
40131 38965 0
-40131 -38965 0
38971 38965 0
-38971 -38965 0
39398 40303 0
-39398 -40303 0
38975 40306 0
-38975 -40306 0
40202 38971 0
-40202 -38971 0
39710 38975 0
-39710 -38975 0
39017 38975 0
-39017 -38975 0
40331 40312 0
-40331 -40312 0
39446 40315 0
-39446 -40315 0
40066 40318 0
-40066 -40318 0
39025 40318 0
-39025 -40318 0
39617 39884 0
-39617 -39884 0
39448 39884 0
-39448 -39884 0
39623 39887 0
-39623 -39887 0
39451 39887 0
-39451 -39887 0
39629 39890 0
-39629 -39890 0
39454 39890 0
-39454 -39890 0
39635 39893 0
-39635 -39893 0
39457 39893 0
-39457 -39893 0
39641 39896 0
-39641 -39896 0
39460 39896 0
-39460 -39896 0
39647 39899 0
-39647 -39899 0
39463 39899 0
-39463 -39899 0
39653 39902 0
-39653 -39902 0
39466 39902 0
-39466 -39902 0
39659 39905 0
-39659 -39905 0
39469 39905 0
-39469 -39905 0
39737 39017 0
-39737 -39017 0
40565 40321 0
-40565 -40321 0
39713 40066 0
-39713 -40066 0
39770 39025 0
-39770 -39025 0
39043 39025 0
-39043 -39025 0
39544 39885 0
-39544 -39885 0
39547 39888 0
-39547 -39888 0
39550 39891 0
-39550 -39891 0
39553 39894 0
-39553 -39894 0
39556 39897 0
-39556 -39897 0
39559 39900 0
-39559 -39900 0
39562 39903 0
-39562 -39903 0
39565 39906 0
-39565 -39906 0
39614 39043 0
-39614 -39043 0
39569 39614 0
-39569 -39614 0
39572 39614 0
-39572 -39614 0
39575 39614 0
-39575 -39614 0
39578 39614 0
-39578 -39614 0
39581 39614 0
-39581 -39614 0
39584 39614 0
-39584 -39614 0
39587 39614 0
-39587 -39614 0
39590 39614 0
-39590 -39614 0
40521 40334 0
-40521 -40334 0
40523 40338 0
-40523 -40338 0
40525 40342 0
-40525 -40342 0
40527 40346 0
-40527 -40346 0
40529 40350 0
-40529 -40350 0
40531 40354 0
-40531 -40354 0
40533 40358 0
-40533 -40358 0
39664 39907 0
-39664 -39907 0
39670 39910 0
-39670 -39910 0
39676 39913 0
-39676 -39913 0
39682 39916 0
-39682 -39916 0
39688 39919 0
-39688 -39919 0
39694 39922 0
-39694 -39922 0
39700 39925 0
-39700 -39925 0
39706 39928 0
-39706 -39928 0
40080 39667 0
-40080 -39667 0
40396 39679 0
-40396 -39679 0
40150 39697 0
-40150 -39697 0
40178 39703 0
-40178 -39703 0
39742 40065 0
-39742 -40065 0
40414 39934 0
-40414 -39934 0
39745 39934 0
-39745 -39934 0
39775 40104 0
-39775 -40104 0
40444 40075 0
-40444 -40075 0
39781 40075 0
-39781 -40075 0
39808 40082 0
-39808 -40082 0
39811 40115 0
-39811 -40115 0
39974 39949 0
-39974 -39949 0
39799 39949 0
-39799 -39949 0
39832 39952 0
-39832 -39952 0
40454 40067 0
-40454 -40067 0
40092 40073 0
-40092 -40073 0
39773 40078 0
-39773 -40078 0
40452 40081 0
-40452 -40081 0
39776 40416 0
-39776 -40416 0
40152 40096 0
-40152 -40096 0
39779 39776 0
-39779 -39776 0
40153 40099 0
-40153 -40099 0
39803 40135 0
-39803 -40135 0
40156 40141 0
-40156 -40141 0
39806 40149 0
-39806 -40149 0
39809 40446 0
-39809 -40446 0
39812 40450 0
-39812 -40450 0
39815 39809 0
-39815 -39809 0
40535 40458 0
-40535 -40458 0
39975 40154 0
-39975 -40154 0
39824 39812 0
-39824 -39812 0
39842 40176 0
-39842 -40176 0
-40322 39322 0
-40322 39158 0
40322 -39322 -39158 0
-40260 39277 0
-40260 39493 0
40260 -39277 -39493 0
-40470 39301 0
-40470 40332 0
40470 -39301 -40332 0
-40234 39277 0
-40234 39987 0
40234 -39277 -39987 0
-40319 39322 0
-40319 39170 0
40319 -39322 -39170 0
-40253 39277 0
-40253 39484 0
40253 -39277 -39484 0
-40304 39322 0
-40304 39176 0
40304 -39322 -39176 0
-40223 39274 0
-40223 39442 0
40223 -39274 -39442 0
-40261 39274 0
-40261 39986 0
40261 -39274 -39986 0
-40226 39277 0
-40226 39481 0
40226 -39277 -39481 0
-40482 39313 0
-40482 40332 0
40482 -39313 -40332 0
-40245 39274 0
-40245 39439 0
40245 -39274 -39439 0
-40301 39322 0
-40301 39194 0
40301 -39322 -39194 0
-40224 39289 0
-40224 39538 0
40224 -39289 -39538 0
-40255 39289 0
-40255 39532 0
40255 -39289 -39532 0
-40307 39322 0
-40307 39203 0
40307 -39322 -39203 0
-40222 39277 0
-40222 39490 0
40222 -39277 -39490 0
-40494 39310 0
-40494 40332 0
40494 -39310 -40332 0
-40265 39274 0
-40265 39427 0
40265 -39274 -39427 0
-40228 39289 0
-40228 39529 0
40228 -39289 -39529 0
-40476 39304 0
-40476 40332 0
40476 -39304 -40332 0
-40227 39274 0
-40227 39433 0
40227 -39274 -39433 0
-40246 39289 0
-40246 39535 0
40246 -39289 -39535 0
-40232 39289 0
-40232 39526 0
40232 -39289 -39526 0
-40316 39322 0
-40316 39230 0
40316 -39322 -39230 0
-40500 39316 0
-40500 40332 0
40500 -39316 -40332 0
-40236 39289 0
-40236 39520 0
40236 -39289 -39520 0
-40231 39274 0
-40231 39430 0
40231 -39274 -39430 0
-40272 39301 0
-40272 39296 0
40272 -39301 -39296 0
-40275 39304 0
-40275 39296 0
40275 -39304 -39296 0
-40281 39310 0
-40281 39296 0
40281 -39310 -39296 0
-40284 39313 0
-40284 39296 0
40284 -39313 -39296 0
-40287 39316 0
-40287 39296 0
40287 -39316 -39296 0
-40230 39277 0
-40230 39478 0
40230 -39277 -39478 0
-40235 39274 0
-40235 39424 0
40235 -39274 -39424 0
-40239 40004 0
-40239 40295 0
40239 -40004 -40295 0
-40329 39319 0
-40329 40332 0
40329 -39319 -40332 0
-40290 39319 0
-40290 39296 0
40290 -39319 -39296 0
-40244 39277 0
-40244 39487 0
40244 -39277 -39487 0
-40254 39274 0
-40254 39436 0
40254 -39274 -39436 0
-40264 39277 0
-40264 39475 0
40264 -39277 -39475 0
-40464 39298 0
-40464 40332 0
40464 -39298 -40332 0
-40269 39298 0
-40269 39296 0
40269 -39298 -39296 0
-40262 39289 0
-40262 39541 0
40262 -39289 -39541 0
-40266 39289 0
-40266 39523 0
40266 -39289 -39523 0
-40488 39307 0
-40488 40332 0
40488 -39307 -40332 0
-40278 39307 0
-40278 39296 0
40278 -39307 -39296 0
-40336 39298 0
-40336 40325 0
40336 -39298 -40325 0
-40340 39301 0
-40340 40325 0
40340 -39301 -40325 0
-40344 39304 0
-40344 40325 0
40344 -39304 -40325 0
-40348 39307 0
-40348 40325 0
40348 -39307 -40325 0
-40352 39310 0
-40352 40325 0
40352 -39310 -40325 0
-40356 39313 0
-40356 40325 0
40356 -39313 -40325 0
-40360 39316 0
-40360 40325 0
40360 -39316 -40325 0
-40460 39319 0
-40460 40325 0
40460 -39319 -40325 0
-40313 39322 0
-40313 39323 0
40313 -39322 -39323 0
-40268 39424 0
-40268 39347 0
40268 -39424 -39347 0
-40271 39427 0
-40271 39347 0
40271 -39427 -39347 0
-40274 39430 0
-40274 39347 0
40274 -39430 -39347 0
-40277 39433 0
-40277 39347 0
40277 -39433 -39347 0
-40280 39436 0
-40280 39347 0
40280 -39436 -39347 0
-40283 39439 0
-40283 39347 0
40283 -39439 -39347 0
-40286 39442 0
-40286 39347 0
40286 -39442 -39347 0
-40289 39986 0
-40289 39347 0
40289 -39986 -39347 0
-40299 39994 0
-40299 40018 0
40299 -39994 -40018 0
-40302 39373 0
-40302 40577 0
40302 -39373 -40577 0
-40305 39373 0
-40305 40567 0
40305 -39373 -40567 0
-40308 39373 0
-40308 40573 0
40308 -39373 -40573 0
-40311 40050 0
-40311 40048 0
40311 -40050 -40048 0
-40314 39373 0
-40314 40571 0
40314 -39373 -40571 0
-40317 39373 0
-40317 40569 0
40317 -39373 -40569 0
-40320 39373 0
-40320 40575 0
40320 -39373 -40575 0
-40323 39373 0
-40323 40563 0
40323 -39373 -40563 0
-39884 39520 0
-39884 39398 0
39884 -39520 -39398 0
-39887 39523 0
-39887 39398 0
39887 -39523 -39398 0
-39890 39526 0
-39890 39398 0
39890 -39526 -39398 0
-39893 39529 0
-39893 39398 0
39893 -39529 -39398 0
-39896 39532 0
-39896 39398 0
39896 -39532 -39398 0
-39899 39535 0
-39899 39398 0
39899 -39535 -39398 0
-39902 39538 0
-39902 39398 0
39902 -39538 -39398 0
-39905 39541 0
-39905 39398 0
39905 -39541 -39398 0
-40328 40059 0
-40328 40331 0
40328 -40059 -40331 0
-40335 39475 0
-40335 40331 0
40335 -39475 -40331 0
-40339 39478 0
-40339 40331 0
40339 -39478 -40331 0
-40343 39481 0
-40343 40331 0
40343 -39481 -40331 0
-40347 39484 0
-40347 40331 0
40347 -39484 -40331 0
-40351 39487 0
-40351 40331 0
40351 -39487 -40331 0
-40355 39490 0
-40355 40331 0
40355 -39490 -40331 0
-40359 39493 0
-40359 40331 0
40359 -39493 -40331 0
-39885 39424 0
-39885 39446 0
39885 -39424 -39446 0
-39888 39427 0
-39888 39446 0
39888 -39427 -39446 0
-39891 39430 0
-39891 39446 0
39891 -39430 -39446 0
-39894 39433 0
-39894 39446 0
39894 -39433 -39446 0
-39897 39436 0
-39897 39446 0
39897 -39436 -39446 0
-39900 39439 0
-39900 39446 0
39900 -39439 -39446 0
-39903 39442 0
-39903 39446 0
39903 -39442 -39446 0
-39906 39986 0
-39906 39446 0
39906 -39986 -39446 0
-40364 39448 0
-40364 39737 0
40364 -39448 -39737 0
-40367 39451 0
-40367 39737 0
40367 -39451 -39737 0
-40370 39454 0
-40370 39737 0
40370 -39454 -39737 0
-40373 39457 0
-40373 39737 0
40373 -39457 -39737 0
-40376 39460 0
-40376 39737 0
40376 -39460 -39737 0
-40379 39463 0
-40379 39737 0
40379 -39463 -39737 0
-40382 39466 0
-40382 39737 0
40382 -39466 -39737 0
-40385 39469 0
-40385 39737 0
40385 -39469 -39737 0
-40337 39987 0
-40337 40324 0
40337 -39987 -40324 0
-40341 39475 0
-40341 40324 0
40341 -39475 -40324 0
-40345 39478 0
-40345 40324 0
40345 -39478 -40324 0
-40349 39481 0
-40349 40324 0
40349 -39481 -40324 0
-40353 39484 0
-40353 40324 0
40353 -39484 -40324 0
-40357 39487 0
-40357 40324 0
40357 -39487 -40324 0
-40361 39490 0
-40361 40324 0
40361 -39490 -40324 0
-40461 39493 0
-40461 40324 0
40461 -39493 -40324 0
-40363 39883 0
-40363 39710 0
40363 -39883 -39710 0
-40366 39886 0
-40366 39710 0
40366 -39886 -39710 0
-40369 39889 0
-40369 39710 0
40369 -39889 -39710 0
-40372 39892 0
-40372 39710 0
40372 -39892 -39710 0
-40375 39895 0
-40375 39710 0
40375 -39895 -39710 0
-40378 39898 0
-40378 39710 0
40378 -39898 -39710 0
-40381 39901 0
-40381 39710 0
40381 -39901 -39710 0
-40384 39904 0
-40384 39710 0
40384 -39904 -39710 0
-40456 39520 0
-40456 40330 0
40456 -39520 -40330 0
-40466 39523 0
-40466 40330 0
40466 -39523 -40330 0
-40472 39526 0
-40472 40330 0
40472 -39526 -40330 0
-40478 39529 0
-40478 40330 0
40478 -39529 -40330 0
-40490 39532 0
-40490 40330 0
40490 -39532 -40330 0
-40496 39535 0
-40496 40330 0
40496 -39535 -40330 0
-40484 39538 0
-40484 40330 0
40484 -39538 -40330 0
-40502 39541 0
-40502 40330 0
40502 -39541 -40330 0
-39909 39544 0
-39909 39614 0
39909 -39544 -39614 0
-39912 39547 0
-39912 39614 0
39912 -39547 -39614 0
-39915 39550 0
-39915 39614 0
39915 -39550 -39614 0
-39918 39553 0
-39918 39614 0
39918 -39553 -39614 0
-39921 39556 0
-39921 39614 0
39921 -39556 -39614 0
-39924 39559 0
-39924 39614 0
39924 -39559 -39614 0
-39927 39562 0
-39927 39614 0
39927 -39562 -39614 0
-39930 39565 0
-39930 39614 0
39930 -39565 -39614 0
-39908 39885 0
-39908 39569 0
39908 -39885 -39569 0
-39911 39888 0
-39911 39572 0
39911 -39888 -39572 0
-39914 39891 0
-39914 39575 0
39914 -39891 -39575 0
-39917 39894 0
-39917 39578 0
39917 -39894 -39578 0
-39920 39897 0
-39920 39581 0
39920 -39897 -39581 0
-39923 39900 0
-39923 39584 0
39923 -39900 -39584 0
-39926 39903 0
-39926 39587 0
39926 -39903 -39587 0
-39929 39906 0
-39929 39590 0
39929 -39906 -39590 0
-40421 40362 0
-40421 39614 0
40421 -40362 -39614 0
-40424 40365 0
-40424 39614 0
40424 -40365 -39614 0
-40427 40368 0
-40427 39614 0
40427 -40368 -39614 0
-40430 40371 0
-40430 39614 0
40430 -40371 -39614 0
-40433 40374 0
-40433 39614 0
40433 -40374 -39614 0
-40436 40377 0
-40436 39614 0
40436 -40377 -39614 0
-40439 40380 0
-40439 39614 0
40439 -40380 -39614 0
-40442 40383 0
-40442 39614 0
40442 -40383 -39614 0
-39932 39907 0
-39932 39617 0
39932 -39907 -39617 0
-39667 39907 0
-39667 39884 0
39667 -39907 -39884 0
-39935 39910 0
-39935 39623 0
39935 -39910 -39623 0
-40417 39910 0
-40417 39887 0
40417 -39910 -39887 0
-39938 39913 0
-39938 39629 0
39938 -39913 -39629 0
-39679 39913 0
-39679 39890 0
39679 -39913 -39890 0
-39941 39916 0
-39941 39635 0
39941 -39916 -39635 0
-40447 39916 0
-40447 39893 0
40447 -39916 -39893 0
-39944 39919 0
-39944 39641 0
39944 -39919 -39641 0
-40453 39919 0
-40453 39896 0
40453 -39919 -39896 0
-39947 39922 0
-39947 39647 0
39947 -39922 -39647 0
-39697 39922 0
-39697 39899 0
39697 -39922 -39899 0
-39950 39925 0
-39950 39653 0
39950 -39925 -39653 0
-39703 39925 0
-39703 39902 0
39703 -39925 -39902 0
-39953 39928 0
-39953 39659 0
39953 -39928 -39659 0
-39709 39928 0
-39709 39905 0
39709 -39928 -39905 0
-39933 39664 0
-39933 39884 0
39933 -39664 -39884 0
-40387 39667 0
-40387 39710 0
40387 -39667 -39710 0
-39936 39670 0
-39936 39887 0
39936 -39670 -39887 0
-40390 40417 0
-40390 39710 0
40390 -40417 -39710 0
-39939 39676 0
-39939 39890 0
39939 -39676 -39890 0
-40393 39679 0
-40393 39710 0
40393 -39679 -39710 0
-39942 39682 0
-39942 39893 0
39942 -39682 -39893 0
-40399 40447 0
-40399 39710 0
40399 -40447 -39710 0
-39945 39688 0
-39945 39896 0
39945 -39688 -39896 0
-40402 40453 0
-40402 39710 0
40402 -40453 -39710 0
-39948 39694 0
-39948 39899 0
39948 -39694 -39899 0
-40405 39697 0
-40405 39710 0
40405 -39697 -39710 0
-39951 39700 0
-39951 39902 0
39951 -39700 -39902 0
-40408 39703 0
-40408 39710 0
40408 -39703 -39710 0
-39954 39706 0
-39954 39905 0
39954 -39706 -39905 0
-40411 39709 0
-40411 39710 0
40411 -39709 -39710 0
-39956 40065 0
-39956 39713 0
39956 -40065 -39713 0
-40388 40065 0
-40388 39737 0
40388 -40065 -39737 0
-40391 39934 0
-40391 39737 0
40391 -39934 -39737 0
-40394 40104 0
-40394 39737 0
40394 -40104 -39737 0
-40400 40075 0
-40400 39737 0
40400 -40075 -39737 0
-40403 40082 0
-40403 39737 0
40403 -40082 -39737 0
-40406 40115 0
-40406 39737 0
40406 -40115 -39737 0
-40409 39949 0
-40409 39737 0
40409 -39949 -39737 0
-40412 39952 0
-40412 39737 0
40412 -39952 -39737 0
-40415 40080 0
-40415 40079 0
40415 -40080 -40079 0
-39957 39742 0
-39957 40066 0
39957 -39742 -40066 0
-39963 39745 0
-39963 40078 0
39963 -39745 -40078 0
-40420 40386 0
-40420 39770 0
40420 -40386 -39770 0
-40423 40389 0
-40423 39770 0
40423 -40389 -39770 0
-40426 40392 0
-40426 39770 0
40426 -40392 -39770 0
-40429 40398 0
-40429 39770 0
40429 -40398 -39770 0
-40432 40401 0
-40432 39770 0
40432 -40401 -39770 0
-40435 40404 0
-40435 39770 0
40435 -40404 -39770 0
-40438 40407 0
-40438 39770 0
40438 -40407 -39770 0
-40441 40410 0
-40441 39770 0
40441 -40410 -39770 0
-39962 39934 0
-39962 39773 0
39962 -39934 -39773 0
-39966 39775 0
-39966 39776 0
39966 -39775 -39776 0
-39965 40104 0
-39965 39779 0
39965 -40104 -39779 0
-39969 39781 0
-39969 40135 0
39969 -39781 -40135 0
-40451 40082 0
-40451 40448 0
40451 -40082 -40448 0
-40457 40138 0
-40457 40565 0
40457 -40138 -40565 0
-40459 40138 0
-40459 40331 0
40459 -40138 -40331 0
-40463 40146 0
-40463 40331 0
40463 -40146 -40331 0
-40467 40146 0
-40467 40565 0
40467 -40146 -40565 0
-39972 39799 0
-39972 40149 0
39972 -39799 -40149 0
-39968 40075 0
-39968 39803 0
39968 -40075 -39803 0
-39971 39949 0
-39971 39806 0
39971 -39949 -39806 0
-39978 39808 0
-39978 39809 0
39978 -39808 -39809 0
-39981 39811 0
-39981 39812 0
39981 -39811 -39812 0
-39977 40082 0
-39977 39815 0
39977 -40082 -39815 0
-40469 40164 0
-40469 40331 0
40469 -40164 -40331 0
-40473 40164 0
-40473 40565 0
40473 -40164 -40565 0
-39980 40115 0
-39980 39824 0
39980 -40115 -39824 0
-40475 40173 0
-40475 40331 0
40475 -40173 -40331 0
-40479 40173 0
-40479 40565 0
40479 -40173 -40565 0
-39984 39832 0
-39984 40176 0
39984 -39832 -40176 0
-40481 40179 0
-40481 40331 0
40481 -40179 -40331 0
-40485 40179 0
-40485 40565 0
40485 -40179 -40565 0
-39983 39952 0
-39983 39842 0
39983 -39952 -39842 0
-40487 40191 0
-40487 40331 0
40487 -40191 -40331 0
-40491 40191 0
-40491 40565 0
40491 -40191 -40565 0
-40493 40197 0
-40493 40331 0
40493 -40197 -40331 0
-40497 40197 0
-40497 40565 0
40497 -40197 -40565 0
-40499 40206 0
-40499 40331 0
40499 -40206 -40331 0
-40503 40206 0
-40503 40565 0
40503 -40206 -40565 0
40013 -39986 0
40013 -39987 0
-40013 39986 39987 0
40017 -40004 0
40017 -40042 0
-40017 40004 40042 0
40053 -40022 0
40053 -40258 0
-40053 40022 40258 0
40024 -40011 0
40024 -39872 0
-40024 40011 39872 0
40033 -40241 0
40033 -39994 0
-40033 40241 39994 0
40036 -40291 0
40036 -40296 0
-40036 40291 40296 0
40052 -40044 0
40052 -40049 0
40052 -40008 0
-40052 40044 40049 40008 0
39883 -39884 0
39883 -39885 0
-39883 39884 39885 0
39886 -39887 0
39886 -39888 0
-39886 39887 39888 0
39889 -39890 0
39889 -39891 0
-39889 39890 39891 0
39892 -39893 0
39892 -39894 0
-39892 39893 39894 0
39895 -39896 0
39895 -39897 0
-39895 39896 39897 0
39898 -39899 0
39898 -39900 0
-39898 39899 39900 0
39901 -39902 0
39901 -39903 0
-39901 39902 39903 0
39904 -39905 0
39904 -39906 0
-39904 39905 39906 0
39907 -39908 0
39907 -39909 0
-39907 39908 39909 0
39910 -39911 0
39910 -39912 0
-39910 39911 39912 0
39913 -39914 0
39913 -39915 0
-39913 39914 39915 0
39916 -39917 0
39916 -39918 0
-39916 39917 39918 0
39919 -39920 0
39919 -39921 0
-39919 39920 39921 0
39922 -39923 0
39922 -39924 0
-39922 39923 39924 0
39925 -39926 0
39925 -39927 0
-39925 39926 39927 0
39928 -39929 0
39928 -39930 0
-39928 39929 39930 0
40065 -39932 0
40065 -39933 0
-40065 39932 39933 0
39934 -39935 0
39934 -39936 0
-39934 39935 39936 0
40104 -39938 0
40104 -39939 0
-40104 39938 39939 0
40075 -39941 0
40075 -39942 0
-40075 39941 39942 0
40082 -39944 0
40082 -39945 0
-40082 39944 39945 0
40115 -39947 0
40115 -39948 0
-40115 39947 39948 0
39949 -39950 0
39949 -39951 0
-39949 39950 39951 0
39952 -39953 0
39952 -39954 0
-39952 39953 39954 0
40094 -39956 0
40094 -39957 0
-40094 39956 39957 0
40103 -40417 0
40103 -40418 0
-40103 40417 40418 0
40133 -39962 0
40133 -39963 0
-40133 39962 39963 0
40159 -39965 0
40159 -39966 0
-40159 39965 39966 0
40168 -39968 0
40168 -39969 0
-40168 39968 39969 0
40171 -39971 0
40171 -39972 0
-40171 39971 39972 0
40177 -39974 0
40177 -39975 0
-40177 39974 39975 0
40183 -39977 0
40183 -39978 0
-40183 39977 39978 0
40189 -39980 0
40189 -39981 0
-40189 39980 39981 0
40201 -39983 0
40201 -39984 0
-40201 39983 39984 0
40015 39986 0
40015 39987 0
-40015 -39986 -39987 0
39988 40249 0
39988 39990 0
-39988 -40249 -39990 0
40242 40249 0
40242 40295 0
-40242 -40249 -40295 0
39994 40238 0
39994 40295 0
-39994 -40238 -40295 0
40293 39998 0
40293 40022 0
-40293 -39998 -40022 0
40296 40238 0
40296 40241 0
-40296 -40238 -40241 0
40018 40004 0
40018 40042 0
-40018 -40004 -40042 0
40577 40248 0
40577 40008 0
-40577 -40248 -40008 0
40060 40242 0
40060 40011 0
-40060 -40242 -40011 0
40063 40013 0
40063 40240 0
40063 40015 0
-40063 -40013 -40240 -40015 0
40555 40017 0
40555 40018 0
-40555 -40017 -40018 0
40567 40241 0
40567 40247 0
40567 40022 0
-40567 -40241 -40247 -40022 0
40061 40024 0
40061 40241 0
-40061 -40024 -40241 0
40050 40292 0
40050 40294 0
-40050 -40292 -40294 0
40048 40293 0
40048 40294 0
-40048 -40293 -40294 0
40553 40033 0
40553 40034 0
-40553 -40033 -40034 0
40035 40036 0
40035 40042 0
-40035 -40036 -40042 0
40571 40039 0
40571 40241 0
40571 40238 0
40571 40042 0
-40571 -40039 -40241 -40238 -40042 0
40561 40044 0
40561 40050 0
40561 40048 0
-40561 -40044 -40050 -40048 0
40569 40048 0
40569 40049 0
40569 40050 0
-40569 -40048 -40049 -40050 0
40575 40052 0
40575 40053 0
-40575 -40052 -40053 0
40559 40060 0
40559 40062 0
40559 40061 0
40559 40063 0
-40559 -40060 -40062 -40061 -40063 0
40059 40060 0
40059 40061 0
40059 40062 0
40059 40063 0
-40059 -40060 -40061 -40062 -40063 0
40079 40065 0
40079 40066 0
-40079 -40065 -40066 0
40067 40447 0
40067 40082 0
-40067 -40447 -40082 0
40155 40453 0
40155 40115 0
-40155 -40453 -40115 0
40073 40115 0
40073 40075 0
40073 40082 0
40073 40104 0
-40073 -40115 -40075 -40082 -40104 0
40078 40079 0
40078 40080 0
-40078 -40079 -40080 0
40081 40082 0
40081 40449 0
-40081 -40082 -40449 0
40145 40115 0
40145 40454 0
-40145 -40115 -40454 0
40144 40417 0
40144 40092 0
-40144 -40417 -40092 0
40157 40418 0
40157 40092 0
-40157 -40418 -40092 0
40139 40094 0
40139 40202 0
-40139 -40094 -40202 0
40096 40155 0
40096 40144 0
-40096 -40155 -40144 0
40099 40145 0
40099 40157 0
-40099 -40145 -40157 0
40445 40103 0
40445 40104 0
-40445 -40103 -40104 0
40140 40419 0
40140 40131 0
-40140 -40419 -40131 0
40148 40422 0
40148 40131 0
-40148 -40422 -40131 0
40166 40425 0
40166 40131 0
-40166 -40425 -40131 0
40151 40115 0
40151 40452 0
-40151 -40115 -40452 0
40175 40428 0
40175 40131 0
-40175 -40428 -40131 0
40193 40431 0
40193 40131 0
-40193 -40431 -40131 0
40199 40434 0
40199 40131 0
-40199 -40434 -40131 0
40181 40437 0
40181 40131 0
-40181 -40437 -40131 0
40208 40440 0
40208 40131 0
-40208 -40440 -40131 0
40147 40133 0
40147 40202 0
-40147 -40133 -40202 0
40135 40396 0
40135 40445 0
-40135 -40396 -40445 0
40138 40139 0
40138 40140 0
-40138 -40139 -40140 0
40141 40150 0
40141 40151 0
40141 40144 0
40141 40145 0
-40141 -40150 -40151 -40144 -40145 0
40146 40147 0
40146 40148 0
-40146 -40147 -40148 0
40149 40150 0
40149 40151 0
40149 40152 0
40149 40153 0
-40149 -40150 -40151 -40152 -40153 0
40154 40155 0
40154 40156 0
40154 40157 0
-40154 -40155 -40156 -40157 0
40165 40159 0
40165 40202 0
-40165 -40159 -40202 0
40505 40462 0
40505 40455 0
-40505 -40462 -40455 0
40164 40165 0
40164 40166 0
-40164 -40165 -40166 0
40174 40168 0
40174 40202 0
-40174 -40168 -40202 0
40180 40171 0
40180 40202 0
-40180 -40171 -40202 0
40173 40174 0
40173 40175 0
-40173 -40174 -40175 0
40176 40177 0
40176 40178 0
-40176 -40177 -40178 0
40179 40180 0
40179 40181 0
-40179 -40180 -40181 0
40192 40183 0
40192 40202 0
-40192 -40183 -40202 0
40507 40468 0
40507 40465 0
-40507 -40468 -40465 0
40198 40189 0
40198 40202 0
-40198 -40189 -40202 0
40191 40192 0
40191 40193 0
-40191 -40192 -40193 0
40509 40474 0
40509 40471 0
-40509 -40474 -40471 0
40197 40198 0
40197 40199 0
-40197 -40198 -40199 0
40207 40201 0
40207 40202 0
-40207 -40201 -40202 0
40511 40486 0
40511 40477 0
-40511 -40486 -40477 0
40206 40207 0
40206 40208 0
-40206 -40207 -40208 0
40513 40492 0
40513 40489 0
-40513 -40492 -40489 0
40515 40480 0
40515 40495 0
-40515 -40480 -40495 0
40517 40498 0
40517 40483 0
-40517 -40498 -40483 0
40519 40327 0
40519 40501 0
-40519 -40327 -40501 0
-40221 -40222 0
-40221 -40223 0
-40221 -40224 0
40221 40222 40223 40224 0
-40225 -40226 0
-40225 -40227 0
-40225 -40228 0
40225 40226 40227 40228 0
-40229 -40230 0
-40229 -40231 0
-40229 -40232 0
40229 40230 40231 40232 0
-40233 -40234 0
-40233 -40235 0
-40233 -40236 0
40233 40234 40235 40236 0
-40237 -40238 0
-40237 -40239 0
40237 40238 40239 0
-40240 -40241 0
-40240 -40242 0
40240 40241 40242 0
-40243 -40244 0
-40243 -40245 0
-40243 -40246 0
40243 40244 40245 40246 0
-40247 -40248 0
-40247 -40249 0
-40247 -40292 0
-40247 -40295 0
40247 40248 40249 40292 40295 0
-40252 -40253 0
-40252 -40254 0
-40252 -40255 0
40252 40253 40254 40255 0
-40256 -40292 0
-40256 -40258 0
40256 40292 40258 0
-40259 -40260 0
-40259 -40261 0
-40259 -40262 0
40259 40260 40261 40262 0
-40263 -40264 0
-40263 -40265 0
-40263 -40266 0
40263 40264 40265 40266 0
-40267 -40268 0
-40267 -40269 0
40267 40268 40269 0
-40270 -40271 0
-40270 -40272 0
40270 40271 40272 0
-40273 -40274 0
-40273 -40275 0
40273 40274 40275 0
-40276 -40277 0
-40276 -40278 0
40276 40277 40278 0
-40279 -40280 0
-40279 -40281 0
40279 40280 40281 0
-40282 -40283 0
-40282 -40284 0
40282 40283 40284 0
-40285 -40286 0
-40285 -40287 0
40285 40286 40287 0
-40288 -40289 0
-40288 -40290 0
40288 40289 40290 0
-40291 -40292 0
-40291 -40293 0
40291 40292 40293 0
-40294 -40295 0
-40294 -40296 0
40294 40295 40296 0
-40297 -40298 0
-40297 -40299 0
40297 40298 40299 0
-40300 -40301 0
-40300 -40302 0
40300 40301 40302 0
-40303 -40304 0
-40303 -40305 0
40303 40304 40305 0
-40306 -40307 0
-40306 -40308 0
40306 40307 40308 0
-40563 -40332 0
-40563 -40311 0
40563 40332 40311 0
-40312 -40313 0
-40312 -40314 0
40312 40313 40314 0
-40315 -40316 0
-40315 -40317 0
40315 40316 40317 0
-40318 -40319 0
-40318 -40320 0
40318 40319 40320 0
-40321 -40322 0
-40321 -40323 0
40321 40322 40323 0
-40324 -40325 0
-40324 -40331 0
40324 40325 40331 0
-40327 -40328 0
-40327 -40329 0
40327 40328 40329 0
-40330 -40331 0
-40330 -40332 0
-40330 -40565 0
40330 40331 40332 40565 0
-40334 -40335 0
-40334 -40336 0
-40334 -40337 0
40334 40335 40336 40337 0
-40338 -40339 0
-40338 -40340 0
-40338 -40341 0
40338 40339 40340 40341 0
-40342 -40343 0
-40342 -40344 0
-40342 -40345 0
40342 40343 40344 40345 0
-40346 -40347 0
-40346 -40348 0
-40346 -40349 0
40346 40347 40348 40349 0
-40350 -40351 0
-40350 -40352 0
-40350 -40353 0
40350 40351 40352 40353 0
-40354 -40355 0
-40354 -40356 0
-40354 -40357 0
40354 40355 40356 40357 0
-40358 -40359 0
-40358 -40360 0
-40358 -40361 0
40358 40359 40360 40361 0
-40362 -40363 0
-40362 -40364 0
40362 40363 40364 0
-40365 -40366 0
-40365 -40367 0
40365 40366 40367 0
-40368 -40369 0
-40368 -40370 0
40368 40369 40370 0
-40371 -40372 0
-40371 -40373 0
40371 40372 40373 0
-40374 -40375 0
-40374 -40376 0
40374 40375 40376 0
-40377 -40378 0
-40377 -40379 0
40377 40378 40379 0
-40380 -40381 0
-40380 -40382 0
40380 40381 40382 0
-40383 -40384 0
-40383 -40385 0
40383 40384 40385 0
-40386 -40387 0
-40386 -40388 0
40386 40387 40388 0
-40389 -40390 0
-40389 -40391 0
40389 40390 40391 0
-40392 -40393 0
-40392 -40394 0
40392 40393 40394 0
-40449 -40396 0
-40449 -40444 0
40449 40396 40444 0
-40398 -40399 0
-40398 -40400 0
40398 40399 40400 0
-40401 -40402 0
-40401 -40403 0
40401 40402 40403 0
-40404 -40405 0
-40404 -40406 0
40404 40405 40406 0
-40407 -40408 0
-40407 -40409 0
40407 40408 40409 0
-40410 -40411 0
-40410 -40412 0
40410 40411 40412 0
-40418 -40414 0
-40418 -40415 0
40418 40414 40415 0
-40416 -40417 0
-40416 -40418 0
40416 40417 40418 0
-40419 -40420 0
-40419 -40421 0
40419 40420 40421 0
-40422 -40423 0
-40422 -40424 0
40422 40423 40424 0
-40425 -40426 0
-40425 -40427 0
40425 40426 40427 0
-40428 -40429 0
-40428 -40430 0
40428 40429 40430 0
-40431 -40432 0
-40431 -40433 0
40431 40432 40433 0
-40434 -40435 0
-40434 -40436 0
40434 40435 40436 0
-40437 -40438 0
-40437 -40439 0
40437 40438 40439 0
-40440 -40441 0
-40440 -40442 0
40440 40441 40442 0
-40448 -40444 0
-40448 -40445 0
40448 40444 40445 0
-40446 -40447 0
-40446 -40448 0
-40446 -40449 0
40446 40447 40448 40449 0
-40450 -40451 0
-40450 -40452 0
-40450 -40453 0
-40450 -40454 0
40450 40451 40452 40453 40454 0
-40455 -40456 0
-40455 -40457 0
40455 40456 40457 0
-40458 -40459 0
-40458 -40460 0
-40458 -40461 0
40458 40459 40460 40461 0
-40462 -40463 0
-40462 -40464 0
40462 40463 40464 0
-40465 -40466 0
-40465 -40467 0
40465 40466 40467 0
-40468 -40469 0
-40468 -40470 0
40468 40469 40470 0
-40471 -40472 0
-40471 -40473 0
40471 40472 40473 0
-40474 -40475 0
-40474 -40476 0
40474 40475 40476 0
-40477 -40478 0
-40477 -40479 0
40477 40478 40479 0
-40480 -40481 0
-40480 -40482 0
40480 40481 40482 0
-40483 -40484 0
-40483 -40485 0
40483 40484 40485 0
-40486 -40487 0
-40486 -40488 0
40486 40487 40488 0
-40489 -40490 0
-40489 -40491 0
40489 40490 40491 0
-40492 -40493 0
-40492 -40494 0
40492 40493 40494 0
-40495 -40496 0
-40495 -40497 0
40495 40496 40497 0
-40498 -40499 0
-40498 -40500 0
40498 40499 40500 0
-40501 -40502 0
-40501 -40503 0
40501 40502 40503 0
-40505 41190 0
40505 -41190 0
-40507 41193 0
40507 -41193 0
-40509 41196 0
40509 -41196 0
-40511 41199 0
40511 -41199 0
-40513 41202 0
40513 -41202 0
-40515 41205 0
40515 -41205 0
-40517 41208 0
40517 -41208 0
-40519 41211 0
40519 -41211 0
-40521 41657 0
40521 -41657 0
-40523 41145 0
40523 -41145 0
-40525 41148 0
40525 -41148 0
-40527 41151 0
40527 -41151 0
-40529 41154 0
40529 -41154 0
-40531 41157 0
40531 -41157 0
-40533 41160 0
40533 -41160 0
-40535 41163 0
40535 -41163 0
-40537 41094 0
40537 -41094 0
-40539 41097 0
40539 -41097 0
-40541 41100 0
40541 -41100 0
-40543 41103 0
40543 -41103 0
-40545 41106 0
40545 -41106 0
-40547 41109 0
40547 -41109 0
-40549 41112 0
40549 -41112 0
-40551 41656 0
40551 -41656 0
-40553 41919 0
40553 -41919 0
-40555 41674 0
40555 -41674 0
-40557 41965 0
40557 -41965 0
-40559 41660 0
40559 -41660 0
-40561 41678 0
40561 -41678 0
-40563 40828 0
40563 -40828 0
-40565 40564 0
40565 -40564 0
-40567 40846 0
40567 -40846 0
-40569 40900 0
40569 -40900 0
-40571 40993 0
40571 -40993 0
-40573 40873 0
40573 -40873 0
-40575 40840 0
40575 -40840 0
-40577 40864 0
40577 -40864 0
41043 40992 0
-41043 -40992 0
41719 41657 0
-41719 -41657 0
41968 41660 0
-41968 -41660 0
41908 41919 0
-41908 -41919 0
41017 40966 0
-41017 -40966 0
41692 40589 0
-41692 -40589 0
41911 41674 0
-41911 -41674 0
41712 41965 0
-41712 -41965 0
41918 41668 0
-41918 -41668 0
41928 41678 0
-41928 -41678 0
41681 41685 0
-41681 -41685 0
41542 41658 0
-41542 -41658 0
41704 41907 0
-41704 -41907 0
42191 41910 0
-42191 -41910 0
41029 41926 0
-41029 -41926 0
40608 41937 0
-40608 -41937 0
40610 41940 0
-40610 -41940 0
40612 41943 0
-40612 -41943 0
40614 41946 0
-40614 -41946 0
40616 41949 0
-40616 -41949 0
40618 41952 0
-40618 -41952 0
40620 41955 0
-40620 -41955 0
40622 41958 0
-40622 -41958 0
41709 41961 0
-41709 -41961 0
41732 41967 0
-41732 -41967 0
40635 41970 0
-40635 -41970 0
40630 41705 0
-40630 -41705 0
41801 40635 0
-41801 -40635 0
40641 40635 0
-40641 -40635 0
41068 41973 0
-41068 -41973 0
40645 41976 0
-40645 -41976 0
41872 40641 0
-41872 -40641 0
41380 40645 0
-41380 -40645 0
40687 40645 0
-40687 -40645 0
42001 41982 0
-42001 -41982 0
41116 41985 0
-41116 -41985 0
41736 41988 0
-41736 -41988 0
40695 41988 0
-40695 -41988 0
41287 41554 0
-41287 -41554 0
41118 41554 0
-41118 -41554 0
41293 41557 0
-41293 -41557 0
41121 41557 0
-41121 -41557 0
41299 41560 0
-41299 -41560 0
41124 41560 0
-41124 -41560 0
41305 41563 0
-41305 -41563 0
41127 41563 0
-41127 -41563 0
41311 41566 0
-41311 -41566 0
41130 41566 0
-41130 -41566 0
41317 41569 0
-41317 -41569 0
41133 41569 0
-41133 -41569 0
41323 41572 0
-41323 -41572 0
41136 41572 0
-41136 -41572 0
41329 41575 0
-41329 -41575 0
41139 41575 0
-41139 -41575 0
41407 40687 0
-41407 -40687 0
42003 41991 0
-42003 -41991 0
41383 41736 0
-41383 -41736 0
41440 40695 0
-41440 -40695 0
40713 40695 0
-40713 -40695 0
41214 41555 0
-41214 -41555 0
41217 41558 0
-41217 -41558 0
41220 41561 0
-41220 -41561 0
41223 41564 0
-41223 -41564 0
41226 41567 0
-41226 -41567 0
41229 41570 0
-41229 -41570 0
41232 41573 0
-41232 -41573 0
41235 41576 0
-41235 -41576 0
41284 40713 0
-41284 -40713 0
41239 41284 0
-41239 -41284 0
41242 41284 0
-41242 -41284 0
41245 41284 0
-41245 -41284 0
41248 41284 0
-41248 -41284 0
41251 41284 0
-41251 -41284 0
41254 41284 0
-41254 -41284 0
41257 41284 0
-41257 -41284 0
41260 41284 0
-41260 -41284 0
40730 42004 0
-40730 -42004 0
40732 42008 0
-40732 -42008 0
40734 42012 0
-40734 -42012 0
40736 42016 0
-40736 -42016 0
40738 42020 0
-40738 -42020 0
40740 42024 0
-40740 -42024 0
40742 42028 0
-40742 -42028 0
41334 41577 0
-41334 -41577 0
41340 41580 0
-41340 -41580 0
41346 41583 0
-41346 -41583 0
41352 41586 0
-41352 -41586 0
41358 41589 0
-41358 -41589 0
41364 41592 0
-41364 -41592 0
41370 41595 0
-41370 -41595 0
41376 41598 0
-41376 -41598 0
41750 41337 0
-41750 -41337 0
42066 41349 0
-42066 -41349 0
41820 41367 0
-41820 -41367 0
41848 41373 0
-41848 -41373 0
41412 41735 0
-41412 -41735 0
42084 41604 0
-42084 -41604 0
41415 41604 0
-41415 -41604 0
41445 41774 0
-41445 -41774 0
42114 41745 0
-42114 -41745 0
41451 41745 0
-41451 -41745 0
41478 41752 0
-41478 -41752 0
41481 41785 0
-41481 -41785 0
41644 41619 0
-41644 -41619 0
41469 41619 0
-41469 -41619 0
41502 41622 0
-41502 -41622 0
42124 41737 0
-42124 -41737 0
41762 41743 0
-41762 -41743 0
41443 41748 0
-41443 -41748 0
42122 41751 0
-42122 -41751 0
41446 42086 0
-41446 -42086 0
41822 41766 0
-41822 -41766 0
41449 41446 0
-41449 -41446 0
41823 41769 0
-41823 -41769 0
41473 41805 0
-41473 -41805 0
41826 41811 0
-41826 -41811 0
41476 41819 0
-41476 -41819 0
41479 42116 0
-41479 -42116 0
41482 42120 0
-41482 -42120 0
41485 41479 0
-41485 -41479 0
40818 42128 0
-40818 -42128 0
41645 41824 0
-41645 -41824 0
41494 41482 0
-41494 -41482 0
41512 41846 0
-41512 -41846 0
-41992 40992 0
-41992 40828 0
41992 -40992 -40828 0
-41930 40947 0
-41930 41163 0
41930 -40947 -41163 0
-42140 40971 0
-42140 42002 0
42140 -40971 -42002 0
-41904 40947 0
-41904 41657 0
41904 -40947 -41657 0
-41989 40992 0
-41989 40840 0
41989 -40992 -40840 0
-41923 40947 0
-41923 41154 0
41923 -40947 -41154 0
-41974 40992 0
-41974 40846 0
41974 -40992 -40846 0
-41893 40944 0
-41893 41112 0
41893 -40944 -41112 0
-41931 40944 0
-41931 41656 0
41931 -40944 -41656 0
-41896 40947 0
-41896 41151 0
41896 -40947 -41151 0
-42152 40983 0
-42152 42002 0
42152 -40983 -42002 0
-41915 40944 0
-41915 41109 0
41915 -40944 -41109 0
-41971 40992 0
-41971 40864 0
41971 -40992 -40864 0
-41894 40959 0
-41894 41208 0
41894 -40959 -41208 0
-41925 40959 0
-41925 41202 0
41925 -40959 -41202 0
-41977 40992 0
-41977 40873 0
41977 -40992 -40873 0
-41892 40947 0
-41892 41160 0
41892 -40947 -41160 0
-42164 40980 0
-42164 42002 0
42164 -40980 -42002 0
-41935 40944 0
-41935 41097 0
41935 -40944 -41097 0
-41898 40959 0
-41898 41199 0
41898 -40959 -41199 0
-42146 40974 0
-42146 42002 0
42146 -40974 -42002 0
-41897 40944 0
-41897 41103 0
41897 -40944 -41103 0
-41916 40959 0
-41916 41205 0
41916 -40959 -41205 0
-41902 40959 0
-41902 41196 0
41902 -40959 -41196 0
-41986 40992 0
-41986 40900 0
41986 -40992 -40900 0
-42170 40986 0
-42170 42002 0
42170 -40986 -42002 0
-41906 40959 0
-41906 41190 0
41906 -40959 -41190 0
-41901 40944 0
-41901 41100 0
41901 -40944 -41100 0
-41942 40971 0
-41942 40966 0
41942 -40971 -40966 0
-41945 40974 0
-41945 40966 0
41945 -40974 -40966 0
-41951 40980 0
-41951 40966 0
41951 -40980 -40966 0
-41954 40983 0
-41954 40966 0
41954 -40983 -40966 0
-41957 40986 0
-41957 40966 0
41957 -40986 -40966 0
-41900 40947 0
-41900 41148 0
41900 -40947 -41148 0
-41905 40944 0
-41905 41094 0
41905 -40944 -41094 0
-41909 41674 0
-41909 41965 0
41909 -41674 -41965 0
-41999 40989 0
-41999 42002 0
41999 -40989 -42002 0
-41960 40989 0
-41960 40966 0
41960 -40989 -40966 0
-41914 40947 0
-41914 41157 0
41914 -40947 -41157 0
-41924 40944 0
-41924 41106 0
41924 -40944 -41106 0
-41934 40947 0
-41934 41145 0
41934 -40947 -41145 0
-42134 40968 0
-42134 42002 0
42134 -40968 -42002 0
-41939 40968 0
-41939 40966 0
41939 -40968 -40966 0
-41932 40959 0
-41932 41211 0
41932 -40959 -41211 0
-41936 40959 0
-41936 41193 0
41936 -40959 -41193 0
-42158 40977 0
-42158 42002 0
42158 -40977 -42002 0
-41948 40977 0
-41948 40966 0
41948 -40977 -40966 0
-42006 40968 0
-42006 41995 0
42006 -40968 -41995 0
-42010 40971 0
-42010 41995 0
42010 -40971 -41995 0
-42014 40974 0
-42014 41995 0
42014 -40974 -41995 0
-42018 40977 0
-42018 41995 0
42018 -40977 -41995 0
-42022 40980 0
-42022 41995 0
42022 -40980 -41995 0
-42026 40983 0
-42026 41995 0
42026 -40983 -41995 0
-42030 40986 0
-42030 41995 0
42030 -40986 -41995 0
-42130 40989 0
-42130 41995 0
42130 -40989 -41995 0
-41983 40992 0
-41983 40993 0
41983 -40992 -40993 0
-41938 41094 0
-41938 41017 0
41938 -41094 -41017 0
-41941 41097 0
-41941 41017 0
41941 -41097 -41017 0
-41944 41100 0
-41944 41017 0
41944 -41100 -41017 0
-41947 41103 0
-41947 41017 0
41947 -41103 -41017 0
-41950 41106 0
-41950 41017 0
41950 -41106 -41017 0
-41953 41109 0
-41953 41017 0
41953 -41109 -41017 0
-41956 41112 0
-41956 41017 0
41956 -41112 -41017 0
-41959 41656 0
-41959 41017 0
41959 -41656 -41017 0
-41969 41664 0
-41969 41688 0
41969 -41664 -41688 0
-41972 41043 0
-41972 41676 0
41972 -41043 -41676 0
-41975 41043 0
-41975 41689 0
41975 -41043 -41689 0
-41978 41043 0
-41978 41029 0
41978 -41043 -41029 0
-41981 42193 0
-41981 42192 0
41981 -42193 -42192 0
-41984 41043 0
-41984 41708 0
41984 -41043 -41708 0
-41987 41043 0
-41987 41717 0
41987 -41043 -41717 0
-41990 41043 0
-41990 41721 0
41990 -41043 -41721 0
-41993 41043 0
-41993 41979 0
41993 -41043 -41979 0
-41554 41190 0
-41554 41068 0
41554 -41190 -41068 0
-41557 41193 0
-41557 41068 0
41557 -41193 -41068 0
-41560 41196 0
-41560 41068 0
41560 -41196 -41068 0
-41563 41199 0
-41563 41068 0
41563 -41199 -41068 0
-41566 41202 0
-41566 41068 0
41566 -41202 -41068 0
-41569 41205 0
-41569 41068 0
41569 -41205 -41068 0
-41572 41208 0
-41572 41068 0
41572 -41208 -41068 0
-41575 41211 0
-41575 41068 0
41575 -41211 -41068 0
-41998 41729 0
-41998 42001 0
41998 -41729 -42001 0
-42005 41145 0
-42005 42001 0
42005 -41145 -42001 0
-42009 41148 0
-42009 42001 0
42009 -41148 -42001 0
-42013 41151 0
-42013 42001 0
42013 -41151 -42001 0
-42017 41154 0
-42017 42001 0
42017 -41154 -42001 0
-42021 41157 0
-42021 42001 0
42021 -41157 -42001 0
-42025 41160 0
-42025 42001 0
42025 -41160 -42001 0
-42029 41163 0
-42029 42001 0
42029 -41163 -42001 0
-41555 41094 0
-41555 41116 0
41555 -41094 -41116 0
-41558 41097 0
-41558 41116 0
41558 -41097 -41116 0
-41561 41100 0
-41561 41116 0
41561 -41100 -41116 0
-41564 41103 0
-41564 41116 0
41564 -41103 -41116 0
-41567 41106 0
-41567 41116 0
41567 -41106 -41116 0
-41570 41109 0
-41570 41116 0
41570 -41109 -41116 0
-41573 41112 0
-41573 41116 0
41573 -41112 -41116 0
-41576 41656 0
-41576 41116 0
41576 -41656 -41116 0
-42034 41118 0
-42034 41407 0
42034 -41118 -41407 0
-42037 41121 0
-42037 41407 0
42037 -41121 -41407 0
-42040 41124 0
-42040 41407 0
42040 -41124 -41407 0
-42043 41127 0
-42043 41407 0
42043 -41127 -41407 0
-42046 41130 0
-42046 41407 0
42046 -41130 -41407 0
-42049 41133 0
-42049 41407 0
42049 -41133 -41407 0
-42052 41136 0
-42052 41407 0
42052 -41136 -41407 0
-42055 41139 0
-42055 41407 0
42055 -41139 -41407 0
-42007 41657 0
-42007 41994 0
42007 -41657 -41994 0
-42011 41145 0
-42011 41994 0
42011 -41145 -41994 0
-42015 41148 0
-42015 41994 0
42015 -41148 -41994 0
-42019 41151 0
-42019 41994 0
42019 -41151 -41994 0
-42023 41154 0
-42023 41994 0
42023 -41154 -41994 0
-42027 41157 0
-42027 41994 0
42027 -41157 -41994 0
-42031 41160 0
-42031 41994 0
42031 -41160 -41994 0
-42131 41163 0
-42131 41994 0
42131 -41163 -41994 0
-42033 41553 0
-42033 41380 0
42033 -41553 -41380 0
-42036 41556 0
-42036 41380 0
42036 -41556 -41380 0
-42039 41559 0
-42039 41380 0
42039 -41559 -41380 0
-42042 41562 0
-42042 41380 0
42042 -41562 -41380 0
-42045 41565 0
-42045 41380 0
42045 -41565 -41380 0
-42048 41568 0
-42048 41380 0
42048 -41568 -41380 0
-42051 41571 0
-42051 41380 0
42051 -41571 -41380 0
-42054 41574 0
-42054 41380 0
42054 -41574 -41380 0
-42126 41190 0
-42126 42000 0
42126 -41190 -42000 0
-42136 41193 0
-42136 42000 0
42136 -41193 -42000 0
-42142 41196 0
-42142 42000 0
42142 -41196 -42000 0
-42148 41199 0
-42148 42000 0
42148 -41199 -42000 0
-42160 41202 0
-42160 42000 0
42160 -41202 -42000 0
-42166 41205 0
-42166 42000 0
42166 -41205 -42000 0
-42154 41208 0
-42154 42000 0
42154 -41208 -42000 0
-42172 41211 0
-42172 42000 0
42172 -41211 -42000 0
-41579 41214 0
-41579 41284 0
41579 -41214 -41284 0
-41582 41217 0
-41582 41284 0
41582 -41217 -41284 0
-41585 41220 0
-41585 41284 0
41585 -41220 -41284 0
-41588 41223 0
-41588 41284 0
41588 -41223 -41284 0
-41591 41226 0
-41591 41284 0
41591 -41226 -41284 0
-41594 41229 0
-41594 41284 0
41594 -41229 -41284 0
-41597 41232 0
-41597 41284 0
41597 -41232 -41284 0
-41600 41235 0
-41600 41284 0
41600 -41235 -41284 0
-41578 41555 0
-41578 41239 0
41578 -41555 -41239 0
-41581 41558 0
-41581 41242 0
41581 -41558 -41242 0
-41584 41561 0
-41584 41245 0
41584 -41561 -41245 0
-41587 41564 0
-41587 41248 0
41587 -41564 -41248 0
-41590 41567 0
-41590 41251 0
41590 -41567 -41251 0
-41593 41570 0
-41593 41254 0
41593 -41570 -41254 0
-41596 41573 0
-41596 41257 0
41596 -41573 -41257 0
-41599 41576 0
-41599 41260 0
41599 -41576 -41260 0
-42091 42032 0
-42091 41284 0
42091 -42032 -41284 0
-42094 42035 0
-42094 41284 0
42094 -42035 -41284 0
-42097 42038 0
-42097 41284 0
42097 -42038 -41284 0
-42100 42041 0
-42100 41284 0
42100 -42041 -41284 0
-42103 42044 0
-42103 41284 0
42103 -42044 -41284 0
-42106 42047 0
-42106 41284 0
42106 -42047 -41284 0
-42109 42050 0
-42109 41284 0
42109 -42050 -41284 0
-42112 42053 0
-42112 41284 0
42112 -42053 -41284 0
-41602 41577 0
-41602 41287 0
41602 -41577 -41287 0
-41337 41577 0
-41337 41554 0
41337 -41577 -41554 0
-41605 41580 0
-41605 41293 0
41605 -41580 -41293 0
-42087 41580 0
-42087 41557 0
42087 -41580 -41557 0
-41608 41583 0
-41608 41299 0
41608 -41583 -41299 0
-41349 41583 0
-41349 41560 0
41349 -41583 -41560 0
-41611 41586 0
-41611 41305 0
41611 -41586 -41305 0
-42117 41586 0
-42117 41563 0
42117 -41586 -41563 0
-41614 41589 0
-41614 41311 0
41614 -41589 -41311 0
-42123 41589 0
-42123 41566 0
42123 -41589 -41566 0
-41617 41592 0
-41617 41317 0
41617 -41592 -41317 0
-41367 41592 0
-41367 41569 0
41367 -41592 -41569 0
-41620 41595 0
-41620 41323 0
41620 -41595 -41323 0
-41373 41595 0
-41373 41572 0
41373 -41595 -41572 0
-41623 41598 0
-41623 41329 0
41623 -41598 -41329 0
-41379 41598 0
-41379 41575 0
41379 -41598 -41575 0
-41603 41334 0
-41603 41554 0
41603 -41334 -41554 0
-42057 41337 0
-42057 41380 0
42057 -41337 -41380 0
-41606 41340 0
-41606 41557 0
41606 -41340 -41557 0
-42060 42087 0
-42060 41380 0
42060 -42087 -41380 0
-41609 41346 0
-41609 41560 0
41609 -41346 -41560 0
-42063 41349 0
-42063 41380 0
42063 -41349 -41380 0
-41612 41352 0
-41612 41563 0
41612 -41352 -41563 0
-42069 42117 0
-42069 41380 0
42069 -42117 -41380 0
-41615 41358 0
-41615 41566 0
41615 -41358 -41566 0
-42072 42123 0
-42072 41380 0
42072 -42123 -41380 0
-41618 41364 0
-41618 41569 0
41618 -41364 -41569 0
-42075 41367 0
-42075 41380 0
42075 -41367 -41380 0
-41621 41370 0
-41621 41572 0
41621 -41370 -41572 0
-42078 41373 0
-42078 41380 0
42078 -41373 -41380 0
-41624 41376 0
-41624 41575 0
41624 -41376 -41575 0
-42081 41379 0
-42081 41380 0
42081 -41379 -41380 0
-41626 41735 0
-41626 41383 0
41626 -41735 -41383 0
-42058 41735 0
-42058 41407 0
42058 -41735 -41407 0
-42061 41604 0
-42061 41407 0
42061 -41604 -41407 0
-42064 41774 0
-42064 41407 0
42064 -41774 -41407 0
-42070 41745 0
-42070 41407 0
42070 -41745 -41407 0
-42073 41752 0
-42073 41407 0
42073 -41752 -41407 0
-42076 41785 0
-42076 41407 0
42076 -41785 -41407 0
-42079 41619 0
-42079 41407 0
42079 -41619 -41407 0
-42082 41622 0
-42082 41407 0
42082 -41622 -41407 0
-42085 41750 0
-42085 41749 0
42085 -41750 -41749 0
-41627 41412 0
-41627 41736 0
41627 -41412 -41736 0
-41633 41415 0
-41633 41748 0
41633 -41415 -41748 0
-42090 42056 0
-42090 41440 0
42090 -42056 -41440 0
-42093 42059 0
-42093 41440 0
42093 -42059 -41440 0
-42096 42062 0
-42096 41440 0
42096 -42062 -41440 0
-42099 42068 0
-42099 41440 0
42099 -42068 -41440 0
-42102 42071 0
-42102 41440 0
42102 -42071 -41440 0
-42105 42074 0
-42105 41440 0
42105 -42074 -41440 0
-42108 42077 0
-42108 41440 0
42108 -42077 -41440 0
-42111 42080 0
-42111 41440 0
42111 -42080 -41440 0
-41632 41604 0
-41632 41443 0
41632 -41604 -41443 0
-41636 41445 0
-41636 41446 0
41636 -41445 -41446 0
-41635 41774 0
-41635 41449 0
41635 -41774 -41449 0
-41639 41451 0
-41639 41805 0
41639 -41451 -41805 0
-42121 41752 0
-42121 42118 0
42121 -41752 -42118 0
-42127 41808 0
-42127 42003 0
42127 -41808 -42003 0
-42129 41808 0
-42129 42001 0
42129 -41808 -42001 0
-42133 41816 0
-42133 42001 0
42133 -41816 -42001 0
-42137 41816 0
-42137 42003 0
42137 -41816 -42003 0
-41642 41469 0
-41642 41819 0
41642 -41469 -41819 0
-41638 41745 0
-41638 41473 0
41638 -41745 -41473 0
-41641 41619 0
-41641 41476 0
41641 -41619 -41476 0
-41648 41478 0
-41648 41479 0
41648 -41478 -41479 0
-41651 41481 0
-41651 41482 0
41651 -41481 -41482 0
-41647 41752 0
-41647 41485 0
41647 -41752 -41485 0
-42139 41834 0
-42139 42001 0
42139 -41834 -42001 0
-42143 41834 0
-42143 42003 0
42143 -41834 -42003 0
-41650 41785 0
-41650 41494 0
41650 -41785 -41494 0
-42145 41843 0
-42145 42001 0
42145 -41843 -42001 0
-42149 41843 0
-42149 42003 0
42149 -41843 -42003 0
-41654 41502 0
-41654 41846 0
41654 -41502 -41846 0
-42151 41849 0
-42151 42001 0
42151 -41849 -42001 0
-42155 41849 0
-42155 42003 0
42155 -41849 -42003 0
-41653 41622 0
-41653 41512 0
41653 -41622 -41512 0
-42157 41861 0
-42157 42001 0
42157 -41861 -42001 0
-42161 41861 0
-42161 42003 0
42161 -41861 -42003 0
-42163 41867 0
-42163 42001 0
42163 -41867 -42001 0
-42167 41867 0
-42167 42003 0
42167 -41867 -42003 0
-42169 41876 0
-42169 42001 0
42169 -41876 -42001 0
-42173 41876 0
-42173 42003 0
42173 -41876 -42003 0
41683 -41656 0
41683 -41657 0
-41683 41656 41657 0
41687 -41674 0
41687 -41712 0
-41687 41674 41712 0
41723 -41692 0
41723 -41928 0
-41723 41692 41928 0
41694 -41681 0
41694 -41542 0
-41694 41681 41542 0
41703 -41911 0
41703 -41664 0
-41703 41911 41664 0
41706 -41961 0
41706 -41966 0
-41706 41961 41966 0
41722 -42191 0
41722 -41719 0
41722 -41678 0
-41722 42191 41719 41678 0
41553 -41554 0
41553 -41555 0
-41553 41554 41555 0
41556 -41557 0
41556 -41558 0
-41556 41557 41558 0
41559 -41560 0
41559 -41561 0
-41559 41560 41561 0
41562 -41563 0
41562 -41564 0
-41562 41563 41564 0
41565 -41566 0
41565 -41567 0
-41565 41566 41567 0
41568 -41569 0
41568 -41570 0
-41568 41569 41570 0
41571 -41572 0
41571 -41573 0
-41571 41572 41573 0
41574 -41575 0
41574 -41576 0
-41574 41575 41576 0
41577 -41578 0
41577 -41579 0
-41577 41578 41579 0
41580 -41581 0
41580 -41582 0
-41580 41581 41582 0
41583 -41584 0
41583 -41585 0
-41583 41584 41585 0
41586 -41587 0
41586 -41588 0
-41586 41587 41588 0
41589 -41590 0
41589 -41591 0
-41589 41590 41591 0
41592 -41593 0
41592 -41594 0
-41592 41593 41594 0
41595 -41596 0
41595 -41597 0
-41595 41596 41597 0
41598 -41599 0
41598 -41600 0
-41598 41599 41600 0
41735 -41602 0
41735 -41603 0
-41735 41602 41603 0
41604 -41605 0
41604 -41606 0
-41604 41605 41606 0
41774 -41608 0
41774 -41609 0
-41774 41608 41609 0
41745 -41611 0
41745 -41612 0
-41745 41611 41612 0
41752 -41614 0
41752 -41615 0
-41752 41614 41615 0
41785 -41617 0
41785 -41618 0
-41785 41617 41618 0
41619 -41620 0
41619 -41621 0
-41619 41620 41621 0
41622 -41623 0
41622 -41624 0
-41622 41623 41624 0
41764 -41626 0
41764 -41627 0
-41764 41626 41627 0
41773 -42087 0
41773 -42088 0
-41773 42087 42088 0
41803 -41632 0
41803 -41633 0
-41803 41632 41633 0
41829 -41635 0
41829 -41636 0
-41829 41635 41636 0
41838 -41638 0
41838 -41639 0
-41838 41638 41639 0
41841 -41641 0
41841 -41642 0
-41841 41641 41642 0
41847 -41644 0
41847 -41645 0
-41847 41644 41645 0
41853 -41647 0
41853 -41648 0
-41853 41647 41648 0
41859 -41650 0
41859 -41651 0
-41859 41650 41651 0
41871 -41653 0
41871 -41654 0
-41871 41653 41654 0
41685 41656 0
41685 41657 0
-41685 -41656 -41657 0
41658 41919 0
41658 41660 0
-41658 -41919 -41660 0
41912 41919 0
41912 41965 0
-41912 -41919 -41965 0
41664 41908 0
41664 41965 0
-41664 -41908 -41965 0
41963 41668 0
41963 41692 0
-41963 -41668 -41692 0
41966 41908 0
41966 41911 0
-41966 -41908 -41911 0
41688 41674 0
41688 41712 0
-41688 -41674 -41712 0
41676 41918 0
41676 41678 0
-41676 -41918 -41678 0
41730 41912 0
41730 41681 0
-41730 -41912 -41681 0
41733 41683 0
41733 41910 0
41733 41685 0
-41733 -41683 -41910 -41685 0
41686 41687 0
41686 41688 0
-41686 -41687 -41688 0
41689 41911 0
41689 41917 0
41689 41692 0
-41689 -41911 -41917 -41692 0
41731 41694 0
41731 41911 0
-41731 -41694 -41911 0
42193 41962 0
42193 41964 0
-42193 -41962 -41964 0
42192 41963 0
42192 41964 0
-42192 -41963 -41964 0
41702 41703 0
41702 41704 0
-41702 -41703 -41704 0
41705 41706 0
41705 41712 0
-41705 -41706 -41712 0
41708 41709 0
41708 41911 0
41708 41908 0
41708 41712 0
-41708 -41709 -41911 -41908 -41712 0
41713 42191 0
41713 42193 0
41713 42192 0
-41713 -42191 -42193 -42192 0
41717 42192 0
41717 41719 0
41717 42193 0
-41717 -42192 -41719 -42193 0
41721 41722 0
41721 41723 0
-41721 -41722 -41723 0
41724 41730 0
41724 41732 0
41724 41731 0
41724 41733 0
-41724 -41730 -41732 -41731 -41733 0
41729 41730 0
41729 41731 0
41729 41732 0
41729 41733 0
-41729 -41730 -41731 -41732 -41733 0
41749 41735 0
41749 41736 0
-41749 -41735 -41736 0
41737 42117 0
41737 41752 0
-41737 -42117 -41752 0
41825 42123 0
41825 41785 0
-41825 -42123 -41785 0
41743 41785 0
41743 41745 0
41743 41752 0
41743 41774 0
-41743 -41785 -41745 -41752 -41774 0
41748 41749 0
41748 41750 0
-41748 -41749 -41750 0
41751 41752 0
41751 42119 0
-41751 -41752 -42119 0
41815 41785 0
41815 42124 0
-41815 -41785 -42124 0
41814 42087 0
41814 41762 0
-41814 -42087 -41762 0
41827 42088 0
41827 41762 0
-41827 -42088 -41762 0
41809 41764 0
41809 41872 0
-41809 -41764 -41872 0
41766 41825 0
41766 41814 0
-41766 -41825 -41814 0
41769 41815 0
41769 41827 0
-41769 -41815 -41827 0
42115 41773 0
42115 41774 0
-42115 -41773 -41774 0
41810 42089 0
41810 41801 0
-41810 -42089 -41801 0
41818 42092 0
41818 41801 0
-41818 -42092 -41801 0
41836 42095 0
41836 41801 0
-41836 -42095 -41801 0
41821 41785 0
41821 42122 0
-41821 -41785 -42122 0
41845 42098 0
41845 41801 0
-41845 -42098 -41801 0
41863 42101 0
41863 41801 0
-41863 -42101 -41801 0
41869 42104 0
41869 41801 0
-41869 -42104 -41801 0
41851 42107 0
41851 41801 0
-41851 -42107 -41801 0
41878 42110 0
41878 41801 0
-41878 -42110 -41801 0
41817 41803 0
41817 41872 0
-41817 -41803 -41872 0
41805 42066 0
41805 42115 0
-41805 -42066 -42115 0
41808 41809 0
41808 41810 0
-41808 -41809 -41810 0
41811 41820 0
41811 41821 0
41811 41814 0
41811 41815 0
-41811 -41820 -41821 -41814 -41815 0
41816 41817 0
41816 41818 0
-41816 -41817 -41818 0
41819 41820 0
41819 41821 0
41819 41822 0
41819 41823 0
-41819 -41820 -41821 -41822 -41823 0
41824 41825 0
41824 41826 0
41824 41827 0
-41824 -41825 -41826 -41827 0
41835 41829 0
41835 41872 0
-41835 -41829 -41872 0
41831 42132 0
41831 42125 0
-41831 -42132 -42125 0
41834 41835 0
41834 41836 0
-41834 -41835 -41836 0
41844 41838 0
41844 41872 0
-41844 -41838 -41872 0
41850 41841 0
41850 41872 0
-41850 -41841 -41872 0
41843 41844 0
41843 41845 0
-41843 -41844 -41845 0
41846 41847 0
41846 41848 0
-41846 -41847 -41848 0
41849 41850 0
41849 41851 0
-41849 -41850 -41851 0
41862 41853 0
41862 41872 0
-41862 -41853 -41872 0
41855 42138 0
41855 42135 0
-41855 -42138 -42135 0
41868 41859 0
41868 41872 0
-41868 -41859 -41872 0
41861 41862 0
41861 41863 0
-41861 -41862 -41863 0
41864 42144 0
41864 42141 0
-41864 -42144 -42141 0
41867 41868 0
41867 41869 0
-41867 -41868 -41869 0
41877 41871 0
41877 41872 0
-41877 -41871 -41872 0
41873 42156 0
41873 42147 0
-41873 -42156 -42147 0
41876 41877 0
41876 41878 0
-41876 -41877 -41878 0
41879 42162 0
41879 42159 0
-41879 -42162 -42159 0
41882 42150 0
41882 42165 0
-41882 -42150 -42165 0
41885 42168 0
41885 42153 0
-41885 -42168 -42153 0
41888 41997 0
41888 42171 0
-41888 -41997 -42171 0
-42175 -41892 0
-42175 -41893 0
-42175 -41894 0
42175 41892 41893 41894 0
-42177 -41896 0
-42177 -41897 0
-42177 -41898 0
42177 41896 41897 41898 0
-42179 -41900 0
-42179 -41901 0
-42179 -41902 0
42179 41900 41901 41902 0
-42181 -41904 0
-42181 -41905 0
-42181 -41906 0
42181 41904 41905 41906 0
-41907 -41908 0
-41907 -41909 0
41907 41908 41909 0
-41910 -41911 0
-41910 -41912 0
41910 41911 41912 0
-42183 -41914 0
-42183 -41915 0
-42183 -41916 0
42183 41914 41915 41916 0
-41917 -41918 0
-41917 -41919 0
-41917 -41962 0
-41917 -41965 0
41917 41918 41919 41962 41965 0
-42185 -41923 0
-42185 -41924 0
-42185 -41925 0
42185 41923 41924 41925 0
-41926 -41962 0
-41926 -41928 0
41926 41962 41928 0
-42187 -41930 0
-42187 -41931 0
-42187 -41932 0
42187 41930 41931 41932 0
-42189 -41934 0
-42189 -41935 0
-42189 -41936 0
42189 41934 41935 41936 0
-41937 -41938 0
-41937 -41939 0
41937 41938 41939 0
-41940 -41941 0
-41940 -41942 0
41940 41941 41942 0
-41943 -41944 0
-41943 -41945 0
41943 41944 41945 0
-41946 -41947 0
-41946 -41948 0
41946 41947 41948 0
-41949 -41950 0
-41949 -41951 0
41949 41950 41951 0
-41952 -41953 0
-41952 -41954 0
41952 41953 41954 0
-41955 -41956 0
-41955 -41957 0
41955 41956 41957 0
-41958 -41959 0
-41958 -41960 0
41958 41959 41960 0
-41961 -41962 0
-41961 -41963 0
41961 41962 41963 0
-41964 -41965 0
-41964 -41966 0
41964 41965 41966 0
-41967 -41968 0
-41967 -41969 0
41967 41968 41969 0
-41970 -41971 0
-41970 -41972 0
41970 41971 41972 0
-41973 -41974 0
-41973 -41975 0
41973 41974 41975 0
-41976 -41977 0
-41976 -41978 0
41976 41977 41978 0
-41979 -42002 0
-41979 -41981 0
41979 42002 41981 0
-41982 -41983 0
-41982 -41984 0
41982 41983 41984 0
-41985 -41986 0
-41985 -41987 0
41985 41986 41987 0
-41988 -41989 0
-41988 -41990 0
41988 41989 41990 0
-41991 -41992 0
-41991 -41993 0
41991 41992 41993 0
-41994 -41995 0
-41994 -42001 0
41994 41995 42001 0
-41997 -41998 0
-41997 -41999 0
41997 41998 41999 0
-42000 -42001 0
-42000 -42002 0
-42000 -42003 0
42000 42001 42002 42003 0
-42004 -42005 0
-42004 -42006 0
-42004 -42007 0
42004 42005 42006 42007 0
-42008 -42009 0
-42008 -42010 0
-42008 -42011 0
42008 42009 42010 42011 0
-42012 -42013 0
-42012 -42014 0
-42012 -42015 0
42012 42013 42014 42015 0
-42016 -42017 0
-42016 -42018 0
-42016 -42019 0
42016 42017 42018 42019 0
-42020 -42021 0
-42020 -42022 0
-42020 -42023 0
42020 42021 42022 42023 0
-42024 -42025 0
-42024 -42026 0
-42024 -42027 0
42024 42025 42026 42027 0
-42028 -42029 0
-42028 -42030 0
-42028 -42031 0
42028 42029 42030 42031 0
-42032 -42033 0
-42032 -42034 0
42032 42033 42034 0
-42035 -42036 0
-42035 -42037 0
42035 42036 42037 0
-42038 -42039 0
-42038 -42040 0
42038 42039 42040 0
-42041 -42042 0
-42041 -42043 0
42041 42042 42043 0
-42044 -42045 0
-42044 -42046 0
42044 42045 42046 0
-42047 -42048 0
-42047 -42049 0
42047 42048 42049 0
-42050 -42051 0
-42050 -42052 0
42050 42051 42052 0
-42053 -42054 0
-42053 -42055 0
42053 42054 42055 0
-42056 -42057 0
-42056 -42058 0
42056 42057 42058 0
-42059 -42060 0
-42059 -42061 0
42059 42060 42061 0
-42062 -42063 0
-42062 -42064 0
42062 42063 42064 0
-42119 -42066 0
-42119 -42114 0
42119 42066 42114 0
-42068 -42069 0
-42068 -42070 0
42068 42069 42070 0
-42071 -42072 0
-42071 -42073 0
42071 42072 42073 0
-42074 -42075 0
-42074 -42076 0
42074 42075 42076 0
-42077 -42078 0
-42077 -42079 0
42077 42078 42079 0
-42080 -42081 0
-42080 -42082 0
42080 42081 42082 0
-42088 -42084 0
-42088 -42085 0
42088 42084 42085 0
-42086 -42087 0
-42086 -42088 0
42086 42087 42088 0
-42089 -42090 0
-42089 -42091 0
42089 42090 42091 0
-42092 -42093 0
-42092 -42094 0
42092 42093 42094 0
-42095 -42096 0
-42095 -42097 0
42095 42096 42097 0
-42098 -42099 0
-42098 -42100 0
42098 42099 42100 0
-42101 -42102 0
-42101 -42103 0
42101 42102 42103 0
-42104 -42105 0
-42104 -42106 0
42104 42105 42106 0
-42107 -42108 0
-42107 -42109 0
42107 42108 42109 0
-42110 -42111 0
-42110 -42112 0
42110 42111 42112 0
-42118 -42114 0
-42118 -42115 0
42118 42114 42115 0
-42116 -42117 0
-42116 -42118 0
-42116 -42119 0
42116 42117 42118 42119 0
-42120 -42121 0
-42120 -42122 0
-42120 -42123 0
-42120 -42124 0
42120 42121 42122 42123 42124 0
-42125 -42126 0
-42125 -42127 0
42125 42126 42127 0
-42128 -42129 0
-42128 -42130 0
-42128 -42131 0
42128 42129 42130 42131 0
-42132 -42133 0
-42132 -42134 0
42132 42133 42134 0
-42135 -42136 0
-42135 -42137 0
42135 42136 42137 0
-42138 -42139 0
-42138 -42140 0
42138 42139 42140 0
-42141 -42142 0
-42141 -42143 0
42141 42142 42143 0
-42144 -42145 0
-42144 -42146 0
42144 42145 42146 0
-42147 -42148 0
-42147 -42149 0
42147 42148 42149 0
-42150 -42151 0
-42150 -42152 0
42150 42151 42152 0
-42153 -42154 0
-42153 -42155 0
42153 42154 42155 0
-42156 -42157 0
-42156 -42158 0
42156 42157 42158 0
-42159 -42160 0
-42159 -42161 0
42159 42160 42161 0
-42162 -42163 0
-42162 -42164 0
42162 42163 42164 0
-42165 -42166 0
-42165 -42167 0
42165 42166 42167 0
-42168 -42169 0
-42168 -42170 0
42168 42169 42170 0
-42171 -42172 0
-42171 -42173 0
42171 42172 42173 0
42174 42175 0
-42174 -42175 0
42176 42177 0
-42176 -42177 0
42178 42179 0
-42178 -42179 0
42180 42181 0
-42180 -42181 0
42182 42183 0
-42182 -42183 0
42184 42185 0
-42184 -42185 0
42186 42187 0
-42186 -42187 0
42188 42189 0
-42188 -42189 0
42190 42191 0
42190 42192 0
42190 42193 0
-42190 -42191 -42192 -42193 0
-42180 0
460 0