p cnf 49293 48864
-1950 0
-2134 0
-516 0
-2037 0
-2043 0
-524 0
-2049 0
-530 0
-2055 0
-2061 0
-2067 0
-2073 0
-931 0
-1567 0
-554 0
-2079 0
-2085 0
-564 0
-568 0
-2091 0
-2097 0
-2103 0
-2109 0
-2115 0
-2121 0
-1947 0
-1946 0
-1945 0
-1944 0
-2143 0
-2149 0
-2155 0
-2161 0
-2167 0
-2173 0
-2179 0
-2185 0
-2191 0
-2197 0
-2203 0
-2209 0
-1595 0
-2215 0
-1598 0
-2221 0
-2227 0
-2233 0
-2239 0
-2245 0
-2247 0
-2248 0
-2249 0
-2255 0
-2261 0
-2267 0
-2273 0
-2279 0
-2281 0
-2282 0
-2283 0
-2284 0
-2023 0
-1714 0
-1723 0
-2293 0
-1798 0
-1804 0
-1801 0
-1373 0
-1376 0
-550 0
-826 0
-2313 0
-832 0
508 1951 0
-508 -1951 0
2315 508 0
-2315 -508 0
512 2135 0
-512 -2135 0
2317 512 0
-2317 -512 0
850 1832 0
-850 -1832 0
1853 516 0
-1853 -516 0
853 1832 0
-853 -1832 0
859 1832 0
-859 -1832 0
865 1832 0
-865 -1832 0
1859 524 0
-1859 -524 0
868 1832 0
-868 -1832 0
886 1832 0
-886 -1832 0
1865 530 0
-1865 -530 0
889 1832 0
-889 -1832 0
895 1832 0
-895 -1832 0
901 1832 0
-901 -1832 0
907 1832 0
-907 -1832 0
913 1832 0
-913 -1832 0
934 1832 0
-934 -1832 0
933 1567 0
-933 -1567 0
1871 931 0
-1871 -931 0
1440 1825 0
-1440 -1825 0
1825 550 0
-1825 -550 0
940 1832 0
-940 -1832 0
1877 554 0
-1877 -554 0
943 1832 0
-943 -1832 0
949 1832 0
-949 -1832 0
981 2085 0
-981 -2085 0
961 1832 0
-961 -1832 0
1883 564 0
-1883 -564 0
964 1832 0
-964 -1832 0
1889 568 0
-1889 -568 0
967 1832 0
-967 -1832 0
997 1019 0
-997 -1019 0
1003 1019 0
-1003 -1019 0
1009 1019 0
-1009 -1019 0
1015 1019 0
-1015 -1019 0
1024 1019 0
-1024 -1019 0
1897 1941 0
-1897 -1941 0
1054 1832 0
-1054 -1832 0
1511 1529 0
-1511 -1529 0
1060 1832 0
-1060 -1832 0
1517 1529 0
-1517 -1529 0
1066 1832 0
-1066 -1832 0
1523 1529 0
-1523 -1529 0
1072 1832 0
-1072 -1832 0
1532 1529 0
-1532 -1529 0
1544 1574 0
-1544 -1574 0
1550 1574 0
-1550 -1574 0
1556 1828 0
-1556 -1828 0
1562 1828 0
-1562 -1828 0
1828 1376 0
-1828 -1376 0
1568 1819 0
-1568 -1819 0
1577 1574 0
-1577 -1574 0
1096 1578 0
-1096 -1578 0
1102 1578 0
-1102 -1578 0
1108 1578 0
-1108 -1578 0
1124 1581 0
-1124 -1581 0
1130 1581 0
-1130 -1581 0
1136 1581 0
-1136 -1581 0
1148 1584 0
-1148 -1584 0
1154 1584 0
-1154 -1584 0
1160 1832 0
-1160 -1832 0
1175 1587 0
-1175 -1587 0
1181 1587 0
-1181 -1587 0
1187 1832 0
-1187 -1832 0
1208 1832 0
-1208 -1832 0
1211 1832 0
-1211 -1832 0
1223 1598 0
-1223 -1598 0
1217 1832 0
-1217 -1832 0
1226 2221 0
-1226 -2221 0
1220 1832 0
-1220 -1832 0
1225 1783 0
-1225 -1783 0
1230 1954 0
-1230 -1954 0
1236 1954 0
-1236 -1954 0
1242 1954 0
-1242 -1954 0
1248 1954 0
-1248 -1954 0
1955 1832 0
-1955 -1832 0
1607 1619 0
-1607 -1619 0
1613 1619 0
-1613 -1619 0
1622 1619 0
-1622 -1619 0
1628 1637 0
-1628 -1637 0
1634 1637 0
-1634 -1637 0
1640 1637 0
-1640 -1637 0
1637 1595 0
-1637 -1595 0
1281 1333 0
-1281 -1333 0
1287 1333 0
-1287 -1333 0
1293 1333 0
-1293 -1333 0
1299 1333 0
-1299 -1333 0
1305 1333 0
-1305 -1333 0
1667 1724 0
-1667 -1724 0
1673 1724 0
-1673 -1724 0
1679 1724 0
-1679 -1724 0
1685 1724 0
-1685 -1724 0
1338 1333 0
-1338 -1333 0
1341 2285 0
-1341 -2285 0
1847 2290 0
-1847 -2290 0
1711 1709 0
-1711 -1709 0
1718 1724 0
-1718 -1724 0
1727 1724 0
-1727 -1724 0
1735 2215 0
-1735 -2215 0
2220 2024 0
-2220 -2024 0
1733 1819 0
-1733 -1819 0
1739 1819 0
-1739 -1819 0
1745 1819 0
-1745 -1819 0
1751 1819 0
-1751 -1819 0
1757 1819 0
-1757 -1819 0
1763 1819 0
-1763 -1819 0
1769 1819 0
-1769 -1819 0
1775 1819 0
-1775 -1819 0
1781 1819 0
-1781 -1819 0
1787 1819 0
-1787 -1819 0
1819 1373 0
-1819 -1373 0
1380 1832 0
-1380 -1832 0
2292 1379 0
-2292 -1379 0
738 736 0
-738 -736 0
1379 738 0
-1379 -738 0
1792 2313 0
-1792 -2313 0
1383 1832 0
-1383 -1832 0
1793 2312 0
-1793 -2312 0
1389 1832 0
-1389 -1832 0
1799 2312 0
-1799 -2312 0
1395 1832 0
-1395 -1832 0
1805 2312 0
-1805 -2312 0
756 754 0
-756 -754 0
2312 756 0
-2312 -756 0
1401 1826 0
-1401 -1826 0
1820 1826 0
-1820 -1826 0
1829 1826 0
-1829 -1826 0
766 764 0
-766 -764 0
1826 766 0
-1826 -766 0
780 768 0
-780 -768 0
769 780 0
-769 -780 0
1410 1832 0
-1410 -1832 0
1413 1832 0
-1413 -1832 0
1419 1832 0
-1419 -1832 0
1832 778 0
-1832 -778 0
1538 780 0
-1538 -780 0
784 782 0
-784 -782 0
1732 784 0
-1732 -784 0
788 786 0
-788 -786 0
1744 788 0
-1744 -788 0
792 790 0
-792 -790 0
1738 792 0
-1738 -792 0
796 794 0
-796 -794 0
1750 796 0
-1750 -796 0
800 798 0
-800 -798 0
1510 800 0
-1510 -800 0
804 802 0
-804 -802 0
1756 804 0
-1756 -804 0
808 806 0
-808 -806 0
1762 808 0
-1762 -808 0
812 810 0
-812 -810 0
1768 812 0
-1768 -812 0
816 814 0
-816 -814 0
1774 816 0
-1774 -816 0
820 818 0
-820 -818 0
1780 820 0
-1780 -820 0
824 822 0
-824 -822 0
1786 824 0
-1786 -824 0
825 826 0
-825 -826 0
830 828 0
-830 -828 0
1227 830 0
-1227 -830 0
831 832 0
-831 -832 0
-1930 1752 0
-1930 1755 0
1930 -1752 -1755 0
-1933 1758 0
-1933 1761 0
1933 -1758 -1761 0
-1936 1764 0
-1936 1767 0
1936 -1764 -1767 0
-1924 1770 0
-1924 1773 0
1924 -1770 -1773 0
-1927 1776 0
-1927 1779 0
1927 -1776 -1779 0
-2319 1848 0
-2319 850 0
2319 -1848 -850 0
-2321 2032 0
-2321 853 0
2321 -2032 -853 0
-2034 2036 0
-2034 2037 0
2034 -2036 -2037 0
-2323 2038 0
-2323 859 0
2323 -2038 -859 0
-2040 2042 0
-2040 2043 0
2040 -2042 -2043 0
-2325 1854 0
-2325 865 0
2325 -1854 -865 0
-2327 2044 0
-2327 868 0
2327 -2044 -868 0
-2046 2048 0
-2046 2049 0
2046 -2048 -2049 0
-2036 2029 0
-2036 1853 0
2036 -2029 -1853 0
-2042 2036 0
-2042 2037 0
2042 -2036 -2037 0
-1858 2042 0
-1858 2043 0
1858 -2042 -2043 0
-2048 1858 0
-2048 1859 0
2048 -1858 -1859 0
-2329 1860 0
-2329 886 0
2329 -1860 -886 0
-2331 2050 0
-2331 889 0
2331 -2050 -889 0
-2052 2054 0
-2052 2055 0
2052 -2054 -2055 0
-2333 2056 0
-2333 895 0
2333 -2056 -895 0
-2058 2060 0
-2058 2061 0
2058 -2060 -2061 0
-2335 2062 0
-2335 901 0
2335 -2062 -901 0
-2064 2066 0
-2064 2067 0
2064 -2066 -2067 0
-2337 2068 0
-2337 907 0
2337 -2068 -907 0
-2070 2072 0
-2070 2073 0
2070 -2072 -2073 0
-2339 1866 0
-2339 913 0
2339 -1866 -913 0
-2054 1864 0
-2054 1865 0
2054 -1864 -1865 0
-2060 2054 0
-2060 2055 0
2060 -2054 -2055 0
-2066 2060 0
-2066 2061 0
2066 -2060 -2061 0
-2072 2066 0
-2072 2067 0
2072 -2066 -2067 0
-1870 2072 0
-1870 2073 0
1870 -2072 -2073 0
-1446 1870 0
-1446 931 0
1446 -1870 -931 0
-2341 933 0
-2341 934 0
2341 -933 -934 0
-1549 1435 0
-1549 1438 0
1549 -1435 -1438 0
-2343 1872 0
-2343 940 0
2343 -1872 -940 0
-2345 2074 0
-2345 943 0
2345 -2074 -943 0
-2076 2078 0
-2076 2079 0
2076 -2078 -2079 0
-2347 2080 0
-2347 949 0
2347 -2080 -949 0
-2082 2084 0
-2082 2085 0
2082 -2084 -2085 0
-2078 1876 0
-2078 1877 0
2078 -1876 -1877 0
-2084 2078 0
-2084 2079 0
2084 -2078 -2079 0
-2349 1878 0
-2349 961 0
2349 -1878 -961 0
-2351 1884 0
-2351 964 0
2351 -1884 -964 0
-2353 2086 0
-2353 967 0
2353 -2086 -967 0
-2088 2090 0
-2088 2091 0
2088 -2090 -2091 0
-1888 2160 0
-1888 1883 0
1888 -2160 -1883 0
-2090 1888 0
-2090 1889 0
2090 -1888 -1889 0
-1540 2084 0
-1540 2085 0
1540 -2084 -2085 0
-1573 981 0
-1573 2084 0
1573 -981 -2084 0
-1434 2048 0
-1434 2049 0
1434 -2048 -2049 0
-1443 1870 0
-1443 1871 0
1443 -1870 -1871 0
-1655 2090 0
-1655 2091 0
1655 -2090 -2091 0
-1552 2208 0
-1552 2209 0
1552 -2208 -2209 0
-2355 2092 0
-2355 997 0
2355 -2092 -997 0
-2094 2129 0
-2094 2097 0
2094 -2129 -2097 0
-2357 2098 0
-2357 1003 0
2357 -2098 -1003 0
-2100 2102 0
-2100 2103 0
2100 -2102 -2103 0
-2359 2104 0
-2359 1009 0
2359 -2104 -1009 0
-2106 2108 0
-2106 2109 0
2106 -2108 -2109 0
-2361 2110 0
-2361 1015 0
2361 -2110 -1015 0
-2112 2114 0
-2112 2115 0
2112 -2114 -2115 0
-1019 1740 0
-1019 1743 0
1019 -1740 -1743 0
-2363 2116 0
-2363 1024 0
2363 -2116 -1024 0
-2118 2120 0
-2118 2121 0
2118 -2120 -2121 0
-2102 2129 0
-2102 2097 0
2102 -2129 -2097 0
-2108 2102 0
-2108 2103 0
2108 -2102 -2103 0
-2114 2108 0
-2114 2109 0
2114 -2108 -2109 0
-2120 2114 0
-2120 2115 0
2120 -2114 -2115 0
-1467 1459 0
-1467 2128 0
1467 -1459 -2128 0
-1473 1462 0
-1473 1465 0
1473 -1462 -1465 0
-1479 1468 0
-1479 1471 0
1479 -1468 -1471 0
-1485 1474 0
-1485 1477 0
1485 -1474 -1477 0
-2365 1055 0
-2365 1054 0
2365 -1055 -1054 0
-1055 1506 0
-1055 1509 0
1055 -1506 -1509 0
-2367 1061 0
-2367 1060 0
2367 -1061 -1060 0
-1061 1512 0
-1061 1515 0
1061 -1512 -1515 0
-2369 1067 0
-2369 1066 0
2369 -1067 -1066 0
-1067 1518 0
-1067 1521 0
1067 -1518 -1521 0
-2371 1073 0
-2371 1072 0
2371 -1073 -1072 0
-1073 1527 0
-1073 1530 0
1073 -1527 -1530 0
-2136 1953 0
-2136 1538 0
2136 -1953 -1538 0
-2133 1951 0
-2133 1538 0
2133 -1951 -1538 0
-2178 1539 0
-2178 1542 0
2178 -1539 -1542 0
-1591 1551 0
-1591 1554 0
1591 -1551 -1554 0
-1564 1557 0
-1564 1560 0
1564 -1557 -1560 0
-2196 2142 0
-2196 2155 0
2196 -2142 -2155 0
-2373 2138 0
-2373 1096 0
2373 -2138 -1096 0
-2140 2142 0
-2140 2143 0
2140 -2142 -2143 0
-2375 2144 0
-2375 1102 0
2375 -2144 -1102 0
-2146 2148 0
-2146 2149 0
2146 -2148 -2149 0
-2377 2150 0
-2377 1108 0
2377 -2150 -1108 0
-2152 2154 0
-2152 2155 0
2152 -2154 -2155 0
-2148 2142 0
-2148 2143 0
2148 -2142 -2143 0
-2154 2148 0
-2154 2149 0
2154 -2148 -2149 0
-1583 2160 0
-1583 2161 0
-1583 2173 0
1583 -2160 -2161 -2173 0
-2379 2156 0
-2379 1124 0
2379 -2156 -1124 0
-2158 2160 0
-2158 2161 0
2158 -2160 -2161 0
-2381 2162 0
-2381 1130 0
2381 -2162 -1130 0
-2164 2166 0
-2164 2167 0
2164 -2166 -2167 0
-2383 2168 0
-2383 1136 0
2383 -2168 -1136 0
-2170 2172 0
-2170 2173 0
2170 -2172 -2173 0
-2166 2160 0
-2166 2161 0
2166 -2160 -2161 0
-2172 2166 0
-2172 2167 0
2172 -2166 -2167 0
-2385 2174 0
-2385 1148 0
2385 -2174 -1148 0
-2176 2178 0
-2176 2179 0
2176 -2178 -2179 0
-2387 2180 0
-2387 1154 0
2387 -2180 -1154 0
-2182 2184 0
-2182 2185 0
2182 -2184 -2185 0
-2389 2186 0
-2389 1160 0
2389 -2186 -1160 0
-2188 2190 0
-2188 2191 0
2188 -2190 -2191 0
-2184 2178 0
-2184 2179 0
2184 -2178 -2179 0
-2190 2178 0
-2190 2185 0
2190 -2178 -2185 0
-1658 2190 0
-1658 2191 0
1658 -2190 -2191 0
-2391 2192 0
-2391 1175 0
2391 -2192 -1175 0
-2194 2196 0
-2194 2197 0
2194 -2196 -2197 0
-2393 2198 0
-2393 1181 0
2393 -2198 -1181 0
-2200 2202 0
-2200 2203 0
2200 -2202 -2203 0
-2395 2204 0
-2395 1187 0
2395 -2204 -1187 0
-2206 2208 0
-2206 2209 0
2206 -2208 -2209 0
-2202 2196 0
-2202 2197 0
2202 -2196 -2197 0
-2208 2196 0
-2208 2203 0
2208 -2196 -2203 0
-1346 1572 0
-1346 1575 0
1346 -1572 -1575 0
-2286 1545 0
-2286 1548 0
2286 -1545 -1548 0
-1906 1563 0
-1906 1566 0
1906 -1563 -1566 0
-2397 1593 0
-2397 1208 0
2397 -1593 -1208 0
-2399 2210 0
-2399 1211 0
2399 -2210 -1211 0
-2211 2220 0
-2211 1637 0
2211 -2220 -1637 0
-2401 1596 0
-2401 1217 0
2401 -1596 -1217 0
-2403 2216 0
-2403 1220 0
2403 -2216 -1220 0
-2217 2220 0
-2217 1223 0
2217 -2220 -1223 0
-1729 1225 0
-1729 1226 0
-1729 1227 0
1729 -1225 -1226 -1227 0
-2405 2222 0
-2405 1230 0
2405 -2222 -1230 0
-2224 2226 0
-2224 2227 0
2224 -2226 -2227 0
-2407 2228 0
-2407 1236 0
2407 -2228 -1236 0
-2230 2232 0
-2230 2233 0
2230 -2232 -2233 0
-2409 2234 0
-2409 1242 0
2409 -2234 -1242 0
-2236 2238 0
-2236 2239 0
2236 -2238 -2239 0
-2411 2240 0
-2411 1248 0
2411 -2240 -1248 0
-2242 2244 0
-2242 2245 0
2242 -2244 -2245 0
-2232 2226 0
-2232 2227 0
2232 -2226 -2227 0
-2238 2232 0
-2238 2233 0
2238 -2232 -2233 0
-2244 2238 0
-2244 2239 0
2244 -2238 -2239 0
-1606 1623 0
-1606 1626 0
1606 -1623 -1626 0
-1612 1629 0
-1612 1632 0
1612 -1629 -1632 0
-1621 1635 0
-1621 1638 0
1621 -1635 -1638 0
-2413 1602 0
-2413 1605 0
2413 -1602 -1605 0
-2415 1608 0
-2415 1611 0
2415 -1608 -1611 0
-2417 1617 0
-2417 1620 0
2417 -1617 -1620 0
-2419 2250 0
-2419 1281 0
2419 -2250 -1281 0
-2252 2254 0
-2252 2255 0
2252 -2254 -2255 0
-2421 2256 0
-2421 1287 0
2421 -2256 -1287 0
-2258 2260 0
-2258 2261 0
2258 -2260 -2261 0
-2423 2262 0
-2423 1293 0
2423 -2262 -1293 0
-2264 2266 0
-2264 2267 0
2264 -2266 -2267 0
-2425 2268 0
-2425 1299 0
2425 -2268 -1299 0
-2270 2272 0
-2270 2273 0
2270 -2272 -2273 0
-2427 2274 0
-2427 1305 0
2427 -2274 -1305 0
-2276 2278 0
-2276 2279 0
2276 -2278 -2279 0
-2260 2254 0
-2260 2255 0
2260 -2254 -2255 0
-2266 2260 0
-2266 2261 0
2266 -2260 -2261 0
-2272 2266 0
-2272 2267 0
2272 -2266 -2267 0
-2278 2272 0
-2278 2273 0
2278 -2272 -2273 0
-2429 1662 0
-2429 1665 0
2429 -1662 -1665 0
-2431 1668 0
-2431 1671 0
2431 -1668 -1671 0
-2433 1674 0
-2433 1677 0
2433 -1674 -1677 0
-2435 1680 0
-2435 1683 0
2435 -1680 -1683 0
-1333 1746 0
-1333 1749 0
1333 -1746 -1749 0
-2437 1701 0
-2437 1338 0
2437 -1701 -1338 0
-1702 1704 0
-1702 1341 0
1702 -1704 -1341 0
-1709 1734 0
-1709 1737 0
1709 -1734 -1737 0
-2254 1346 0
-2254 2287 0
2254 -1346 -2287 0
-2439 1713 0
-2439 1716 0
2439 -1713 -1716 0
-2441 1722 0
-2441 1725 0
2441 -1722 -1725 0
-1895 1782 0
-1895 1785 0
1895 -1782 -1785 0
-1905 1728 0
-1905 1731 0
1905 -1728 -1731 0
-2304 1434 0
-2304 1792 0
2304 -1434 -1792 0
-2305 1443 0
-2305 1798 0
2305 -1443 -1798 0
-2306 1655 0
-2306 1804 0
2306 -1655 -1804 0
-2307 1552 0
-2307 1801 0
2307 -1552 -1801 0
-1615 1373 0
-1615 1954 0
1615 -1373 -1954 0
-1720 1376 0
-1720 1954 0
1720 -1376 -1954 0
-2443 1379 0
-2443 1380 0
2443 -1379 -1380 0
-2445 1384 0
-2445 1383 0
2445 -1384 -1383 0
-1384 1788 0
-1384 1791 0
1384 -1788 -1791 0
-2447 1390 0
-2447 1389 0
2447 -1390 -1389 0
-1390 1794 0
-1390 1797 0
1390 -1794 -1797 0
-2449 1396 0
-2449 1395 0
2449 -1396 -1395 0
-1396 1800 0
-1396 1803 0
1396 -1800 -1803 0
-2295 1809 0
-2295 1401 0
2295 -1809 -1401 0
-2298 1815 0
-2298 1818 0
2298 -1815 -1818 0
-2301 1824 0
-2301 1827 0
2301 -1824 -1827 0
-2457 1890 0
-2457 1410 0
2457 -1890 -1410 0
-2459 2308 0
-2459 1413 0
2459 -2308 -1413 0
-2309 2312 0
-2309 1801 0
2309 -2312 -1801 0
-2461 2288 0
-2461 1419 0
2461 -2288 -1419 0
1850 -2029 0
1850 -1853 0
-1850 2029 1853 0
1856 -1858 0
1856 -1859 0
-1856 1858 1859 0
1862 -1864 0
1862 -1865 0
-1862 1864 1865 0
1868 -1870 0
1868 -1871 0
-1868 1870 1871 0
1864 -1825 0
1864 -1434 0
-1864 1825 1434 0
1435 -1871 0
1435 -1825 0
-1435 1871 1825 0
1438 -1567 0
1438 -1440 0
-1438 1567 1440 0
2160 -1825 0
2160 -1443 0
-2160 1825 1443 0
1576 -1825 0
1576 -1446 0
-1576 1825 1446 0
1874 -1876 0
1874 -1877 0
-1874 1876 1877 0
1880 -2160 0
1880 -1883 0
-1880 2160 1883 0
1886 -1888 0
1886 -1889 0
-1886 1888 1889 0
1892 -1905 0
1892 -1900 0
-1892 1905 1900 0
1459 -1930 0
1459 -2097 0
-1459 1930 2097 0
1462 -1933 0
1462 -2103 0
-1462 1933 2103 0
1465 -2127 0
1465 -1467 0
-1465 2127 1467 0
1468 -1936 0
1468 -2109 0
-1468 1936 2109 0
1471 -2125 0
1471 -1473 0
-1471 2125 1473 0
1474 -1924 0
1474 -2115 0
-1474 1924 2115 0
1477 -2124 0
1477 -1479 0
-1477 2124 1479 0
2030 -1927 0
2030 -2121 0
-2030 1927 2121 0
2031 -2123 0
2031 -1485 0
-2031 2123 1485 0
1909 -2097 0
1909 -1930 0
-1909 2097 1930 0
1912 -2103 0
1912 -1933 0
-1912 2103 1933 0
1915 -2109 0
1915 -1936 0
-1915 2109 1936 0
1918 -2115 0
1918 -1924 0
-1918 2115 1924 0
1921 -2121 0
1921 -1927 0
-1921 2121 1927 0
1534 -1944 0
1534 -1945 0
1534 -1946 0
1534 -1947 0
-1534 1944 1945 1946 1947 0
1506 -1947 0
1506 -1529 0
-1506 1947 1529 0
1509 -1510 0
1509 -1511 0
-1509 1510 1511 0
1512 -1946 0
1512 -1529 0
-1512 1946 1529 0
1515 -1947 0
1515 -1517 0
-1515 1947 1517 0
1518 -1945 0
1518 -1529 0
-1518 1945 1529 0
1521 -1946 0
1521 -1523 0
-1521 1946 1523 0
1529 -1583 0
1529 -1828 0
-1529 1583 1828 0
1527 -1944 0
1527 -1529 0
-1527 1944 1529 0
1530 -1945 0
1530 -1532 0
-1530 1945 1532 0
1949 -1534 0
1949 -1538 0
-1949 1534 1538 0
1952 -2130 0
1952 -1538 0
-1952 2130 1538 0
1539 -1540 0
1539 -1574 0
-1539 1540 1574 0
1542 -2160 0
1542 -1544 0
-1542 2160 1544 0
1545 -2085 0
1545 -1574 0
-1545 2085 1574 0
1548 -1549 0
1548 -1550 0
-1548 1549 1550 0
1551 -1552 0
1551 -1828 0
-1551 1552 1828 0
1554 -1658 0
1554 -1556 0
-1554 1658 1556 0
1557 -2209 0
1557 -1828 0
-1557 2209 1828 0
1560 -2191 0
1560 -1562 0
-1560 2191 1562 0
1563 -1564 0
1563 -1819 0
-1563 1564 1819 0
1566 -1567 0
1566 -1568 0
-1566 1567 1568 0
1574 -1729 0
1574 -1819 0
-1574 1729 1819 0
1572 -1573 0
1572 -1574 0
-1572 1573 1574 0
1575 -1576 0
1575 -1577 0
-1575 1576 1577 0
1578 -1832 0
1578 -2196 0
-1578 1832 2196 0
1581 -1832 0
1581 -1583 0
-1581 1832 1583 0
1584 -1832 0
1584 -2190 0
-1584 1832 2190 0
1587 -1832 0
1587 -2208 0
-1587 1832 2208 0
2226 -1591 0
2226 -1819 0
-2226 1591 1819 0
1593 -2286 0
1593 -1595 0
-1593 2286 1595 0
1596 -2220 0
1596 -1598 0
-1596 2220 1598 0
1783 -2023 0
1783 -2287 0
-1783 2023 2287 0
1602 -2247 0
1602 -1619 0
-1602 2247 1619 0
1605 -1606 0
1605 -1607 0
-1605 1606 1607 0
1608 -2248 0
1608 -1619 0
-1608 2248 1619 0
1611 -1612 0
1611 -1613 0
-1611 1612 1613 0
1619 -1615 0
1619 -1832 0
-1619 1615 1832 0
1617 -2249 0
1617 -1619 0
-1617 2249 1619 0
1620 -1621 0
1620 -1622 0
-1620 1621 1622 0
1623 -1774 0
1623 -1637 0
-1623 1774 1637 0
1626 -1756 0
1626 -1628 0
-1626 1756 1628 0
1629 -1780 0
1629 -1637 0
-1629 1780 1637 0
1632 -1762 0
1632 -1634 0
-1632 1762 1634 0
1635 -1786 0
1635 -1637 0
-1635 1786 1637 0
1638 -1768 0
1638 -1640 0
-1638 1768 1640 0
1959 -2247 0
1959 -2227 0
-1959 2247 2227 0
1962 -2248 0
1962 -2233 0
-1962 2248 2233 0
1965 -2249 0
1965 -2239 0
-1965 2249 2239 0
1968 -2246 0
1968 -2245 0
-1968 2246 2245 0
1876 -1828 0
1876 -1655 0
-1876 1828 1655 0
2142 -1828 0
2142 -1658 0
-2142 1828 1658 0
2287 -1981 0
2287 -1985 0
-2287 1981 1985 0
1662 -2281 0
1662 -1724 0
-1662 2281 1724 0
1665 -1732 0
1665 -1667 0
-1665 1732 1667 0
1668 -2282 0
1668 -1724 0
-1668 2282 1724 0
1671 -1744 0
1671 -1673 0
-1671 1744 1673 0
1674 -2283 0
1674 -1724 0
-1674 2283 1724 0
1677 -1738 0
1677 -1679 0
-1677 1738 1679 0
1680 -2284 0
1680 -1724 0
-1680 2284 1724 0
1683 -1750 0
1683 -1685 0
-1683 1750 1685 0
1990 -2281 0
1990 -2255 0
-1990 2281 2255 0
1993 -2282 0
1993 -2261 0
-1993 2282 2261 0
1996 -2283 0
1996 -2267 0
-1996 2283 2267 0
1999 -2284 0
1999 -2273 0
-1999 2284 2273 0
2002 -2280 0
2002 -2279 0
-2002 2280 2279 0
1701 -1702 0
1701 -2254 0
-1701 1702 2254 0
1704 -2023 0
1704 -2285 0
-1704 2023 2285 0
2019 -1723 0
2019 -1709 0
-2019 1723 1709 0
2020 -1711 0
2020 -1714 0
-2020 1711 1714 0
1713 -1714 0
1713 -1724 0
-1713 1714 1724 0
1716 -1826 0
1716 -1718 0
-1716 1826 1718 0
1724 -1720 0
1724 -1832 0
-1724 1720 1832 0
1722 -1723 0
1722 -1724 0
-1722 1723 1724 0
1725 -2312 0
1725 -1727 0
-1725 2312 1727 0
1728 -1729 0
1728 -1819 0
-1728 1729 1819 0
1731 -1732 0
1731 -1733 0
-1731 1732 1733 0
1734 -1735 0
1734 -1819 0
-1734 1735 1819 0
1737 -1738 0
1737 -1739 0
-1737 1738 1739 0
1740 -1954 0
1740 -1819 0
-1740 1954 1819 0
1743 -1744 0
1743 -1745 0
-1743 1744 1745 0
1746 -1954 0
1746 -1819 0
-1746 1954 1819 0
1749 -1750 0
1749 -1751 0
-1749 1750 1751 0
1752 -1833 0
1752 -1819 0
-1752 1833 1819 0
1755 -1756 0
1755 -1757 0
-1755 1756 1757 0
1758 -1836 0
1758 -1819 0
-1758 1836 1819 0
1761 -1762 0
1761 -1763 0
-1761 1762 1763 0
1764 -1839 0
1764 -1819 0
-1764 1839 1819 0
1767 -1768 0
1767 -1769 0
-1767 1768 1769 0
1770 -1842 0
1770 -1819 0
-1770 1842 1819 0
1773 -1774 0
1773 -1775 0
-1773 1774 1775 0
1776 -1845 0
1776 -1819 0
-1776 1845 1819 0
1779 -1780 0
1779 -1781 0
-1779 1780 1781 0
1782 -1783 0
1782 -1819 0
-1782 1783 1819 0
1785 -1786 0
1785 -1787 0
-1785 1786 1787 0
1788 -1798 0
1788 -2312 0
-1788 1798 2312 0
1791 -1792 0
1791 -1793 0
-1791 1792 1793 0
1794 -1804 0
1794 -2312 0
-1794 1804 2312 0
1797 -1798 0
1797 -1799 0
-1797 1798 1799 0
1800 -1801 0
1800 -2312 0
-1800 1801 2312 0
1803 -1804 0
1803 -1805 0
-1803 1804 1805 0
2451 -2294 0
2451 -1830 0
-2451 2294 1830 0
1809 -1819 0
1809 -1826 0
-1809 1819 1826 0
2453 -2297 0
2453 -1830 0
-2453 2297 1830 0
1815 -1828 0
1815 -1826 0
-1815 1828 1826 0
1818 -1819 0
1818 -1820 0
-1818 1819 1820 0
2455 -2300 0
2455 -1830 0
-2455 2300 1830 0
1824 -1825 0
1824 -1826 0
-1824 1825 1826 0
1827 -1828 0
1827 -1829 0
-1827 1828 1829 0
1830 -2292 0
1830 -1832 0
-1830 2292 1832 0
1833 2255 0
1833 1847 0
-1833 -2255 -1847 0
1836 2261 0
1836 1847 0
-1836 -2261 -1847 0
1839 2267 0
1839 1847 0
-1839 -2267 -1847 0
1842 2273 0
1842 1847 0
-1842 -2273 -1847 0
1845 2279 0
1845 1847 0
-1845 -2279 -1847 0
1848 1851 0
1848 1850 0
-1848 -1851 -1850 0
1851 2029 0
1851 1853 0
-1851 -2029 -1853 0
1854 1857 0
1854 1856 0
-1854 -1857 -1856 0
1857 1858 0
1857 1859 0
-1857 -1858 -1859 0
1860 1863 0
1860 1862 0
-1860 -1863 -1862 0
1863 1864 0
1863 1865 0
-1863 -1864 -1865 0
1866 1869 0
1866 1868 0
-1866 -1869 -1868 0
1869 1870 0
1869 1871 0
-1869 -1870 -1871 0
1872 1875 0
1872 1874 0
-1872 -1875 -1874 0
1875 1876 0
1875 1877 0
-1875 -1876 -1877 0
1878 1881 0
1878 1880 0
-1878 -1881 -1880 0
1881 2160 0
1881 1883 0
-1881 -2160 -1883 0
1884 1887 0
1884 1886 0
-1884 -1887 -1886 0
1887 1888 0
1887 1889 0
-1887 -1888 -1889 0
1890 1904 0
1890 1892 0
-1890 -1904 -1892 0
1903 2286 0
1903 1895 0
-1903 -2286 -1895 0
1902 1897 0
1902 1940 0
1902 2286 0
-1902 -1897 -1940 -2286 0
1900 2029 0
1900 1902 0
1900 1903 0
-1900 -2029 -1902 -1903 0
1904 1905 0
1904 1906 0
-1904 -1905 -1906 0
2128 1928 0
2128 1909 0
-2128 -1928 -1909 0
2127 1931 0
2127 1912 0
-2127 -1931 -1912 0
2125 1934 0
2125 1915 0
-2125 -1934 -1915 0
2124 1922 0
2124 1918 0
-2124 -1922 -1918 0
2123 1925 0
2123 1921 0
-2123 -1925 -1921 0
1922 2115 0
1922 1924 0
-1922 -2115 -1924 0
1925 2121 0
1925 1927 0
-1925 -2121 -1927 0
1928 2097 0
1928 1930 0
-1928 -2097 -1930 0
1931 2103 0
1931 1933 0
-1931 -2103 -1933 0
1934 2109 0
1934 1936 0
-1934 -2109 -1936 0
1941 2122 0
1941 2126 0
-1941 -2122 -2126 0
1940 1941 0
1940 2029 0
-1940 -1941 -2029 0
2130 1944 0
2130 1945 0
2130 1946 0
2130 1947 0
-2130 -1944 -1945 -1946 -1947 0
1953 1949 0
1953 1950 0
-1953 -1949 -1950 0
1951 1952 0
1951 1953 0
-1951 -1952 -1953 0
1954 1955 0
1954 2024 0
-1954 -1955 -2024 0
2025 1969 0
2025 1959 0
-2025 -1969 -1959 0
2026 1972 0
2026 1962 0
-2026 -1972 -1962 0
2027 1975 0
2027 1965 0
-2027 -1975 -1965 0
2028 1978 0
2028 1968 0
-2028 -1978 -1968 0
1969 2247 0
1969 2227 0
-1969 -2247 -2227 0
1972 2248 0
1972 2233 0
-1972 -2248 -2233 0
1975 2249 0
1975 2239 0
-1975 -2249 -2239 0
1978 2246 0
1978 2245 0
-1978 -2246 -2245 0
1981 1988 0
1981 1991 0
1981 1994 0
-1981 -1988 -1991 -1994 0
1985 1997 0
1985 2000 0
-1985 -1997 -2000 0
1988 2003 0
1988 1990 0
-1988 -2003 -1990 0
1991 2006 0
1991 1993 0
-1991 -2006 -1993 0
1994 2009 0
1994 1996 0
-1994 -2009 -1996 0
1997 2012 0
1997 1999 0
-1997 -2012 -1999 0
2000 2015 0
2000 2002 0
-2000 -2015 -2002 0
2003 2281 0
2003 2255 0
-2003 -2281 -2255 0
2006 2282 0
2006 2261 0
-2006 -2282 -2261 0
2009 2283 0
2009 2267 0
-2009 -2283 -2267 0
2012 2284 0
2012 2273 0
-2012 -2284 -2273 0
2015 2280 0
2015 2279 0
-2015 -2280 -2279 0
2290 2019 0
2290 2020 0
-2290 -2019 -2020 0
2289 2286 0
2289 2023 0
-2289 -2286 -2023 0
2024 2025 0
2024 2026 0
2024 2027 0
2024 2028 0
-2024 -2025 -2026 -2027 -2028 0
2029 2030 0
2029 2031 0
-2029 -2030 -2031 0
-2032 -2035 0
-2032 -2034 0
2032 2035 2034 0
-2035 -2036 0
-2035 -2037 0
2035 2036 2037 0
-2038 -2041 0
-2038 -2040 0
2038 2041 2040 0
-2041 -2042 0
-2041 -2043 0
2041 2042 2043 0
-2044 -2047 0
-2044 -2046 0
2044 2047 2046 0
-2047 -2048 0
-2047 -2049 0
2047 2048 2049 0
-2050 -2053 0
-2050 -2052 0
2050 2053 2052 0
-2053 -2054 0
-2053 -2055 0
2053 2054 2055 0
-2056 -2059 0
-2056 -2058 0
2056 2059 2058 0
-2059 -2060 0
-2059 -2061 0
2059 2060 2061 0
-2062 -2065 0
-2062 -2064 0
2062 2065 2064 0
-2065 -2066 0
-2065 -2067 0
2065 2066 2067 0
-2068 -2071 0
-2068 -2070 0
2068 2071 2070 0
-2071 -2072 0
-2071 -2073 0
2071 2072 2073 0
-2074 -2077 0
-2074 -2076 0
2074 2077 2076 0
-2077 -2078 0
-2077 -2079 0
2077 2078 2079 0
-2080 -2083 0
-2080 -2082 0
2080 2083 2082 0
-2083 -2084 0
-2083 -2085 0
2083 2084 2085 0
-2086 -2089 0
-2086 -2088 0
2086 2089 2088 0
-2089 -2090 0
-2089 -2091 0
2089 2090 2091 0
-2092 -2095 0
-2092 -2094 0
2092 2095 2094 0
-2095 -2129 0
-2095 -2097 0
2095 2129 2097 0
-2098 -2101 0
-2098 -2100 0
2098 2101 2100 0
-2101 -2102 0
-2101 -2103 0
2101 2102 2103 0
-2104 -2107 0
-2104 -2106 0
2104 2107 2106 0
-2107 -2108 0
-2107 -2109 0
2107 2108 2109 0
-2110 -2113 0
-2110 -2112 0
2110 2113 2112 0
-2113 -2114 0
-2113 -2115 0
2113 2114 2115 0
-2116 -2119 0
-2116 -2118 0
2116 2119 2118 0
-2119 -2120 0
-2119 -2121 0
2119 2120 2121 0
-2122 -2123 0
-2122 -2124 0
-2122 -2125 0
2122 2123 2124 2125 0
-2126 -2127 0
-2126 -2128 0
2126 2127 2128 0
-2129 -2130 0
-2129 -2135 0
2129 2130 2135 0
-2137 -2133 0
-2137 -2134 0
2137 2133 2134 0
-2135 -2136 0
-2135 -2137 0
2135 2136 2137 0
-2138 -2141 0
-2138 -2140 0
2138 2141 2140 0
-2141 -2142 0
-2141 -2143 0
2141 2142 2143 0
-2144 -2147 0
-2144 -2146 0
2144 2147 2146 0
-2147 -2148 0
-2147 -2149 0
2147 2148 2149 0
-2150 -2153 0
-2150 -2152 0
2150 2153 2152 0
-2153 -2154 0
-2153 -2155 0
2153 2154 2155 0
-2156 -2159 0
-2156 -2158 0
2156 2159 2158 0
-2159 -2160 0
-2159 -2161 0
2159 2160 2161 0
-2162 -2165 0
-2162 -2164 0
2162 2165 2164 0
-2165 -2166 0
-2165 -2167 0
2165 2166 2167 0
-2168 -2171 0
-2168 -2170 0
2168 2171 2170 0
-2171 -2172 0
-2171 -2173 0
2171 2172 2173 0
-2174 -2177 0
-2174 -2176 0
2174 2177 2176 0
-2177 -2178 0
-2177 -2179 0
2177 2178 2179 0
-2180 -2183 0
-2180 -2182 0
2180 2183 2182 0
-2183 -2184 0
-2183 -2185 0
2183 2184 2185 0
-2186 -2189 0
-2186 -2188 0
2186 2189 2188 0
-2189 -2190 0
-2189 -2191 0
2189 2190 2191 0
-2192 -2195 0
-2192 -2194 0
2192 2195 2194 0
-2195 -2196 0
-2195 -2197 0
2195 2196 2197 0
-2198 -2201 0
-2198 -2200 0
2198 2201 2200 0
-2201 -2202 0
-2201 -2203 0
2201 2202 2203 0
-2204 -2207 0
-2204 -2206 0
2204 2207 2206 0
-2207 -2208 0
-2207 -2209 0
2207 2208 2209 0
-2210 -2211 0
-2210 -2213 0
2210 2211 2213 0
-2213 -2220 0
-2213 -2215 0
2213 2220 2215 0
-2216 -2217 0
-2216 -2219 0
2216 2217 2219 0
-2219 -2220 0
-2219 -2221 0
2219 2220 2221 0
-2222 -2225 0
-2222 -2224 0
2222 2225 2224 0
-2225 -2226 0
-2225 -2227 0
2225 2226 2227 0
-2228 -2231 0
-2228 -2230 0
2228 2231 2230 0
-2231 -2232 0
-2231 -2233 0
2231 2232 2233 0
-2234 -2237 0
-2234 -2236 0
2234 2237 2236 0
-2237 -2238 0
-2237 -2239 0
2237 2238 2239 0
-2240 -2243 0
-2240 -2242 0
2240 2243 2242 0
-2243 -2244 0
-2243 -2245 0
2243 2244 2245 0
-2246 -2247 0
-2246 -2248 0
-2246 -2249 0
2246 2247 2248 2249 0
-2250 -2253 0
-2250 -2252 0
2250 2253 2252 0
-2253 -2254 0
-2253 -2255 0
2253 2254 2255 0
-2256 -2259 0
-2256 -2258 0
2256 2259 2258 0
-2259 -2260 0
-2259 -2261 0
2259 2260 2261 0
-2262 -2265 0
-2262 -2264 0
2262 2265 2264 0
-2265 -2266 0
-2265 -2267 0
2265 2266 2267 0
-2268 -2271 0
-2268 -2270 0
2268 2271 2270 0
-2271 -2272 0
-2271 -2273 0
2271 2272 2273 0
-2274 -2277 0
-2274 -2276 0
2274 2277 2276 0
-2277 -2278 0
-2277 -2279 0
2277 2278 2279 0
-2280 -2281 0
-2280 -2282 0
-2280 -2283 0
-2280 -2284 0
2280 2281 2282 2283 2284 0
-2285 -2286 0
-2285 -2287 0
2285 2286 2287 0
-2288 -2289 0
-2288 -2290 0
2288 2289 2290 0
-2302 -2292 0
-2302 -2293 0
2302 2292 2293 0
-2294 -2295 0
-2294 -2302 0
2294 2295 2302 0
-2297 -2298 0
-2297 -2302 0
2297 2298 2302 0
-2300 -2301 0
-2300 -2302 0
2300 2301 2302 0
-2303 -2304 0
-2303 -2305 0
-2303 -2306 0
-2303 -2307 0
2303 2304 2305 2306 2307 0
-2308 -2309 0
-2308 -2311 0
2308 2309 2311 0
-2311 -2312 0
-2311 -2313 0
2311 2312 2313 0
-2315 3907 0
2315 -3907 0
-2317 4091 0
2317 -4091 0
-2319 2473 0
2319 -2473 0
-2321 3994 0
2321 -3994 0
-2323 4000 0
2323 -4000 0
-2325 2481 0
2325 -2481 0
-2327 4006 0
2327 -4006 0
-2329 2487 0
2329 -2487 0
-2331 4012 0
2331 -4012 0
-2333 4018 0
2333 -4018 0
-2335 4024 0
2335 -4024 0
-2337 4030 0
2337 -4030 0
-2339 2888 0
2339 -2888 0
-2341 3524 0
2341 -3524 0
-2343 2511 0
2343 -2511 0
-2345 4036 0
2345 -4036 0
-2347 4042 0
2347 -4042 0
-2349 2521 0
2349 -2521 0
-2351 2525 0
2351 -2525 0
-2353 4048 0
2353 -4048 0
-2355 4054 0
2355 -4054 0
-2357 4060 0
2357 -4060 0
-2359 4066 0
2359 -4066 0
-2361 4072 0
2361 -4072 0
-2363 4078 0
2363 -4078 0
-2365 3904 0
2365 -3904 0
-2367 3903 0
2367 -3903 0
-2369 3902 0
2369 -3902 0
-2371 3901 0
2371 -3901 0
-2373 4100 0
2373 -4100 0
-2375 4106 0
2375 -4106 0
-2377 4112 0
2377 -4112 0
-2379 4118 0
2379 -4118 0
-2381 4124 0
2381 -4124 0
-2383 4130 0
2383 -4130 0
-2385 4136 0
2385 -4136 0
-2387 4142 0
2387 -4142 0
-2389 4148 0
2389 -4148 0
-2391 4154 0
2391 -4154 0
-2393 4160 0
2393 -4160 0
-2395 4166 0
2395 -4166 0
-2397 3552 0
2397 -3552 0
-2399 4172 0
2399 -4172 0
-2401 3555 0
2401 -3555 0
-2403 4178 0
2403 -4178 0
-2405 4184 0
2405 -4184 0
-2407 4190 0
2407 -4190 0
-2409 4196 0
2409 -4196 0
-2411 4202 0
2411 -4202 0
-2413 4204 0
2413 -4204 0
-2415 4205 0
2415 -4205 0
-2417 4206 0
2417 -4206 0
-2419 4212 0
2419 -4212 0
-2421 4218 0
2421 -4218 0
-2423 4224 0
2423 -4224 0
-2425 4230 0
2425 -4230 0
-2427 4236 0
2427 -4236 0
-2429 4238 0
2429 -4238 0
-2431 4239 0
2431 -4239 0
-2433 4240 0
2433 -4240 0
-2435 4241 0
2435 -4241 0
-2437 3980 0
2437 -3980 0
-2439 3671 0
2439 -3671 0
-2441 3680 0
2441 -3680 0
-2443 4250 0
2443 -4250 0
-2445 3755 0
2445 -3755 0
-2447 3761 0
2447 -3761 0
-2449 3758 0
2449 -3758 0
-2451 3330 0
2451 -3330 0
-2453 3333 0
2453 -3333 0
-2455 2507 0
2455 -2507 0
-2457 2783 0
2457 -2783 0
-2459 4270 0
2459 -4270 0
-2461 2789 0
2461 -2789 0
2465 3908 0
-2465 -3908 0
4272 2465 0
-4272 -2465 0
2469 4092 0
-2469 -4092 0
4274 2469 0
-4274 -2469 0
2807 3789 0
-2807 -3789 0
3810 2473 0
-3810 -2473 0
2810 3789 0
-2810 -3789 0
2816 3789 0
-2816 -3789 0
2822 3789 0
-2822 -3789 0
3816 2481 0
-3816 -2481 0
2825 3789 0
-2825 -3789 0
2843 3789 0
-2843 -3789 0
3822 2487 0
-3822 -2487 0
2846 3789 0
-2846 -3789 0
2852 3789 0
-2852 -3789 0
2858 3789 0
-2858 -3789 0
2864 3789 0
-2864 -3789 0
2870 3789 0
-2870 -3789 0
2891 3789 0
-2891 -3789 0
2890 3524 0
-2890 -3524 0
3828 2888 0
-3828 -2888 0
3397 3782 0
-3397 -3782 0
3782 2507 0
-3782 -2507 0
2897 3789 0
-2897 -3789 0
3834 2511 0
-3834 -2511 0
2900 3789 0
-2900 -3789 0
2906 3789 0
-2906 -3789 0
2938 4042 0
-2938 -4042 0
2918 3789 0
-2918 -3789 0
3840 2521 0
-3840 -2521 0
2921 3789 0
-2921 -3789 0
3846 2525 0
-3846 -2525 0
2924 3789 0
-2924 -3789 0
2954 2976 0
-2954 -2976 0
2960 2976 0
-2960 -2976 0
2966 2976 0
-2966 -2976 0
2972 2976 0
-2972 -2976 0
2981 2976 0
-2981 -2976 0
3854 3898 0
-3854 -3898 0
3011 3789 0
-3011 -3789 0
3468 3486 0
-3468 -3486 0
3017 3789 0
-3017 -3789 0
3474 3486 0
-3474 -3486 0
3023 3789 0
-3023 -3789 0
3480 3486 0
-3480 -3486 0
3029 3789 0
-3029 -3789 0
3489 3486 0
-3489 -3486 0
3501 3531 0
-3501 -3531 0
3507 3531 0
-3507 -3531 0
3513 3785 0
-3513 -3785 0
3519 3785 0
-3519 -3785 0
3785 3333 0
-3785 -3333 0
3525 3776 0
-3525 -3776 0
3534 3531 0
-3534 -3531 0
3053 3535 0
-3053 -3535 0
3059 3535 0
-3059 -3535 0
3065 3535 0
-3065 -3535 0
3081 3538 0
-3081 -3538 0
3087 3538 0
-3087 -3538 0
3093 3538 0
-3093 -3538 0
3105 3541 0
-3105 -3541 0
3111 3541 0
-3111 -3541 0
3117 3789 0
-3117 -3789 0
3132 3544 0
-3132 -3544 0
3138 3544 0
-3138 -3544 0
3144 3789 0
-3144 -3789 0
3165 3789 0
-3165 -3789 0
3168 3789 0
-3168 -3789 0
3180 3555 0
-3180 -3555 0
3174 3789 0
-3174 -3789 0
3183 4178 0
-3183 -4178 0
3177 3789 0
-3177 -3789 0
3182 3740 0
-3182 -3740 0
3187 3911 0
-3187 -3911 0
3193 3911 0
-3193 -3911 0
3199 3911 0
-3199 -3911 0
3205 3911 0
-3205 -3911 0
3912 3789 0
-3912 -3789 0
3564 3576 0
-3564 -3576 0
3570 3576 0
-3570 -3576 0
3579 3576 0
-3579 -3576 0
3585 3594 0
-3585 -3594 0
3591 3594 0
-3591 -3594 0
3597 3594 0
-3597 -3594 0
3594 3552 0
-3594 -3552 0
3238 3290 0
-3238 -3290 0
3244 3290 0
-3244 -3290 0
3250 3290 0
-3250 -3290 0
3256 3290 0
-3256 -3290 0
3262 3290 0
-3262 -3290 0
3624 3681 0
-3624 -3681 0
3630 3681 0
-3630 -3681 0
3636 3681 0
-3636 -3681 0
3642 3681 0
-3642 -3681 0
3295 3290 0
-3295 -3290 0
3298 4242 0
-3298 -4242 0
3804 4247 0
-3804 -4247 0
3668 3666 0
-3668 -3666 0
3675 3681 0
-3675 -3681 0
3684 3681 0
-3684 -3681 0
3692 4172 0
-3692 -4172 0
4177 3981 0
-4177 -3981 0
3690 3776 0
-3690 -3776 0
3696 3776 0
-3696 -3776 0
3702 3776 0
-3702 -3776 0
3708 3776 0
-3708 -3776 0
3714 3776 0
-3714 -3776 0
3720 3776 0
-3720 -3776 0
3726 3776 0
-3726 -3776 0
3732 3776 0
-3732 -3776 0
3738 3776 0
-3738 -3776 0
3744 3776 0
-3744 -3776 0
3776 3330 0
-3776 -3330 0
3337 3789 0
-3337 -3789 0
4249 3336 0
-4249 -3336 0
2695 2693 0
-2695 -2693 0
3336 2695 0
-3336 -2695 0
3749 4270 0
-3749 -4270 0
3340 3789 0
-3340 -3789 0
3750 4269 0
-3750 -4269 0
3346 3789 0
-3346 -3789 0
3756 4269 0
-3756 -4269 0
3352 3789 0
-3352 -3789 0
3762 4269 0
-3762 -4269 0
2713 2711 0
-2713 -2711 0
4269 2713 0
-4269 -2713 0
3358 3783 0
-3358 -3783 0
3777 3783 0
-3777 -3783 0
3786 3783 0
-3786 -3783 0
2723 2721 0
-2723 -2721 0
3783 2723 0
-3783 -2723 0
2737 2725 0
-2737 -2725 0
2726 2737 0
-2726 -2737 0
3367 3789 0
-3367 -3789 0
3370 3789 0
-3370 -3789 0
3376 3789 0
-3376 -3789 0
3789 2735 0
-3789 -2735 0
3495 2737 0
-3495 -2737 0
2741 2739 0
-2741 -2739 0
3689 2741 0
-3689 -2741 0
2745 2743 0
-2745 -2743 0
3701 2745 0
-3701 -2745 0
2749 2747 0
-2749 -2747 0
3695 2749 0
-3695 -2749 0
2753 2751 0
-2753 -2751 0
3707 2753 0
-3707 -2753 0
2757 2755 0
-2757 -2755 0
3467 2757 0
-3467 -2757 0
2761 2759 0
-2761 -2759 0
3713 2761 0
-3713 -2761 0
2765 2763 0
-2765 -2763 0
3719 2765 0
-3719 -2765 0
2769 2767 0
-2769 -2767 0
3725 2769 0
-3725 -2769 0
2773 2771 0
-2773 -2771 0
3731 2773 0
-3731 -2773 0
2777 2775 0
-2777 -2775 0
3737 2777 0
-3737 -2777 0
2781 2779 0
-2781 -2779 0
3743 2781 0
-3743 -2781 0
2782 2783 0
-2782 -2783 0
2787 2785 0
-2787 -2785 0
3184 2787 0
-3184 -2787 0
2788 2789 0
-2788 -2789 0
-3887 3709 0
-3887 3712 0
3887 -3709 -3712 0
-3890 3715 0
-3890 3718 0
3890 -3715 -3718 0
-3893 3721 0
-3893 3724 0
3893 -3721 -3724 0
-3881 3727 0
-3881 3730 0
3881 -3727 -3730 0
-3884 3733 0
-3884 3736 0
3884 -3733 -3736 0
-4276 3805 0
-4276 2807 0
4276 -3805 -2807 0
-4278 3989 0
-4278 2810 0
4278 -3989 -2810 0
-3991 3993 0
-3991 3994 0
3991 -3993 -3994 0
-4280 3995 0
-4280 2816 0
4280 -3995 -2816 0
-3997 3999 0
-3997 4000 0
3997 -3999 -4000 0
-4282 3811 0
-4282 2822 0
4282 -3811 -2822 0
-4284 4001 0
-4284 2825 0
4284 -4001 -2825 0
-4003 4005 0
-4003 4006 0
4003 -4005 -4006 0
-3993 3986 0
-3993 3810 0
3993 -3986 -3810 0
-3999 3993 0
-3999 3994 0
3999 -3993 -3994 0
-3815 3999 0
-3815 4000 0
3815 -3999 -4000 0
-4005 3815 0
-4005 3816 0
4005 -3815 -3816 0
-4286 3817 0
-4286 2843 0
4286 -3817 -2843 0
-4288 4007 0
-4288 2846 0
4288 -4007 -2846 0
-4009 4011 0
-4009 4012 0
4009 -4011 -4012 0
-4290 4013 0
-4290 2852 0
4290 -4013 -2852 0
-4015 4017 0
-4015 4018 0
4015 -4017 -4018 0
-4292 4019 0
-4292 2858 0
4292 -4019 -2858 0
-4021 4023 0
-4021 4024 0
4021 -4023 -4024 0
-4294 4025 0
-4294 2864 0
4294 -4025 -2864 0
-4027 4029 0
-4027 4030 0
4027 -4029 -4030 0
-4296 3823 0
-4296 2870 0
4296 -3823 -2870 0
-4011 3821 0
-4011 3822 0
4011 -3821 -3822 0
-4017 4011 0
-4017 4012 0
4017 -4011 -4012 0
-4023 4017 0
-4023 4018 0
4023 -4017 -4018 0
-4029 4023 0
-4029 4024 0
4029 -4023 -4024 0
-3827 4029 0
-3827 4030 0
3827 -4029 -4030 0
-3403 3827 0
-3403 2888 0
3403 -3827 -2888 0
-4298 2890 0
-4298 2891 0
4298 -2890 -2891 0
-3506 3392 0
-3506 3395 0
3506 -3392 -3395 0
-4300 3829 0
-4300 2897 0
4300 -3829 -2897 0
-4302 4031 0
-4302 2900 0
4302 -4031 -2900 0
-4033 4035 0
-4033 4036 0
4033 -4035 -4036 0
-4304 4037 0
-4304 2906 0
4304 -4037 -2906 0
-4039 4041 0
-4039 4042 0
4039 -4041 -4042 0
-4035 3833 0
-4035 3834 0
4035 -3833 -3834 0
-4041 4035 0
-4041 4036 0
4041 -4035 -4036 0
-4306 3835 0
-4306 2918 0
4306 -3835 -2918 0
-4308 3841 0
-4308 2921 0
4308 -3841 -2921 0
-4310 4043 0
-4310 2924 0
4310 -4043 -2924 0
-4045 4047 0
-4045 4048 0
4045 -4047 -4048 0
-3845 4117 0
-3845 3840 0
3845 -4117 -3840 0
-4047 3845 0
-4047 3846 0
4047 -3845 -3846 0
-3497 4041 0
-3497 4042 0
3497 -4041 -4042 0
-3530 2938 0
-3530 4041 0
3530 -2938 -4041 0
-3391 4005 0
-3391 4006 0
3391 -4005 -4006 0
-3400 3827 0
-3400 3828 0
3400 -3827 -3828 0
-3612 4047 0
-3612 4048 0
3612 -4047 -4048 0
-3509 4165 0
-3509 4166 0
3509 -4165 -4166 0
-4312 4049 0
-4312 2954 0
4312 -4049 -2954 0
-4051 4086 0
-4051 4054 0
4051 -4086 -4054 0
-4314 4055 0
-4314 2960 0
4314 -4055 -2960 0
-4057 4059 0
-4057 4060 0
4057 -4059 -4060 0
-4316 4061 0
-4316 2966 0
4316 -4061 -2966 0
-4063 4065 0
-4063 4066 0
4063 -4065 -4066 0
-4318 4067 0
-4318 2972 0
4318 -4067 -2972 0
-4069 4071 0
-4069 4072 0
4069 -4071 -4072 0
-2976 3697 0
-2976 3700 0
2976 -3697 -3700 0
-4320 4073 0
-4320 2981 0
4320 -4073 -2981 0
-4075 4077 0
-4075 4078 0
4075 -4077 -4078 0
-4059 4086 0
-4059 4054 0
4059 -4086 -4054 0
-4065 4059 0
-4065 4060 0
4065 -4059 -4060 0
-4071 4065 0
-4071 4066 0
4071 -4065 -4066 0
-4077 4071 0
-4077 4072 0
4077 -4071 -4072 0
-3424 3416 0
-3424 4085 0
3424 -3416 -4085 0
-3430 3419 0
-3430 3422 0
3430 -3419 -3422 0
-3436 3425 0
-3436 3428 0
3436 -3425 -3428 0
-3442 3431 0
-3442 3434 0
3442 -3431 -3434 0
-4322 3012 0
-4322 3011 0
4322 -3012 -3011 0
-3012 3463 0
-3012 3466 0
3012 -3463 -3466 0
-4324 3018 0
-4324 3017 0
4324 -3018 -3017 0
-3018 3469 0
-3018 3472 0
3018 -3469 -3472 0
-4326 3024 0
-4326 3023 0
4326 -3024 -3023 0
-3024 3475 0
-3024 3478 0
3024 -3475 -3478 0
-4328 3030 0
-4328 3029 0
4328 -3030 -3029 0
-3030 3484 0
-3030 3487 0
3030 -3484 -3487 0
-4093 3910 0
-4093 3495 0
4093 -3910 -3495 0
-4090 3908 0
-4090 3495 0
4090 -3908 -3495 0
-4135 3496 0
-4135 3499 0
4135 -3496 -3499 0
-3548 3508 0
-3548 3511 0
3548 -3508 -3511 0
-3521 3514 0
-3521 3517 0
3521 -3514 -3517 0
-4153 4099 0
-4153 4112 0
4153 -4099 -4112 0
-4330 4095 0
-4330 3053 0
4330 -4095 -3053 0
-4097 4099 0
-4097 4100 0
4097 -4099 -4100 0
-4332 4101 0
-4332 3059 0
4332 -4101 -3059 0
-4103 4105 0
-4103 4106 0
4103 -4105 -4106 0
-4334 4107 0
-4334 3065 0
4334 -4107 -3065 0
-4109 4111 0
-4109 4112 0
4109 -4111 -4112 0
-4105 4099 0
-4105 4100 0
4105 -4099 -4100 0
-4111 4105 0
-4111 4106 0
4111 -4105 -4106 0
-3540 4117 0
-3540 4118 0
-3540 4130 0
3540 -4117 -4118 -4130 0
-4336 4113 0
-4336 3081 0
4336 -4113 -3081 0
-4115 4117 0
-4115 4118 0
4115 -4117 -4118 0
-4338 4119 0
-4338 3087 0
4338 -4119 -3087 0
-4121 4123 0
-4121 4124 0
4121 -4123 -4124 0
-4340 4125 0
-4340 3093 0
4340 -4125 -3093 0
-4127 4129 0
-4127 4130 0
4127 -4129 -4130 0
-4123 4117 0
-4123 4118 0
4123 -4117 -4118 0
-4129 4123 0
-4129 4124 0
4129 -4123 -4124 0
-4342 4131 0
-4342 3105 0
4342 -4131 -3105 0
-4133 4135 0
-4133 4136 0
4133 -4135 -4136 0
-4344 4137 0
-4344 3111 0
4344 -4137 -3111 0
-4139 4141 0
-4139 4142 0
4139 -4141 -4142 0
-4346 4143 0
-4346 3117 0
4346 -4143 -3117 0
-4145 4147 0
-4145 4148 0
4145 -4147 -4148 0
-4141 4135 0
-4141 4136 0
4141 -4135 -4136 0
-4147 4135 0
-4147 4142 0
4147 -4135 -4142 0
-3615 4147 0
-3615 4148 0
3615 -4147 -4148 0
-4348 4149 0
-4348 3132 0
4348 -4149 -3132 0
-4151 4153 0
-4151 4154 0
4151 -4153 -4154 0
-4350 4155 0
-4350 3138 0
4350 -4155 -3138 0
-4157 4159 0
-4157 4160 0
4157 -4159 -4160 0
-4352 4161 0
-4352 3144 0
4352 -4161 -3144 0
-4163 4165 0
-4163 4166 0
4163 -4165 -4166 0
-4159 4153 0
-4159 4154 0
4159 -4153 -4154 0
-4165 4153 0
-4165 4160 0
4165 -4153 -4160 0
-3303 3529 0
-3303 3532 0
3303 -3529 -3532 0
-4243 3502 0
-4243 3505 0
4243 -3502 -3505 0
-3863 3520 0
-3863 3523 0
3863 -3520 -3523 0
-4354 3550 0
-4354 3165 0
4354 -3550 -3165 0
-4356 4167 0
-4356 3168 0
4356 -4167 -3168 0
-4168 4177 0
-4168 3594 0
4168 -4177 -3594 0
-4358 3553 0
-4358 3174 0
4358 -3553 -3174 0
-4360 4173 0
-4360 3177 0
4360 -4173 -3177 0
-4174 4177 0
-4174 3180 0
4174 -4177 -3180 0
-3686 3182 0
-3686 3183 0
-3686 3184 0
3686 -3182 -3183 -3184 0
-4362 4179 0
-4362 3187 0
4362 -4179 -3187 0
-4181 4183 0
-4181 4184 0
4181 -4183 -4184 0
-4364 4185 0
-4364 3193 0
4364 -4185 -3193 0
-4187 4189 0
-4187 4190 0
4187 -4189 -4190 0
-4366 4191 0
-4366 3199 0
4366 -4191 -3199 0
-4193 4195 0
-4193 4196 0
4193 -4195 -4196 0
-4368 4197 0
-4368 3205 0
4368 -4197 -3205 0
-4199 4201 0
-4199 4202 0
4199 -4201 -4202 0
-4189 4183 0
-4189 4184 0
4189 -4183 -4184 0
-4195 4189 0
-4195 4190 0
4195 -4189 -4190 0
-4201 4195 0
-4201 4196 0
4201 -4195 -4196 0
-3563 3580 0
-3563 3583 0
3563 -3580 -3583 0
-3569 3586 0
-3569 3589 0
3569 -3586 -3589 0
-3578 3592 0
-3578 3595 0
3578 -3592 -3595 0
-4370 3559 0
-4370 3562 0
4370 -3559 -3562 0
-4372 3565 0
-4372 3568 0
4372 -3565 -3568 0
-4374 3574 0
-4374 3577 0
4374 -3574 -3577 0
-4376 4207 0
-4376 3238 0
4376 -4207 -3238 0
-4209 4211 0
-4209 4212 0
4209 -4211 -4212 0
-4378 4213 0
-4378 3244 0
4378 -4213 -3244 0
-4215 4217 0
-4215 4218 0
4215 -4217 -4218 0
-4380 4219 0
-4380 3250 0
4380 -4219 -3250 0
-4221 4223 0
-4221 4224 0
4221 -4223 -4224 0
-4382 4225 0
-4382 3256 0
4382 -4225 -3256 0
-4227 4229 0
-4227 4230 0
4227 -4229 -4230 0
-4384 4231 0
-4384 3262 0
4384 -4231 -3262 0
-4233 4235 0
-4233 4236 0
4233 -4235 -4236 0
-4217 4211 0
-4217 4212 0
4217 -4211 -4212 0
-4223 4217 0
-4223 4218 0
4223 -4217 -4218 0
-4229 4223 0
-4229 4224 0
4229 -4223 -4224 0
-4235 4229 0
-4235 4230 0
4235 -4229 -4230 0
-4386 3619 0
-4386 3622 0
4386 -3619 -3622 0
-4388 3625 0
-4388 3628 0
4388 -3625 -3628 0
-4390 3631 0
-4390 3634 0
4390 -3631 -3634 0
-4392 3637 0
-4392 3640 0
4392 -3637 -3640 0
-3290 3703 0
-3290 3706 0
3290 -3703 -3706 0
-4394 3658 0
-4394 3295 0
4394 -3658 -3295 0
-3659 3661 0
-3659 3298 0
3659 -3661 -3298 0
-3666 3691 0
-3666 3694 0
3666 -3691 -3694 0
-4211 3303 0
-4211 4244 0
4211 -3303 -4244 0
-4396 3670 0
-4396 3673 0
4396 -3670 -3673 0
-4398 3679 0
-4398 3682 0
4398 -3679 -3682 0
-3852 3739 0
-3852 3742 0
3852 -3739 -3742 0
-3862 3685 0
-3862 3688 0
3862 -3685 -3688 0
-4261 3391 0
-4261 3749 0
4261 -3391 -3749 0
-4262 3400 0
-4262 3755 0
4262 -3400 -3755 0
-4263 3612 0
-4263 3761 0
4263 -3612 -3761 0
-4264 3509 0
-4264 3758 0
4264 -3509 -3758 0
-3572 3330 0
-3572 3911 0
3572 -3330 -3911 0
-3677 3333 0
-3677 3911 0
3677 -3333 -3911 0
-4400 3336 0
-4400 3337 0
4400 -3336 -3337 0
-4402 3341 0
-4402 3340 0
4402 -3341 -3340 0
-3341 3745 0
-3341 3748 0
3341 -3745 -3748 0
-4404 3347 0
-4404 3346 0
4404 -3347 -3346 0
-3347 3751 0
-3347 3754 0
3347 -3751 -3754 0
-4406 3353 0
-4406 3352 0
4406 -3353 -3352 0
-3353 3757 0
-3353 3760 0
3353 -3757 -3760 0
-4252 3766 0
-4252 3358 0
4252 -3766 -3358 0
-4255 3772 0
-4255 3775 0
4255 -3772 -3775 0
-4258 3781 0
-4258 3784 0
4258 -3781 -3784 0
-4414 3847 0
-4414 3367 0
4414 -3847 -3367 0
-4416 4265 0
-4416 3370 0
4416 -4265 -3370 0
-4266 4269 0
-4266 3758 0
4266 -4269 -3758 0
-4418 4245 0
-4418 3376 0
4418 -4245 -3376 0
3807 -3986 0
3807 -3810 0
-3807 3986 3810 0
3813 -3815 0
3813 -3816 0
-3813 3815 3816 0
3819 -3821 0
3819 -3822 0
-3819 3821 3822 0
3825 -3827 0
3825 -3828 0
-3825 3827 3828 0
3821 -3782 0
3821 -3391 0
-3821 3782 3391 0
3392 -3828 0
3392 -3782 0
-3392 3828 3782 0
3395 -3524 0
3395 -3397 0
-3395 3524 3397 0
4117 -3782 0
4117 -3400 0
-4117 3782 3400 0
3533 -3782 0
3533 -3403 0
-3533 3782 3403 0
3831 -3833 0
3831 -3834 0
-3831 3833 3834 0
3837 -4117 0
3837 -3840 0
-3837 4117 3840 0
3843 -3845 0
3843 -3846 0
-3843 3845 3846 0
3849 -3862 0
3849 -3857 0
-3849 3862 3857 0
3416 -3887 0
3416 -4054 0
-3416 3887 4054 0
3419 -3890 0
3419 -4060 0
-3419 3890 4060 0
3422 -4084 0
3422 -3424 0
-3422 4084 3424 0
3425 -3893 0
3425 -4066 0
-3425 3893 4066 0
3428 -4082 0
3428 -3430 0
-3428 4082 3430 0
3431 -3881 0
3431 -4072 0
-3431 3881 4072 0
3434 -4081 0
3434 -3436 0
-3434 4081 3436 0
3987 -3884 0
3987 -4078 0
-3987 3884 4078 0
3988 -4080 0
3988 -3442 0
-3988 4080 3442 0
3866 -4054 0
3866 -3887 0
-3866 4054 3887 0
3869 -4060 0
3869 -3890 0
-3869 4060 3890 0
3872 -4066 0
3872 -3893 0
-3872 4066 3893 0
3875 -4072 0
3875 -3881 0
-3875 4072 3881 0
3878 -4078 0
3878 -3884 0
-3878 4078 3884 0
3491 -3901 0
3491 -3902 0
3491 -3903 0
3491 -3904 0
-3491 3901 3902 3903 3904 0
3463 -3904 0
3463 -3486 0
-3463 3904 3486 0
3466 -3467 0
3466 -3468 0
-3466 3467 3468 0
3469 -3903 0
3469 -3486 0
-3469 3903 3486 0
3472 -3904 0
3472 -3474 0
-3472 3904 3474 0
3475 -3902 0
3475 -3486 0
-3475 3902 3486 0
3478 -3903 0
3478 -3480 0
-3478 3903 3480 0
3486 -3540 0
3486 -3785 0
-3486 3540 3785 0
3484 -3901 0
3484 -3486 0
-3484 3901 3486 0
3487 -3902 0
3487 -3489 0
-3487 3902 3489 0
3906 -3491 0
3906 -3495 0
-3906 3491 3495 0
3909 -4087 0
3909 -3495 0
-3909 4087 3495 0
3496 -3497 0
3496 -3531 0
-3496 3497 3531 0
3499 -4117 0
3499 -3501 0
-3499 4117 3501 0
3502 -4042 0
3502 -3531 0
-3502 4042 3531 0
3505 -3506 0
3505 -3507 0
-3505 3506 3507 0
3508 -3509 0
3508 -3785 0
-3508 3509 3785 0
3511 -3615 0
3511 -3513 0
-3511 3615 3513 0
3514 -4166 0
3514 -3785 0
-3514 4166 3785 0
3517 -4148 0
3517 -3519 0
-3517 4148 3519 0
3520 -3521 0
3520 -3776 0
-3520 3521 3776 0
3523 -3524 0
3523 -3525 0
-3523 3524 3525 0
3531 -3686 0
3531 -3776 0
-3531 3686 3776 0
3529 -3530 0
3529 -3531 0
-3529 3530 3531 0
3532 -3533 0
3532 -3534 0
-3532 3533 3534 0
3535 -3789 0
3535 -4153 0
-3535 3789 4153 0
3538 -3789 0
3538 -3540 0
-3538 3789 3540 0
3541 -3789 0
3541 -4147 0
-3541 3789 4147 0
3544 -3789 0
3544 -4165 0
-3544 3789 4165 0
4183 -3548 0
4183 -3776 0
-4183 3548 3776 0
3550 -4243 0
3550 -3552 0
-3550 4243 3552 0
3553 -4177 0
3553 -3555 0
-3553 4177 3555 0
3740 -3980 0
3740 -4244 0
-3740 3980 4244 0
3559 -4204 0
3559 -3576 0
-3559 4204 3576 0
3562 -3563 0
3562 -3564 0
-3562 3563 3564 0
3565 -4205 0
3565 -3576 0
-3565 4205 3576 0
3568 -3569 0
3568 -3570 0
-3568 3569 3570 0
3576 -3572 0
3576 -3789 0
-3576 3572 3789 0
3574 -4206 0
3574 -3576 0
-3574 4206 3576 0
3577 -3578 0
3577 -3579 0
-3577 3578 3579 0
3580 -3731 0
3580 -3594 0
-3580 3731 3594 0
3583 -3713 0
3583 -3585 0
-3583 3713 3585 0
3586 -3737 0
3586 -3594 0
-3586 3737 3594 0
3589 -3719 0
3589 -3591 0
-3589 3719 3591 0
3592 -3743 0
3592 -3594 0
-3592 3743 3594 0
3595 -3725 0
3595 -3597 0
-3595 3725 3597 0
3916 -4204 0
3916 -4184 0
-3916 4204 4184 0
3919 -4205 0
3919 -4190 0
-3919 4205 4190 0
3922 -4206 0
3922 -4196 0
-3922 4206 4196 0
3925 -4203 0
3925 -4202 0
-3925 4203 4202 0
3833 -3785 0
3833 -3612 0
-3833 3785 3612 0
4099 -3785 0
4099 -3615 0
-4099 3785 3615 0
4244 -3938 0
4244 -3942 0
-4244 3938 3942 0
3619 -4238 0
3619 -3681 0
-3619 4238 3681 0
3622 -3689 0
3622 -3624 0
-3622 3689 3624 0
3625 -4239 0
3625 -3681 0
-3625 4239 3681 0
3628 -3701 0
3628 -3630 0
-3628 3701 3630 0
3631 -4240 0
3631 -3681 0
-3631 4240 3681 0
3634 -3695 0
3634 -3636 0
-3634 3695 3636 0
3637 -4241 0
3637 -3681 0
-3637 4241 3681 0
3640 -3707 0
3640 -3642 0
-3640 3707 3642 0
3947 -4238 0
3947 -4212 0
-3947 4238 4212 0
3950 -4239 0
3950 -4218 0
-3950 4239 4218 0
3953 -4240 0
3953 -4224 0
-3953 4240 4224 0
3956 -4241 0
3956 -4230 0
-3956 4241 4230 0
3959 -4237 0
3959 -4236 0
-3959 4237 4236 0
3658 -3659 0
3658 -4211 0
-3658 3659 4211 0
3661 -3980 0
3661 -4242 0
-3661 3980 4242 0
3976 -3680 0
3976 -3666 0
-3976 3680 3666 0
3977 -3668 0
3977 -3671 0
-3977 3668 3671 0
3670 -3671 0
3670 -3681 0
-3670 3671 3681 0
3673 -3783 0
3673 -3675 0
-3673 3783 3675 0
3681 -3677 0
3681 -3789 0
-3681 3677 3789 0
3679 -3680 0
3679 -3681 0
-3679 3680 3681 0
3682 -4269 0
3682 -3684 0
-3682 4269 3684 0
3685 -3686 0
3685 -3776 0
-3685 3686 3776 0
3688 -3689 0
3688 -3690 0
-3688 3689 3690 0
3691 -3692 0
3691 -3776 0
-3691 3692 3776 0
3694 -3695 0
3694 -3696 0
-3694 3695 3696 0
3697 -3911 0
3697 -3776 0
-3697 3911 3776 0
3700 -3701 0
3700 -3702 0
-3700 3701 3702 0
3703 -3911 0
3703 -3776 0
-3703 3911 3776 0
3706 -3707 0
3706 -3708 0
-3706 3707 3708 0
3709 -3790 0
3709 -3776 0
-3709 3790 3776 0
3712 -3713 0
3712 -3714 0
-3712 3713 3714 0
3715 -3793 0
3715 -3776 0
-3715 3793 3776 0
3718 -3719 0
3718 -3720 0
-3718 3719 3720 0
3721 -3796 0
3721 -3776 0
-3721 3796 3776 0
3724 -3725 0
3724 -3726 0
-3724 3725 3726 0
3727 -3799 0
3727 -3776 0
-3727 3799 3776 0
3730 -3731 0
3730 -3732 0
-3730 3731 3732 0
3733 -3802 0
3733 -3776 0
-3733 3802 3776 0
3736 -3737 0
3736 -3738 0
-3736 3737 3738 0
3739 -3740 0
3739 -3776 0
-3739 3740 3776 0
3742 -3743 0
3742 -3744 0
-3742 3743 3744 0
3745 -3755 0
3745 -4269 0
-3745 3755 4269 0
3748 -3749 0
3748 -3750 0
-3748 3749 3750 0
3751 -3761 0
3751 -4269 0
-3751 3761 4269 0
3754 -3755 0
3754 -3756 0
-3754 3755 3756 0
3757 -3758 0
3757 -4269 0
-3757 3758 4269 0
3760 -3761 0
3760 -3762 0
-3760 3761 3762 0
4408 -4251 0
4408 -3787 0
-4408 4251 3787 0
3766 -3776 0
3766 -3783 0
-3766 3776 3783 0
4410 -4254 0
4410 -3787 0
-4410 4254 3787 0
3772 -3785 0
3772 -3783 0
-3772 3785 3783 0
3775 -3776 0
3775 -3777 0
-3775 3776 3777 0
4412 -4257 0
4412 -3787 0
-4412 4257 3787 0
3781 -3782 0
3781 -3783 0
-3781 3782 3783 0
3784 -3785 0
3784 -3786 0
-3784 3785 3786 0
3787 -4249 0
3787 -3789 0
-3787 4249 3789 0
3790 4212 0
3790 3804 0
-3790 -4212 -3804 0
3793 4218 0
3793 3804 0
-3793 -4218 -3804 0
3796 4224 0
3796 3804 0
-3796 -4224 -3804 0
3799 4230 0
3799 3804 0
-3799 -4230 -3804 0
3802 4236 0
3802 3804 0
-3802 -4236 -3804 0
3805 3808 0
3805 3807 0
-3805 -3808 -3807 0
3808 3986 0
3808 3810 0
-3808 -3986 -3810 0
3811 3814 0
3811 3813 0
-3811 -3814 -3813 0
3814 3815 0
3814 3816 0
-3814 -3815 -3816 0
3817 3820 0
3817 3819 0
-3817 -3820 -3819 0
3820 3821 0
3820 3822 0
-3820 -3821 -3822 0
3823 3826 0
3823 3825 0
-3823 -3826 -3825 0
3826 3827 0
3826 3828 0
-3826 -3827 -3828 0
3829 3832 0
3829 3831 0
-3829 -3832 -3831 0
3832 3833 0
3832 3834 0
-3832 -3833 -3834 0
3835 3838 0
3835 3837 0
-3835 -3838 -3837 0
3838 4117 0
3838 3840 0
-3838 -4117 -3840 0
3841 3844 0
3841 3843 0
-3841 -3844 -3843 0
3844 3845 0
3844 3846 0
-3844 -3845 -3846 0
3847 3861 0
3847 3849 0
-3847 -3861 -3849 0
3860 4243 0
3860 3852 0
-3860 -4243 -3852 0
3859 3854 0
3859 3897 0
3859 4243 0
-3859 -3854 -3897 -4243 0
3857 3986 0
3857 3859 0
3857 3860 0
-3857 -3986 -3859 -3860 0
3861 3862 0
3861 3863 0
-3861 -3862 -3863 0
4085 3885 0
4085 3866 0
-4085 -3885 -3866 0
4084 3888 0
4084 3869 0
-4084 -3888 -3869 0
4082 3891 0
4082 3872 0
-4082 -3891 -3872 0
4081 3879 0
4081 3875 0
-4081 -3879 -3875 0
4080 3882 0
4080 3878 0
-4080 -3882 -3878 0
3879 4072 0
3879 3881 0
-3879 -4072 -3881 0
3882 4078 0
3882 3884 0
-3882 -4078 -3884 0
3885 4054 0
3885 3887 0
-3885 -4054 -3887 0
3888 4060 0
3888 3890 0
-3888 -4060 -3890 0
3891 4066 0
3891 3893 0
-3891 -4066 -3893 0
3898 4079 0
3898 4083 0
-3898 -4079 -4083 0
3897 3898 0
3897 3986 0
-3897 -3898 -3986 0
4087 3901 0
4087 3902 0
4087 3903 0
4087 3904 0
-4087 -3901 -3902 -3903 -3904 0
3910 3906 0
3910 3907 0
-3910 -3906 -3907 0
3908 3909 0
3908 3910 0
-3908 -3909 -3910 0
3911 3912 0
3911 3981 0
-3911 -3912 -3981 0
3982 3926 0
3982 3916 0
-3982 -3926 -3916 0
3983 3929 0
3983 3919 0
-3983 -3929 -3919 0
3984 3932 0
3984 3922 0
-3984 -3932 -3922 0
3985 3935 0
3985 3925 0
-3985 -3935 -3925 0
3926 4204 0
3926 4184 0
-3926 -4204 -4184 0
3929 4205 0
3929 4190 0
-3929 -4205 -4190 0
3932 4206 0
3932 4196 0
-3932 -4206 -4196 0
3935 4203 0
3935 4202 0
-3935 -4203 -4202 0
3938 3945 0
3938 3948 0
3938 3951 0
-3938 -3945 -3948 -3951 0
3942 3954 0
3942 3957 0
-3942 -3954 -3957 0
3945 3960 0
3945 3947 0
-3945 -3960 -3947 0
3948 3963 0
3948 3950 0
-3948 -3963 -3950 0
3951 3966 0
3951 3953 0
-3951 -3966 -3953 0
3954 3969 0
3954 3956 0
-3954 -3969 -3956 0
3957 3972 0
3957 3959 0
-3957 -3972 -3959 0
3960 4238 0
3960 4212 0
-3960 -4238 -4212 0
3963 4239 0
3963 4218 0
-3963 -4239 -4218 0
3966 4240 0
3966 4224 0
-3966 -4240 -4224 0
3969 4241 0
3969 4230 0
-3969 -4241 -4230 0
3972 4237 0
3972 4236 0
-3972 -4237 -4236 0
4247 3976 0
4247 3977 0
-4247 -3976 -3977 0
4246 4243 0
4246 3980 0
-4246 -4243 -3980 0
3981 3982 0
3981 3983 0
3981 3984 0
3981 3985 0
-3981 -3982 -3983 -3984 -3985 0
3986 3987 0
3986 3988 0
-3986 -3987 -3988 0
-3989 -3992 0
-3989 -3991 0
3989 3992 3991 0
-3992 -3993 0
-3992 -3994 0
3992 3993 3994 0
-3995 -3998 0
-3995 -3997 0
3995 3998 3997 0
-3998 -3999 0
-3998 -4000 0
3998 3999 4000 0
-4001 -4004 0
-4001 -4003 0
4001 4004 4003 0
-4004 -4005 0
-4004 -4006 0
4004 4005 4006 0
-4007 -4010 0
-4007 -4009 0
4007 4010 4009 0
-4010 -4011 0
-4010 -4012 0
4010 4011 4012 0
-4013 -4016 0
-4013 -4015 0
4013 4016 4015 0
-4016 -4017 0
-4016 -4018 0
4016 4017 4018 0
-4019 -4022 0
-4019 -4021 0
4019 4022 4021 0
-4022 -4023 0
-4022 -4024 0
4022 4023 4024 0
-4025 -4028 0
-4025 -4027 0
4025 4028 4027 0
-4028 -4029 0
-4028 -4030 0
4028 4029 4030 0
-4031 -4034 0
-4031 -4033 0
4031 4034 4033 0
-4034 -4035 0
-4034 -4036 0
4034 4035 4036 0
-4037 -4040 0
-4037 -4039 0
4037 4040 4039 0
-4040 -4041 0
-4040 -4042 0
4040 4041 4042 0
-4043 -4046 0
-4043 -4045 0
4043 4046 4045 0
-4046 -4047 0
-4046 -4048 0
4046 4047 4048 0
-4049 -4052 0
-4049 -4051 0
4049 4052 4051 0
-4052 -4086 0
-4052 -4054 0
4052 4086 4054 0
-4055 -4058 0
-4055 -4057 0
4055 4058 4057 0
-4058 -4059 0
-4058 -4060 0
4058 4059 4060 0
-4061 -4064 0
-4061 -4063 0
4061 4064 4063 0
-4064 -4065 0
-4064 -4066 0
4064 4065 4066 0
-4067 -4070 0
-4067 -4069 0
4067 4070 4069 0
-4070 -4071 0
-4070 -4072 0
4070 4071 4072 0
-4073 -4076 0
-4073 -4075 0
4073 4076 4075 0
-4076 -4077 0
-4076 -4078 0
4076 4077 4078 0
-4079 -4080 0
-4079 -4081 0
-4079 -4082 0
4079 4080 4081 4082 0
-4083 -4084 0
-4083 -4085 0
4083 4084 4085 0
-4086 -4087 0
-4086 -4092 0
4086 4087 4092 0
-4094 -4090 0
-4094 -4091 0
4094 4090 4091 0
-4092 -4093 0
-4092 -4094 0
4092 4093 4094 0
-4095 -4098 0
-4095 -4097 0
4095 4098 4097 0
-4098 -4099 0
-4098 -4100 0
4098 4099 4100 0
-4101 -4104 0
-4101 -4103 0
4101 4104 4103 0
-4104 -4105 0
-4104 -4106 0
4104 4105 4106 0
-4107 -4110 0
-4107 -4109 0
4107 4110 4109 0
-4110 -4111 0
-4110 -4112 0
4110 4111 4112 0
-4113 -4116 0
-4113 -4115 0
4113 4116 4115 0
-4116 -4117 0
-4116 -4118 0
4116 4117 4118 0
-4119 -4122 0
-4119 -4121 0
4119 4122 4121 0
-4122 -4123 0
-4122 -4124 0
4122 4123 4124 0
-4125 -4128 0
-4125 -4127 0
4125 4128 4127 0
-4128 -4129 0
-4128 -4130 0
4128 4129 4130 0
-4131 -4134 0
-4131 -4133 0
4131 4134 4133 0
-4134 -4135 0
-4134 -4136 0
4134 4135 4136 0
-4137 -4140 0
-4137 -4139 0
4137 4140 4139 0
-4140 -4141 0
-4140 -4142 0
4140 4141 4142 0
-4143 -4146 0
-4143 -4145 0
4143 4146 4145 0
-4146 -4147 0
-4146 -4148 0
4146 4147 4148 0
-4149 -4152 0
-4149 -4151 0
4149 4152 4151 0
-4152 -4153 0
-4152 -4154 0
4152 4153 4154 0
-4155 -4158 0
-4155 -4157 0
4155 4158 4157 0
-4158 -4159 0
-4158 -4160 0
4158 4159 4160 0
-4161 -4164 0
-4161 -4163 0
4161 4164 4163 0
-4164 -4165 0
-4164 -4166 0
4164 4165 4166 0
-4167 -4168 0
-4167 -4170 0
4167 4168 4170 0
-4170 -4177 0
-4170 -4172 0
4170 4177 4172 0
-4173 -4174 0
-4173 -4176 0
4173 4174 4176 0
-4176 -4177 0
-4176 -4178 0
4176 4177 4178 0
-4179 -4182 0
-4179 -4181 0
4179 4182 4181 0
-4182 -4183 0
-4182 -4184 0
4182 4183 4184 0
-4185 -4188 0
-4185 -4187 0
4185 4188 4187 0
-4188 -4189 0
-4188 -4190 0
4188 4189 4190 0
-4191 -4194 0
-4191 -4193 0
4191 4194 4193 0
-4194 -4195 0
-4194 -4196 0
4194 4195 4196 0
-4197 -4200 0
-4197 -4199 0
4197 4200 4199 0
-4200 -4201 0
-4200 -4202 0
4200 4201 4202 0
-4203 -4204 0
-4203 -4205 0
-4203 -4206 0
4203 4204 4205 4206 0
-4207 -4210 0
-4207 -4209 0
4207 4210 4209 0
-4210 -4211 0
-4210 -4212 0
4210 4211 4212 0
-4213 -4216 0
-4213 -4215 0
4213 4216 4215 0
-4216 -4217 0
-4216 -4218 0
4216 4217 4218 0
-4219 -4222 0
-4219 -4221 0
4219 4222 4221 0
-4222 -4223 0
-4222 -4224 0
4222 4223 4224 0
-4225 -4228 0
-4225 -4227 0
4225 4228 4227 0
-4228 -4229 0
-4228 -4230 0
4228 4229 4230 0
-4231 -4234 0
-4231 -4233 0
4231 4234 4233 0
-4234 -4235 0
-4234 -4236 0
4234 4235 4236 0
-4237 -4238 0
-4237 -4239 0
-4237 -4240 0
-4237 -4241 0
4237 4238 4239 4240 4241 0
-4242 -4243 0
-4242 -4244 0
4242 4243 4244 0
-4245 -4246 0
-4245 -4247 0
4245 4246 4247 0
-4259 -4249 0
-4259 -4250 0
4259 4249 4250 0
-4251 -4252 0
-4251 -4259 0
4251 4252 4259 0
-4254 -4255 0
-4254 -4259 0
4254 4255 4259 0
-4257 -4258 0
-4257 -4259 0
4257 4258 4259 0
-4260 -4261 0
-4260 -4262 0
-4260 -4263 0
-4260 -4264 0
4260 4261 4262 4263 4264 0
-4265 -4266 0
-4265 -4268 0
4265 4266 4268 0
-4268 -4269 0
-4268 -4270 0
4268 4269 4270 0
-4272 5864 0
4272 -5864 0
-4274 6048 0
4274 -6048 0
-4276 4430 0
4276 -4430 0
-4278 5951 0
4278 -5951 0
-4280 5957 0
4280 -5957 0
-4282 4438 0
4282 -4438 0
-4284 5963 0
4284 -5963 0
-4286 4444 0
4286 -4444 0
-4288 5969 0
4288 -5969 0
-4290 5975 0
4290 -5975 0
-4292 5981 0
4292 -5981 0
-4294 5987 0
4294 -5987 0
-4296 4845 0
4296 -4845 0
-4298 5481 0
4298 -5481 0
-4300 4468 0
4300 -4468 0
-4302 5993 0
4302 -5993 0
-4304 5999 0
4304 -5999 0
-4306 4478 0
4306 -4478 0
-4308 4482 0
4308 -4482 0
-4310 6005 0
4310 -6005 0
-4312 6011 0
4312 -6011 0
-4314 6017 0
4314 -6017 0
-4316 6023 0
4316 -6023 0
-4318 6029 0
4318 -6029 0
-4320 6035 0
4320 -6035 0
-4322 5861 0
4322 -5861 0
-4324 5860 0
4324 -5860 0
-4326 5859 0
4326 -5859 0
-4328 5858 0
4328 -5858 0
-4330 6057 0
4330 -6057 0
-4332 6063 0
4332 -6063 0
-4334 6069 0
4334 -6069 0
-4336 6075 0
4336 -6075 0
-4338 6081 0
4338 -6081 0
-4340 6087 0
4340 -6087 0
-4342 6093 0
4342 -6093 0
-4344 6099 0
4344 -6099 0
-4346 6105 0
4346 -6105 0
-4348 6111 0
4348 -6111 0
-4350 6117 0
4350 -6117 0
-4352 6123 0
4352 -6123 0
-4354 5509 0
4354 -5509 0
-4356 6129 0
4356 -6129 0
-4358 5512 0
4358 -5512 0
-4360 6135 0
4360 -6135 0
-4362 6141 0
4362 -6141 0
-4364 6147 0
4364 -6147 0
-4366 6153 0
4366 -6153 0
-4368 6159 0
4368 -6159 0
-4370 6161 0
4370 -6161 0
-4372 6162 0
4372 -6162 0
-4374 6163 0
4374 -6163 0
-4376 6169 0
4376 -6169 0
-4378 6175 0
4378 -6175 0
-4380 6181 0
4380 -6181 0
-4382 6187 0
4382 -6187 0
-4384 6193 0
4384 -6193 0
-4386 6195 0
4386 -6195 0
-4388 6196 0
4388 -6196 0
-4390 6197 0
4390 -6197 0
-4392 6198 0
4392 -6198 0
-4394 5937 0
4394 -5937 0
-4396 5628 0
4396 -5628 0
-4398 5637 0
4398 -5637 0
-4400 6207 0
4400 -6207 0
-4402 5712 0
4402 -5712 0
-4404 5718 0
4404 -5718 0
-4406 5715 0
4406 -5715 0
-4408 5287 0
4408 -5287 0
-4410 5290 0
4410 -5290 0
-4412 4464 0
4412 -4464 0
-4414 4740 0
4414 -4740 0
-4416 6227 0
4416 -6227 0
-4418 4746 0
4418 -4746 0
4422 5865 0
-4422 -5865 0
6229 4422 0
-6229 -4422 0
4426 6049 0
-4426 -6049 0
6231 4426 0
-6231 -4426 0
4764 5746 0
-4764 -5746 0
5767 4430 0
-5767 -4430 0
4767 5746 0
-4767 -5746 0
4773 5746 0
-4773 -5746 0
4779 5746 0
-4779 -5746 0
5773 4438 0
-5773 -4438 0
4782 5746 0
-4782 -5746 0
4800 5746 0
-4800 -5746 0
5779 4444 0
-5779 -4444 0
4803 5746 0
-4803 -5746 0
4809 5746 0
-4809 -5746 0
4815 5746 0
-4815 -5746 0
4821 5746 0
-4821 -5746 0
4827 5746 0
-4827 -5746 0
4848 5746 0
-4848 -5746 0
4847 5481 0
-4847 -5481 0
5785 4845 0
-5785 -4845 0
5354 5739 0
-5354 -5739 0
5739 4464 0
-5739 -4464 0
4854 5746 0
-4854 -5746 0
5791 4468 0
-5791 -4468 0
4857 5746 0
-4857 -5746 0
4863 5746 0
-4863 -5746 0
4895 5999 0
-4895 -5999 0
4875 5746 0
-4875 -5746 0
5797 4478 0
-5797 -4478 0
4878 5746 0
-4878 -5746 0
5803 4482 0
-5803 -4482 0
4881 5746 0
-4881 -5746 0
4911 4933 0
-4911 -4933 0
4917 4933 0
-4917 -4933 0
4923 4933 0
-4923 -4933 0
4929 4933 0
-4929 -4933 0
4938 4933 0
-4938 -4933 0
5811 5855 0
-5811 -5855 0
4968 5746 0
-4968 -5746 0
5425 5443 0
-5425 -5443 0
4974 5746 0
-4974 -5746 0
5431 5443 0
-5431 -5443 0
4980 5746 0
-4980 -5746 0
5437 5443 0
-5437 -5443 0
4986 5746 0
-4986 -5746 0
5446 5443 0
-5446 -5443 0
5458 5488 0
-5458 -5488 0
5464 5488 0
-5464 -5488 0
5470 5742 0
-5470 -5742 0
5476 5742 0
-5476 -5742 0
5742 5290 0
-5742 -5290 0
5482 5733 0
-5482 -5733 0
5491 5488 0
-5491 -5488 0
5010 5492 0
-5010 -5492 0
5016 5492 0
-5016 -5492 0
5022 5492 0
-5022 -5492 0
5038 5495 0
-5038 -5495 0
5044 5495 0
-5044 -5495 0
5050 5495 0
-5050 -5495 0
5062 5498 0
-5062 -5498 0
5068 5498 0
-5068 -5498 0
5074 5746 0
-5074 -5746 0
5089 5501 0
-5089 -5501 0
5095 5501 0
-5095 -5501 0
5101 5746 0
-5101 -5746 0
5122 5746 0
-5122 -5746 0
5125 5746 0
-5125 -5746 0
5137 5512 0
-5137 -5512 0
5131 5746 0
-5131 -5746 0
5140 6135 0
-5140 -6135 0
5134 5746 0
-5134 -5746 0
5139 5697 0
-5139 -5697 0
5144 5868 0
-5144 -5868 0
5150 5868 0
-5150 -5868 0
5156 5868 0
-5156 -5868 0
5162 5868 0
-5162 -5868 0
5869 5746 0
-5869 -5746 0
5521 5533 0
-5521 -5533 0
5527 5533 0
-5527 -5533 0
5536 5533 0
-5536 -5533 0
5542 5551 0
-5542 -5551 0
5548 5551 0
-5548 -5551 0
5554 5551 0
-5554 -5551 0
5551 5509 0
-5551 -5509 0
5195 5247 0
-5195 -5247 0
5201 5247 0
-5201 -5247 0
5207 5247 0
-5207 -5247 0
5213 5247 0
-5213 -5247 0
5219 5247 0
-5219 -5247 0
5581 5638 0
-5581 -5638 0
5587 5638 0
-5587 -5638 0
5593 5638 0
-5593 -5638 0
5599 5638 0
-5599 -5638 0
5252 5247 0
-5252 -5247 0
5255 6199 0
-5255 -6199 0
5761 6204 0
-5761 -6204 0
5625 5623 0
-5625 -5623 0
5632 5638 0
-5632 -5638 0
5641 5638 0
-5641 -5638 0
5649 6129 0
-5649 -6129 0
6134 5938 0
-6134 -5938 0
5647 5733 0
-5647 -5733 0
5653 5733 0
-5653 -5733 0
5659 5733 0
-5659 -5733 0
5665 5733 0
-5665 -5733 0
5671 5733 0
-5671 -5733 0
5677 5733 0
-5677 -5733 0
5683 5733 0
-5683 -5733 0
5689 5733 0
-5689 -5733 0
5695 5733 0
-5695 -5733 0
5701 5733 0
-5701 -5733 0
5733 5287 0
-5733 -5287 0
5294 5746 0
-5294 -5746 0
6206 5293 0
-6206 -5293 0
4652 4650 0
-4652 -4650 0
5293 4652 0
-5293 -4652 0
5706 6227 0
-5706 -6227 0
5297 5746 0
-5297 -5746 0
5707 6226 0
-5707 -6226 0
5303 5746 0
-5303 -5746 0
5713 6226 0
-5713 -6226 0
5309 5746 0
-5309 -5746 0
5719 6226 0
-5719 -6226 0
4670 4668 0
-4670 -4668 0
6226 4670 0
-6226 -4670 0
5315 5740 0
-5315 -5740 0
5734 5740 0
-5734 -5740 0
5743 5740 0
-5743 -5740 0
4680 4678 0
-4680 -4678 0
5740 4680 0
-5740 -4680 0
4694 4682 0
-4694 -4682 0
4683 4694 0
-4683 -4694 0
5324 5746 0
-5324 -5746 0
5327 5746 0
-5327 -5746 0
5333 5746 0
-5333 -5746 0
5746 4692 0
-5746 -4692 0
5452 4694 0
-5452 -4694 0
4698 4696 0
-4698 -4696 0
5646 4698 0
-5646 -4698 0
4702 4700 0
-4702 -4700 0
5658 4702 0
-5658 -4702 0
4706 4704 0
-4706 -4704 0
5652 4706 0
-5652 -4706 0
4710 4708 0
-4710 -4708 0
5664 4710 0
-5664 -4710 0
4714 4712 0
-4714 -4712 0
5424 4714 0
-5424 -4714 0
4718 4716 0
-4718 -4716 0
5670 4718 0
-5670 -4718 0
4722 4720 0
-4722 -4720 0
5676 4722 0
-5676 -4722 0
4726 4724 0
-4726 -4724 0
5682 4726 0
-5682 -4726 0
4730 4728 0
-4730 -4728 0
5688 4730 0
-5688 -4730 0
4734 4732 0
-4734 -4732 0
5694 4734 0
-5694 -4734 0
4738 4736 0
-4738 -4736 0
5700 4738 0
-5700 -4738 0
4739 4740 0
-4739 -4740 0
4744 4742 0
-4744 -4742 0
5141 4744 0
-5141 -4744 0
4745 4746 0
-4745 -4746 0
-5844 5666 0
-5844 5669 0
5844 -5666 -5669 0
-5847 5672 0
-5847 5675 0
5847 -5672 -5675 0
-5850 5678 0
-5850 5681 0
5850 -5678 -5681 0
-5838 5684 0
-5838 5687 0
5838 -5684 -5687 0
-5841 5690 0
-5841 5693 0
5841 -5690 -5693 0
-6233 5762 0
-6233 4764 0
6233 -5762 -4764 0
-6235 5946 0
-6235 4767 0
6235 -5946 -4767 0
-5948 5950 0
-5948 5951 0
5948 -5950 -5951 0
-6237 5952 0
-6237 4773 0
6237 -5952 -4773 0
-5954 5956 0
-5954 5957 0
5954 -5956 -5957 0
-6239 5768 0
-6239 4779 0
6239 -5768 -4779 0
-6241 5958 0
-6241 4782 0
6241 -5958 -4782 0
-5960 5962 0
-5960 5963 0
5960 -5962 -5963 0
-5950 5943 0
-5950 5767 0
5950 -5943 -5767 0
-5956 5950 0
-5956 5951 0
5956 -5950 -5951 0
-5772 5956 0
-5772 5957 0
5772 -5956 -5957 0
-5962 5772 0
-5962 5773 0
5962 -5772 -5773 0
-6243 5774 0
-6243 4800 0
6243 -5774 -4800 0
-6245 5964 0
-6245 4803 0
6245 -5964 -4803 0
-5966 5968 0
-5966 5969 0
5966 -5968 -5969 0
-6247 5970 0
-6247 4809 0
6247 -5970 -4809 0
-5972 5974 0
-5972 5975 0
5972 -5974 -5975 0
-6249 5976 0
-6249 4815 0
6249 -5976 -4815 0
-5978 5980 0
-5978 5981 0
5978 -5980 -5981 0
-6251 5982 0
-6251 4821 0
6251 -5982 -4821 0
-5984 5986 0
-5984 5987 0
5984 -5986 -5987 0
-6253 5780 0
-6253 4827 0
6253 -5780 -4827 0
-5968 5778 0
-5968 5779 0
5968 -5778 -5779 0
-5974 5968 0
-5974 5969 0
5974 -5968 -5969 0
-5980 5974 0
-5980 5975 0
5980 -5974 -5975 0
-5986 5980 0
-5986 5981 0
5986 -5980 -5981 0
-5784 5986 0
-5784 5987 0
5784 -5986 -5987 0
-5360 5784 0
-5360 4845 0
5360 -5784 -4845 0
-6255 4847 0
-6255 4848 0
6255 -4847 -4848 0
-5463 5349 0
-5463 5352 0
5463 -5349 -5352 0
-6257 5786 0
-6257 4854 0
6257 -5786 -4854 0
-6259 5988 0
-6259 4857 0
6259 -5988 -4857 0
-5990 5992 0
-5990 5993 0
5990 -5992 -5993 0
-6261 5994 0
-6261 4863 0
6261 -5994 -4863 0
-5996 5998 0
-5996 5999 0
5996 -5998 -5999 0
-5992 5790 0
-5992 5791 0
5992 -5790 -5791 0
-5998 5992 0
-5998 5993 0
5998 -5992 -5993 0
-6263 5792 0
-6263 4875 0
6263 -5792 -4875 0
-6265 5798 0
-6265 4878 0
6265 -5798 -4878 0
-6267 6000 0
-6267 4881 0
6267 -6000 -4881 0
-6002 6004 0
-6002 6005 0
6002 -6004 -6005 0
-5802 6074 0
-5802 5797 0
5802 -6074 -5797 0
-6004 5802 0
-6004 5803 0
6004 -5802 -5803 0
-5454 5998 0
-5454 5999 0
5454 -5998 -5999 0
-5487 4895 0
-5487 5998 0
5487 -4895 -5998 0
-5348 5962 0
-5348 5963 0
5348 -5962 -5963 0
-5357 5784 0
-5357 5785 0
5357 -5784 -5785 0
-5569 6004 0
-5569 6005 0
5569 -6004 -6005 0
-5466 6122 0
-5466 6123 0
5466 -6122 -6123 0
-6269 6006 0
-6269 4911 0
6269 -6006 -4911 0
-6008 6043 0
-6008 6011 0
6008 -6043 -6011 0
-6271 6012 0
-6271 4917 0
6271 -6012 -4917 0
-6014 6016 0
-6014 6017 0
6014 -6016 -6017 0
-6273 6018 0
-6273 4923 0
6273 -6018 -4923 0
-6020 6022 0
-6020 6023 0
6020 -6022 -6023 0
-6275 6024 0
-6275 4929 0
6275 -6024 -4929 0
-6026 6028 0
-6026 6029 0
6026 -6028 -6029 0
-4933 5654 0
-4933 5657 0
4933 -5654 -5657 0
-6277 6030 0
-6277 4938 0
6277 -6030 -4938 0
-6032 6034 0
-6032 6035 0
6032 -6034 -6035 0
-6016 6043 0
-6016 6011 0
6016 -6043 -6011 0
-6022 6016 0
-6022 6017 0
6022 -6016 -6017 0
-6028 6022 0
-6028 6023 0
6028 -6022 -6023 0
-6034 6028 0
-6034 6029 0
6034 -6028 -6029 0
-5381 5373 0
-5381 6042 0
5381 -5373 -6042 0
-5387 5376 0
-5387 5379 0
5387 -5376 -5379 0
-5393 5382 0
-5393 5385 0
5393 -5382 -5385 0
-5399 5388 0
-5399 5391 0
5399 -5388 -5391 0
-6279 4969 0
-6279 4968 0
6279 -4969 -4968 0
-4969 5420 0
-4969 5423 0
4969 -5420 -5423 0
-6281 4975 0
-6281 4974 0
6281 -4975 -4974 0
-4975 5426 0
-4975 5429 0
4975 -5426 -5429 0
-6283 4981 0
-6283 4980 0
6283 -4981 -4980 0
-4981 5432 0
-4981 5435 0
4981 -5432 -5435 0
-6285 4987 0
-6285 4986 0
6285 -4987 -4986 0
-4987 5441 0
-4987 5444 0
4987 -5441 -5444 0
-6050 5867 0
-6050 5452 0
6050 -5867 -5452 0
-6047 5865 0
-6047 5452 0
6047 -5865 -5452 0
-6092 5453 0
-6092 5456 0
6092 -5453 -5456 0
-5505 5465 0
-5505 5468 0
5505 -5465 -5468 0
-5478 5471 0
-5478 5474 0
5478 -5471 -5474 0
-6110 6056 0
-6110 6069 0
6110 -6056 -6069 0
-6287 6052 0
-6287 5010 0
6287 -6052 -5010 0
-6054 6056 0
-6054 6057 0
6054 -6056 -6057 0
-6289 6058 0
-6289 5016 0
6289 -6058 -5016 0
-6060 6062 0
-6060 6063 0
6060 -6062 -6063 0
-6291 6064 0
-6291 5022 0
6291 -6064 -5022 0
-6066 6068 0
-6066 6069 0
6066 -6068 -6069 0
-6062 6056 0
-6062 6057 0
6062 -6056 -6057 0
-6068 6062 0
-6068 6063 0
6068 -6062 -6063 0
-5497 6074 0
-5497 6075 0
-5497 6087 0
5497 -6074 -6075 -6087 0
-6293 6070 0
-6293 5038 0
6293 -6070 -5038 0
-6072 6074 0
-6072 6075 0
6072 -6074 -6075 0
-6295 6076 0
-6295 5044 0
6295 -6076 -5044 0
-6078 6080 0
-6078 6081 0
6078 -6080 -6081 0
-6297 6082 0
-6297 5050 0
6297 -6082 -5050 0
-6084 6086 0
-6084 6087 0
6084 -6086 -6087 0
-6080 6074 0
-6080 6075 0
6080 -6074 -6075 0
-6086 6080 0
-6086 6081 0
6086 -6080 -6081 0
-6299 6088 0
-6299 5062 0
6299 -6088 -5062 0
-6090 6092 0
-6090 6093 0
6090 -6092 -6093 0
-6301 6094 0
-6301 5068 0
6301 -6094 -5068 0
-6096 6098 0
-6096 6099 0
6096 -6098 -6099 0
-6303 6100 0
-6303 5074 0
6303 -6100 -5074 0
-6102 6104 0
-6102 6105 0
6102 -6104 -6105 0
-6098 6092 0
-6098 6093 0
6098 -6092 -6093 0
-6104 6092 0
-6104 6099 0
6104 -6092 -6099 0
-5572 6104 0
-5572 6105 0
5572 -6104 -6105 0
-6305 6106 0
-6305 5089 0
6305 -6106 -5089 0
-6108 6110 0
-6108 6111 0
6108 -6110 -6111 0
-6307 6112 0
-6307 5095 0
6307 -6112 -5095 0
-6114 6116 0
-6114 6117 0
6114 -6116 -6117 0
-6309 6118 0
-6309 5101 0
6309 -6118 -5101 0
-6120 6122 0
-6120 6123 0
6120 -6122 -6123 0
-6116 6110 0
-6116 6111 0
6116 -6110 -6111 0
-6122 6110 0
-6122 6117 0
6122 -6110 -6117 0
-5260 5486 0
-5260 5489 0
5260 -5486 -5489 0
-6200 5459 0
-6200 5462 0
6200 -5459 -5462 0
-5820 5477 0
-5820 5480 0
5820 -5477 -5480 0
-6311 5507 0
-6311 5122 0
6311 -5507 -5122 0
-6313 6124 0
-6313 5125 0
6313 -6124 -5125 0
-6125 6134 0
-6125 5551 0
6125 -6134 -5551 0
-6315 5510 0
-6315 5131 0
6315 -5510 -5131 0
-6317 6130 0
-6317 5134 0
6317 -6130 -5134 0
-6131 6134 0
-6131 5137 0
6131 -6134 -5137 0
-5643 5139 0
-5643 5140 0
-5643 5141 0
5643 -5139 -5140 -5141 0
-6319 6136 0
-6319 5144 0
6319 -6136 -5144 0
-6138 6140 0
-6138 6141 0
6138 -6140 -6141 0
-6321 6142 0
-6321 5150 0
6321 -6142 -5150 0
-6144 6146 0
-6144 6147 0
6144 -6146 -6147 0
-6323 6148 0
-6323 5156 0
6323 -6148 -5156 0
-6150 6152 0
-6150 6153 0
6150 -6152 -6153 0
-6325 6154 0
-6325 5162 0
6325 -6154 -5162 0
-6156 6158 0
-6156 6159 0
6156 -6158 -6159 0
-6146 6140 0
-6146 6141 0
6146 -6140 -6141 0
-6152 6146 0
-6152 6147 0
6152 -6146 -6147 0
-6158 6152 0
-6158 6153 0
6158 -6152 -6153 0
-5520 5537 0
-5520 5540 0
5520 -5537 -5540 0
-5526 5543 0
-5526 5546 0
5526 -5543 -5546 0
-5535 5549 0
-5535 5552 0
5535 -5549 -5552 0
-6327 5516 0
-6327 5519 0
6327 -5516 -5519 0
-6329 5522 0
-6329 5525 0
6329 -5522 -5525 0
-6331 5531 0
-6331 5534 0
6331 -5531 -5534 0
-6333 6164 0
-6333 5195 0
6333 -6164 -5195 0
-6166 6168 0
-6166 6169 0
6166 -6168 -6169 0
-6335 6170 0
-6335 5201 0
6335 -6170 -5201 0
-6172 6174 0
-6172 6175 0
6172 -6174 -6175 0
-6337 6176 0
-6337 5207 0
6337 -6176 -5207 0
-6178 6180 0
-6178 6181 0
6178 -6180 -6181 0
-6339 6182 0
-6339 5213 0
6339 -6182 -5213 0
-6184 6186 0
-6184 6187 0
6184 -6186 -6187 0
-6341 6188 0
-6341 5219 0
6341 -6188 -5219 0
-6190 6192 0
-6190 6193 0
6190 -6192 -6193 0
-6174 6168 0
-6174 6169 0
6174 -6168 -6169 0
-6180 6174 0
-6180 6175 0
6180 -6174 -6175 0
-6186 6180 0
-6186 6181 0
6186 -6180 -6181 0
-6192 6186 0
-6192 6187 0
6192 -6186 -6187 0
-6343 5576 0
-6343 5579 0
6343 -5576 -5579 0
-6345 5582 0
-6345 5585 0
6345 -5582 -5585 0
-6347 5588 0
-6347 5591 0
6347 -5588 -5591 0
-6349 5594 0
-6349 5597 0
6349 -5594 -5597 0
-5247 5660 0
-5247 5663 0
5247 -5660 -5663 0
-6351 5615 0
-6351 5252 0
6351 -5615 -5252 0
-5616 5618 0
-5616 5255 0
5616 -5618 -5255 0
-5623 5648 0
-5623 5651 0
5623 -5648 -5651 0
-6168 5260 0
-6168 6201 0
6168 -5260 -6201 0
-6353 5627 0
-6353 5630 0
6353 -5627 -5630 0
-6355 5636 0
-6355 5639 0
6355 -5636 -5639 0
-5809 5696 0
-5809 5699 0
5809 -5696 -5699 0
-5819 5642 0
-5819 5645 0
5819 -5642 -5645 0
-6218 5348 0
-6218 5706 0
6218 -5348 -5706 0
-6219 5357 0
-6219 5712 0
6219 -5357 -5712 0
-6220 5569 0
-6220 5718 0
6220 -5569 -5718 0
-6221 5466 0
-6221 5715 0
6221 -5466 -5715 0
-5529 5287 0
-5529 5868 0
5529 -5287 -5868 0
-5634 5290 0
-5634 5868 0
5634 -5290 -5868 0
-6357 5293 0
-6357 5294 0
6357 -5293 -5294 0
-6359 5298 0
-6359 5297 0
6359 -5298 -5297 0
-5298 5702 0
-5298 5705 0
5298 -5702 -5705 0
-6361 5304 0
-6361 5303 0
6361 -5304 -5303 0
-5304 5708 0
-5304 5711 0
5304 -5708 -5711 0
-6363 5310 0
-6363 5309 0
6363 -5310 -5309 0
-5310 5714 0
-5310 5717 0
5310 -5714 -5717 0
-6209 5723 0
-6209 5315 0
6209 -5723 -5315 0
-6212 5729 0
-6212 5732 0
6212 -5729 -5732 0
-6215 5738 0
-6215 5741 0
6215 -5738 -5741 0
-6371 5804 0
-6371 5324 0
6371 -5804 -5324 0
-6373 6222 0
-6373 5327 0
6373 -6222 -5327 0
-6223 6226 0
-6223 5715 0
6223 -6226 -5715 0
-6375 6202 0
-6375 5333 0
6375 -6202 -5333 0
5764 -5943 0
5764 -5767 0
-5764 5943 5767 0
5770 -5772 0
5770 -5773 0
-5770 5772 5773 0
5776 -5778 0
5776 -5779 0
-5776 5778 5779 0
5782 -5784 0
5782 -5785 0
-5782 5784 5785 0
5778 -5739 0
5778 -5348 0
-5778 5739 5348 0
5349 -5785 0
5349 -5739 0
-5349 5785 5739 0
5352 -5481 0
5352 -5354 0
-5352 5481 5354 0
6074 -5739 0
6074 -5357 0
-6074 5739 5357 0
5490 -5739 0
5490 -5360 0
-5490 5739 5360 0
5788 -5790 0
5788 -5791 0
-5788 5790 5791 0
5794 -6074 0
5794 -5797 0
-5794 6074 5797 0
5800 -5802 0
5800 -5803 0
-5800 5802 5803 0
5806 -5819 0
5806 -5814 0
-5806 5819 5814 0
5373 -5844 0
5373 -6011 0
-5373 5844 6011 0
5376 -5847 0
5376 -6017 0
-5376 5847 6017 0
5379 -6041 0
5379 -5381 0
-5379 6041 5381 0
5382 -5850 0
5382 -6023 0
-5382 5850 6023 0
5385 -6039 0
5385 -5387 0
-5385 6039 5387 0
5388 -5838 0
5388 -6029 0
-5388 5838 6029 0
5391 -6038 0
5391 -5393 0
-5391 6038 5393 0
5944 -5841 0
5944 -6035 0
-5944 5841 6035 0
5945 -6037 0
5945 -5399 0
-5945 6037 5399 0
5823 -6011 0
5823 -5844 0
-5823 6011 5844 0
5826 -6017 0
5826 -5847 0
-5826 6017 5847 0
5829 -6023 0
5829 -5850 0
-5829 6023 5850 0
5832 -6029 0
5832 -5838 0
-5832 6029 5838 0
5835 -6035 0
5835 -5841 0
-5835 6035 5841 0
5448 -5858 0
5448 -5859 0
5448 -5860 0
5448 -5861 0
-5448 5858 5859 5860 5861 0
5420 -5861 0
5420 -5443 0
-5420 5861 5443 0
5423 -5424 0
5423 -5425 0
-5423 5424 5425 0
5426 -5860 0
5426 -5443 0
-5426 5860 5443 0
5429 -5861 0
5429 -5431 0
-5429 5861 5431 0
5432 -5859 0
5432 -5443 0
-5432 5859 5443 0
5435 -5860 0
5435 -5437 0
-5435 5860 5437 0
5443 -5497 0
5443 -5742 0
-5443 5497 5742 0
5441 -5858 0
5441 -5443 0
-5441 5858 5443 0
5444 -5859 0
5444 -5446 0
-5444 5859 5446 0
5863 -5448 0
5863 -5452 0
-5863 5448 5452 0
5866 -6044 0
5866 -5452 0
-5866 6044 5452 0
5453 -5454 0
5453 -5488 0
-5453 5454 5488 0
5456 -6074 0
5456 -5458 0
-5456 6074 5458 0
5459 -5999 0
5459 -5488 0
-5459 5999 5488 0
5462 -5463 0
5462 -5464 0
-5462 5463 5464 0
5465 -5466 0
5465 -5742 0
-5465 5466 5742 0
5468 -5572 0
5468 -5470 0
-5468 5572 5470 0
5471 -6123 0
5471 -5742 0
-5471 6123 5742 0
5474 -6105 0
5474 -5476 0
-5474 6105 5476 0
5477 -5478 0
5477 -5733 0
-5477 5478 5733 0
5480 -5481 0
5480 -5482 0
-5480 5481 5482 0
5488 -5643 0
5488 -5733 0
-5488 5643 5733 0
5486 -5487 0
5486 -5488 0
-5486 5487 5488 0
5489 -5490 0
5489 -5491 0
-5489 5490 5491 0
5492 -5746 0
5492 -6110 0
-5492 5746 6110 0
5495 -5746 0
5495 -5497 0
-5495 5746 5497 0
5498 -5746 0
5498 -6104 0
-5498 5746 6104 0
5501 -5746 0
5501 -6122 0
-5501 5746 6122 0
6140 -5505 0
6140 -5733 0
-6140 5505 5733 0
5507 -6200 0
5507 -5509 0
-5507 6200 5509 0
5510 -6134 0
5510 -5512 0
-5510 6134 5512 0
5697 -5937 0
5697 -6201 0
-5697 5937 6201 0
5516 -6161 0
5516 -5533 0
-5516 6161 5533 0
5519 -5520 0
5519 -5521 0
-5519 5520 5521 0
5522 -6162 0
5522 -5533 0
-5522 6162 5533 0
5525 -5526 0
5525 -5527 0
-5525 5526 5527 0
5533 -5529 0
5533 -5746 0
-5533 5529 5746 0
5531 -6163 0
5531 -5533 0
-5531 6163 5533 0
5534 -5535 0
5534 -5536 0
-5534 5535 5536 0
5537 -5688 0
5537 -5551 0
-5537 5688 5551 0
5540 -5670 0
5540 -5542 0
-5540 5670 5542 0
5543 -5694 0
5543 -5551 0
-5543 5694 5551 0
5546 -5676 0
5546 -5548 0
-5546 5676 5548 0
5549 -5700 0
5549 -5551 0
-5549 5700 5551 0
5552 -5682 0
5552 -5554 0
-5552 5682 5554 0
5873 -6161 0
5873 -6141 0
-5873 6161 6141 0
5876 -6162 0
5876 -6147 0
-5876 6162 6147 0
5879 -6163 0
5879 -6153 0
-5879 6163 6153 0
5882 -6160 0
5882 -6159 0
-5882 6160 6159 0
5790 -5742 0
5790 -5569 0
-5790 5742 5569 0
6056 -5742 0
6056 -5572 0
-6056 5742 5572 0
6201 -5895 0
6201 -5899 0
-6201 5895 5899 0
5576 -6195 0
5576 -5638 0
-5576 6195 5638 0
5579 -5646 0
5579 -5581 0
-5579 5646 5581 0
5582 -6196 0
5582 -5638 0
-5582 6196 5638 0
5585 -5658 0
5585 -5587 0
-5585 5658 5587 0
5588 -6197 0
5588 -5638 0
-5588 6197 5638 0
5591 -5652 0
5591 -5593 0
-5591 5652 5593 0
5594 -6198 0
5594 -5638 0
-5594 6198 5638 0
5597 -5664 0
5597 -5599 0
-5597 5664 5599 0
5904 -6195 0
5904 -6169 0
-5904 6195 6169 0
5907 -6196 0
5907 -6175 0
-5907 6196 6175 0
5910 -6197 0
5910 -6181 0
-5910 6197 6181 0
5913 -6198 0
5913 -6187 0
-5913 6198 6187 0
5916 -6194 0
5916 -6193 0
-5916 6194 6193 0
5615 -5616 0
5615 -6168 0
-5615 5616 6168 0
5618 -5937 0
5618 -6199 0
-5618 5937 6199 0
5933 -5637 0
5933 -5623 0
-5933 5637 5623 0
5934 -5625 0
5934 -5628 0
-5934 5625 5628 0
5627 -5628 0
5627 -5638 0
-5627 5628 5638 0
5630 -5740 0
5630 -5632 0
-5630 5740 5632 0
5638 -5634 0
5638 -5746 0
-5638 5634 5746 0
5636 -5637 0
5636 -5638 0
-5636 5637 5638 0
5639 -6226 0
5639 -5641 0
-5639 6226 5641 0
5642 -5643 0
5642 -5733 0
-5642 5643 5733 0
5645 -5646 0
5645 -5647 0
-5645 5646 5647 0
5648 -5649 0
5648 -5733 0
-5648 5649 5733 0
5651 -5652 0
5651 -5653 0
-5651 5652 5653 0
5654 -5868 0
5654 -5733 0
-5654 5868 5733 0
5657 -5658 0
5657 -5659 0
-5657 5658 5659 0
5660 -5868 0
5660 -5733 0
-5660 5868 5733 0
5663 -5664 0
5663 -5665 0
-5663 5664 5665 0
5666 -5747 0
5666 -5733 0
-5666 5747 5733 0
5669 -5670 0
5669 -5671 0
-5669 5670 5671 0
5672 -5750 0
5672 -5733 0
-5672 5750 5733 0
5675 -5676 0
5675 -5677 0
-5675 5676 5677 0
5678 -5753 0
5678 -5733 0
-5678 5753 5733 0
5681 -5682 0
5681 -5683 0
-5681 5682 5683 0
5684 -5756 0
5684 -5733 0
-5684 5756 5733 0
5687 -5688 0
5687 -5689 0
-5687 5688 5689 0
5690 -5759 0
5690 -5733 0
-5690 5759 5733 0
5693 -5694 0
5693 -5695 0
-5693 5694 5695 0
5696 -5697 0
5696 -5733 0
-5696 5697 5733 0
5699 -5700 0
5699 -5701 0
-5699 5700 5701 0
5702 -5712 0
5702 -6226 0
-5702 5712 6226 0
5705 -5706 0
5705 -5707 0
-5705 5706 5707 0
5708 -5718 0
5708 -6226 0
-5708 5718 6226 0
5711 -5712 0
5711 -5713 0
-5711 5712 5713 0
5714 -5715 0
5714 -6226 0
-5714 5715 6226 0
5717 -5718 0
5717 -5719 0
-5717 5718 5719 0
6365 -6208 0
6365 -5744 0
-6365 6208 5744 0
5723 -5733 0
5723 -5740 0
-5723 5733 5740 0
6367 -6211 0
6367 -5744 0
-6367 6211 5744 0
5729 -5742 0
5729 -5740 0
-5729 5742 5740 0
5732 -5733 0
5732 -5734 0
-5732 5733 5734 0
6369 -6214 0
6369 -5744 0
-6369 6214 5744 0
5738 -5739 0
5738 -5740 0
-5738 5739 5740 0
5741 -5742 0
5741 -5743 0
-5741 5742 5743 0
5744 -6206 0
5744 -5746 0
-5744 6206 5746 0
5747 6169 0
5747 5761 0
-5747 -6169 -5761 0
5750 6175 0
5750 5761 0
-5750 -6175 -5761 0
5753 6181 0
5753 5761 0
-5753 -6181 -5761 0
5756 6187 0
5756 5761 0
-5756 -6187 -5761 0
5759 6193 0
5759 5761 0
-5759 -6193 -5761 0
5762 5765 0
5762 5764 0
-5762 -5765 -5764 0
5765 5943 0
5765 5767 0
-5765 -5943 -5767 0
5768 5771 0
5768 5770 0
-5768 -5771 -5770 0
5771 5772 0
5771 5773 0
-5771 -5772 -5773 0
5774 5777 0
5774 5776 0
-5774 -5777 -5776 0
5777 5778 0
5777 5779 0
-5777 -5778 -5779 0
5780 5783 0
5780 5782 0
-5780 -5783 -5782 0
5783 5784 0
5783 5785 0
-5783 -5784 -5785 0
5786 5789 0
5786 5788 0
-5786 -5789 -5788 0
5789 5790 0
5789 5791 0
-5789 -5790 -5791 0
5792 5795 0
5792 5794 0
-5792 -5795 -5794 0
5795 6074 0
5795 5797 0
-5795 -6074 -5797 0
5798 5801 0
5798 5800 0
-5798 -5801 -5800 0
5801 5802 0
5801 5803 0
-5801 -5802 -5803 0
5804 5818 0
5804 5806 0
-5804 -5818 -5806 0
5817 6200 0
5817 5809 0
-5817 -6200 -5809 0
5816 5811 0
5816 5854 0
5816 6200 0
-5816 -5811 -5854 -6200 0
5814 5943 0
5814 5816 0
5814 5817 0
-5814 -5943 -5816 -5817 0
5818 5819 0
5818 5820 0
-5818 -5819 -5820 0
6042 5842 0
6042 5823 0
-6042 -5842 -5823 0
6041 5845 0
6041 5826 0
-6041 -5845 -5826 0
6039 5848 0
6039 5829 0
-6039 -5848 -5829 0
6038 5836 0
6038 5832 0
-6038 -5836 -5832 0
6037 5839 0
6037 5835 0
-6037 -5839 -5835 0
5836 6029 0
5836 5838 0
-5836 -6029 -5838 0
5839 6035 0
5839 5841 0
-5839 -6035 -5841 0
5842 6011 0
5842 5844 0
-5842 -6011 -5844 0
5845 6017 0
5845 5847 0
-5845 -6017 -5847 0
5848 6023 0
5848 5850 0
-5848 -6023 -5850 0
5855 6036 0
5855 6040 0
-5855 -6036 -6040 0
5854 5855 0
5854 5943 0
-5854 -5855 -5943 0
6044 5858 0
6044 5859 0
6044 5860 0
6044 5861 0
-6044 -5858 -5859 -5860 -5861 0
5867 5863 0
5867 5864 0
-5867 -5863 -5864 0
5865 5866 0
5865 5867 0
-5865 -5866 -5867 0
5868 5869 0
5868 5938 0
-5868 -5869 -5938 0
5939 5883 0
5939 5873 0
-5939 -5883 -5873 0
5940 5886 0
5940 5876 0
-5940 -5886 -5876 0
5941 5889 0
5941 5879 0
-5941 -5889 -5879 0
5942 5892 0
5942 5882 0
-5942 -5892 -5882 0
5883 6161 0
5883 6141 0
-5883 -6161 -6141 0
5886 6162 0
5886 6147 0
-5886 -6162 -6147 0
5889 6163 0
5889 6153 0
-5889 -6163 -6153 0
5892 6160 0
5892 6159 0
-5892 -6160 -6159 0
5895 5902 0
5895 5905 0
5895 5908 0
-5895 -5902 -5905 -5908 0
5899 5911 0
5899 5914 0
-5899 -5911 -5914 0
5902 5917 0
5902 5904 0
-5902 -5917 -5904 0
5905 5920 0
5905 5907 0
-5905 -5920 -5907 0
5908 5923 0
5908 5910 0
-5908 -5923 -5910 0
5911 5926 0
5911 5913 0
-5911 -5926 -5913 0
5914 5929 0
5914 5916 0
-5914 -5929 -5916 0
5917 6195 0
5917 6169 0
-5917 -6195 -6169 0
5920 6196 0
5920 6175 0
-5920 -6196 -6175 0
5923 6197 0
5923 6181 0
-5923 -6197 -6181 0
5926 6198 0
5926 6187 0
-5926 -6198 -6187 0
5929 6194 0
5929 6193 0
-5929 -6194 -6193 0
6204 5933 0
6204 5934 0
-6204 -5933 -5934 0
6203 6200 0
6203 5937 0
-6203 -6200 -5937 0
5938 5939 0
5938 5940 0
5938 5941 0
5938 5942 0
-5938 -5939 -5940 -5941 -5942 0
5943 5944 0
5943 5945 0
-5943 -5944 -5945 0
-5946 -5949 0
-5946 -5948 0
5946 5949 5948 0
-5949 -5950 0
-5949 -5951 0
5949 5950 5951 0
-5952 -5955 0
-5952 -5954 0
5952 5955 5954 0
-5955 -5956 0
-5955 -5957 0
5955 5956 5957 0
-5958 -5961 0
-5958 -5960 0
5958 5961 5960 0
-5961 -5962 0
-5961 -5963 0
5961 5962 5963 0
-5964 -5967 0
-5964 -5966 0
5964 5967 5966 0
-5967 -5968 0
-5967 -5969 0
5967 5968 5969 0
-5970 -5973 0
-5970 -5972 0
5970 5973 5972 0
-5973 -5974 0
-5973 -5975 0
5973 5974 5975 0
-5976 -5979 0
-5976 -5978 0
5976 5979 5978 0
-5979 -5980 0
-5979 -5981 0
5979 5980 5981 0
-5982 -5985 0
-5982 -5984 0
5982 5985 5984 0
-5985 -5986 0
-5985 -5987 0
5985 5986 5987 0
-5988 -5991 0
-5988 -5990 0
5988 5991 5990 0
-5991 -5992 0
-5991 -5993 0
5991 5992 5993 0
-5994 -5997 0
-5994 -5996 0
5994 5997 5996 0
-5997 -5998 0
-5997 -5999 0
5997 5998 5999 0
-6000 -6003 0
-6000 -6002 0
6000 6003 6002 0
-6003 -6004 0
-6003 -6005 0
6003 6004 6005 0
-6006 -6009 0
-6006 -6008 0
6006 6009 6008 0
-6009 -6043 0
-6009 -6011 0
6009 6043 6011 0
-6012 -6015 0
-6012 -6014 0
6012 6015 6014 0
-6015 -6016 0
-6015 -6017 0
6015 6016 6017 0
-6018 -6021 0
-6018 -6020 0
6018 6021 6020 0
-6021 -6022 0
-6021 -6023 0
6021 6022 6023 0
-6024 -6027 0
-6024 -6026 0
6024 6027 6026 0
-6027 -6028 0
-6027 -6029 0
6027 6028 6029 0
-6030 -6033 0
-6030 -6032 0
6030 6033 6032 0
-6033 -6034 0
-6033 -6035 0
6033 6034 6035 0
-6036 -6037 0
-6036 -6038 0
-6036 -6039 0
6036 6037 6038 6039 0
-6040 -6041 0
-6040 -6042 0
6040 6041 6042 0
-6043 -6044 0
-6043 -6049 0
6043 6044 6049 0
-6051 -6047 0
-6051 -6048 0
6051 6047 6048 0
-6049 -6050 0
-6049 -6051 0
6049 6050 6051 0
-6052 -6055 0
-6052 -6054 0
6052 6055 6054 0
-6055 -6056 0
-6055 -6057 0
6055 6056 6057 0
-6058 -6061 0
-6058 -6060 0
6058 6061 6060 0
-6061 -6062 0
-6061 -6063 0
6061 6062 6063 0
-6064 -6067 0
-6064 -6066 0
6064 6067 6066 0
-6067 -6068 0
-6067 -6069 0
6067 6068 6069 0
-6070 -6073 0
-6070 -6072 0
6070 6073 6072 0
-6073 -6074 0
-6073 -6075 0
6073 6074 6075 0
-6076 -6079 0
-6076 -6078 0
6076 6079 6078 0
-6079 -6080 0
-6079 -6081 0
6079 6080 6081 0
-6082 -6085 0
-6082 -6084 0
6082 6085 6084 0
-6085 -6086 0
-6085 -6087 0
6085 6086 6087 0
-6088 -6091 0
-6088 -6090 0
6088 6091 6090 0
-6091 -6092 0
-6091 -6093 0
6091 6092 6093 0
-6094 -6097 0
-6094 -6096 0
6094 6097 6096 0
-6097 -6098 0
-6097 -6099 0
6097 6098 6099 0
-6100 -6103 0
-6100 -6102 0
6100 6103 6102 0
-6103 -6104 0
-6103 -6105 0
6103 6104 6105 0
-6106 -6109 0
-6106 -6108 0
6106 6109 6108 0
-6109 -6110 0
-6109 -6111 0
6109 6110 6111 0
-6112 -6115 0
-6112 -6114 0
6112 6115 6114 0
-6115 -6116 0
-6115 -6117 0
6115 6116 6117 0
-6118 -6121 0
-6118 -6120 0
6118 6121 6120 0
-6121 -6122 0
-6121 -6123 0
6121 6122 6123 0
-6124 -6125 0
-6124 -6127 0
6124 6125 6127 0
-6127 -6134 0
-6127 -6129 0
6127 6134 6129 0
-6130 -6131 0
-6130 -6133 0
6130 6131 6133 0
-6133 -6134 0
-6133 -6135 0
6133 6134 6135 0
-6136 -6139 0
-6136 -6138 0
6136 6139 6138 0
-6139 -6140 0
-6139 -6141 0
6139 6140 6141 0
-6142 -6145 0
-6142 -6144 0
6142 6145 6144 0
-6145 -6146 0
-6145 -6147 0
6145 6146 6147 0
-6148 -6151 0
-6148 -6150 0
6148 6151 6150 0
-6151 -6152 0
-6151 -6153 0
6151 6152 6153 0
-6154 -6157 0
-6154 -6156 0
6154 6157 6156 0
-6157 -6158 0
-6157 -6159 0
6157 6158 6159 0
-6160 -6161 0
-6160 -6162 0
-6160 -6163 0
6160 6161 6162 6163 0
-6164 -6167 0
-6164 -6166 0
6164 6167 6166 0
-6167 -6168 0
-6167 -6169 0
6167 6168 6169 0
-6170 -6173 0
-6170 -6172 0
6170 6173 6172 0
-6173 -6174 0
-6173 -6175 0
6173 6174 6175 0
-6176 -6179 0
-6176 -6178 0
6176 6179 6178 0
-6179 -6180 0
-6179 -6181 0
6179 6180 6181 0
-6182 -6185 0
-6182 -6184 0
6182 6185 6184 0
-6185 -6186 0
-6185 -6187 0
6185 6186 6187 0
-6188 -6191 0
-6188 -6190 0
6188 6191 6190 0
-6191 -6192 0
-6191 -6193 0
6191 6192 6193 0
-6194 -6195 0
-6194 -6196 0
-6194 -6197 0
-6194 -6198 0
6194 6195 6196 6197 6198 0
-6199 -6200 0
-6199 -6201 0
6199 6200 6201 0
-6202 -6203 0
-6202 -6204 0
6202 6203 6204 0
-6216 -6206 0
-6216 -6207 0
6216 6206 6207 0
-6208 -6209 0
-6208 -6216 0
6208 6209 6216 0
-6211 -6212 0
-6211 -6216 0
6211 6212 6216 0
-6214 -6215 0
-6214 -6216 0
6214 6215 6216 0
-6217 -6218 0
-6217 -6219 0
-6217 -6220 0
-6217 -6221 0
6217 6218 6219 6220 6221 0
-6222 -6223 0
-6222 -6225 0
6222 6223 6225 0
-6225 -6226 0
-6225 -6227 0
6225 6226 6227 0
-6229 7821 0
6229 -7821 0
-6231 8005 0
6231 -8005 0
-6233 6387 0
6233 -6387 0
-6235 7908 0
6235 -7908 0
-6237 7914 0
6237 -7914 0
-6239 6395 0
6239 -6395 0
-6241 7920 0
6241 -7920 0
-6243 6401 0
6243 -6401 0
-6245 7926 0
6245 -7926 0
-6247 7932 0
6247 -7932 0
-6249 7938 0
6249 -7938 0
-6251 7944 0
6251 -7944 0
-6253 6802 0
6253 -6802 0
-6255 7438 0
6255 -7438 0
-6257 6425 0
6257 -6425 0
-6259 7950 0
6259 -7950 0
-6261 7956 0
6261 -7956 0
-6263 6435 0
6263 -6435 0
-6265 6439 0
6265 -6439 0
-6267 7962 0
6267 -7962 0
-6269 7968 0
6269 -7968 0
-6271 7974 0
6271 -7974 0
-6273 7980 0
6273 -7980 0
-6275 7986 0
6275 -7986 0
-6277 7992 0
6277 -7992 0
-6279 7818 0
6279 -7818 0
-6281 7817 0
6281 -7817 0
-6283 7816 0
6283 -7816 0
-6285 7815 0
6285 -7815 0
-6287 8014 0
6287 -8014 0
-6289 8020 0
6289 -8020 0
-6291 8026 0
6291 -8026 0
-6293 8032 0
6293 -8032 0
-6295 8038 0
6295 -8038 0
-6297 8044 0
6297 -8044 0
-6299 8050 0
6299 -8050 0
-6301 8056 0
6301 -8056 0
-6303 8062 0
6303 -8062 0
-6305 8068 0
6305 -8068 0
-6307 8074 0
6307 -8074 0
-6309 8080 0
6309 -8080 0
-6311 7466 0
6311 -7466 0
-6313 8086 0
6313 -8086 0
-6315 7469 0
6315 -7469 0
-6317 8092 0
6317 -8092 0
-6319 8098 0
6319 -8098 0
-6321 8104 0
6321 -8104 0
-6323 8110 0
6323 -8110 0
-6325 8116 0
6325 -8116 0
-6327 8118 0
6327 -8118 0
-6329 8119 0
6329 -8119 0
-6331 8120 0
6331 -8120 0
-6333 8126 0
6333 -8126 0
-6335 8132 0
6335 -8132 0
-6337 8138 0
6337 -8138 0
-6339 8144 0
6339 -8144 0
-6341 8150 0
6341 -8150 0
-6343 8152 0
6343 -8152 0
-6345 8153 0
6345 -8153 0
-6347 8154 0
6347 -8154 0
-6349 8155 0
6349 -8155 0
-6351 7894 0
6351 -7894 0
-6353 7585 0
6353 -7585 0
-6355 7594 0
6355 -7594 0
-6357 8164 0
6357 -8164 0
-6359 7669 0
6359 -7669 0
-6361 7675 0
6361 -7675 0
-6363 7672 0
6363 -7672 0
-6365 7244 0
6365 -7244 0
-6367 7247 0
6367 -7247 0
-6369 6421 0
6369 -6421 0
-6371 6697 0
6371 -6697 0
-6373 8184 0
6373 -8184 0
-6375 6703 0
6375 -6703 0
6379 7822 0
-6379 -7822 0
8186 6379 0
-8186 -6379 0
6383 8006 0
-6383 -8006 0
8188 6383 0
-8188 -6383 0
6721 7703 0
-6721 -7703 0
7724 6387 0
-7724 -6387 0
6724 7703 0
-6724 -7703 0
6730 7703 0
-6730 -7703 0
6736 7703 0
-6736 -7703 0
7730 6395 0
-7730 -6395 0
6739 7703 0
-6739 -7703 0
6757 7703 0
-6757 -7703 0
7736 6401 0
-7736 -6401 0
6760 7703 0
-6760 -7703 0
6766 7703 0
-6766 -7703 0
6772 7703 0
-6772 -7703 0
6778 7703 0
-6778 -7703 0
6784 7703 0
-6784 -7703 0
6805 7703 0
-6805 -7703 0
6804 7438 0
-6804 -7438 0
7742 6802 0
-7742 -6802 0
7311 7696 0
-7311 -7696 0
7696 6421 0
-7696 -6421 0
6811 7703 0
-6811 -7703 0
7748 6425 0
-7748 -6425 0
6814 7703 0
-6814 -7703 0
6820 7703 0
-6820 -7703 0
6852 7956 0
-6852 -7956 0
6832 7703 0
-6832 -7703 0
7754 6435 0
-7754 -6435 0
6835 7703 0
-6835 -7703 0
7760 6439 0
-7760 -6439 0
6838 7703 0
-6838 -7703 0
6868 6890 0
-6868 -6890 0
6874 6890 0
-6874 -6890 0
6880 6890 0
-6880 -6890 0
6886 6890 0
-6886 -6890 0
6895 6890 0
-6895 -6890 0
7768 7812 0
-7768 -7812 0
6925 7703 0
-6925 -7703 0
7382 7400 0
-7382 -7400 0
6931 7703 0
-6931 -7703 0
7388 7400 0
-7388 -7400 0
6937 7703 0
-6937 -7703 0
7394 7400 0
-7394 -7400 0
6943 7703 0
-6943 -7703 0
7403 7400 0
-7403 -7400 0
7415 7445 0
-7415 -7445 0
7421 7445 0
-7421 -7445 0
7427 7699 0
-7427 -7699 0
7433 7699 0
-7433 -7699 0
7699 7247 0
-7699 -7247 0
7439 7690 0
-7439 -7690 0
7448 7445 0
-7448 -7445 0
6967 7449 0
-6967 -7449 0
6973 7449 0
-6973 -7449 0
6979 7449 0
-6979 -7449 0
6995 7452 0
-6995 -7452 0
7001 7452 0
-7001 -7452 0
7007 7452 0
-7007 -7452 0
7019 7455 0
-7019 -7455 0
7025 7455 0
-7025 -7455 0
7031 7703 0
-7031 -7703 0
7046 7458 0
-7046 -7458 0
7052 7458 0
-7052 -7458 0
7058 7703 0
-7058 -7703 0
7079 7703 0
-7079 -7703 0
7082 7703 0
-7082 -7703 0
7094 7469 0
-7094 -7469 0
7088 7703 0
-7088 -7703 0
7097 8092 0
-7097 -8092 0
7091 7703 0
-7091 -7703 0
7096 7654 0
-7096 -7654 0
7101 7825 0
-7101 -7825 0
7107 7825 0
-7107 -7825 0
7113 7825 0
-7113 -7825 0
7119 7825 0
-7119 -7825 0
7826 7703 0
-7826 -7703 0
7478 7490 0
-7478 -7490 0
7484 7490 0
-7484 -7490 0
7493 7490 0
-7493 -7490 0
7499 7508 0
-7499 -7508 0
7505 7508 0
-7505 -7508 0
7511 7508 0
-7511 -7508 0
7508 7466 0
-7508 -7466 0
7152 7204 0
-7152 -7204 0
7158 7204 0
-7158 -7204 0
7164 7204 0
-7164 -7204 0
7170 7204 0
-7170 -7204 0
7176 7204 0
-7176 -7204 0
7538 7595 0
-7538 -7595 0
7544 7595 0
-7544 -7595 0
7550 7595 0
-7550 -7595 0
7556 7595 0
-7556 -7595 0
7209 7204 0
-7209 -7204 0
7212 8156 0
-7212 -8156 0
7718 8161 0
-7718 -8161 0
7582 7580 0
-7582 -7580 0
7589 7595 0
-7589 -7595 0
7598 7595 0
-7598 -7595 0
7606 8086 0
-7606 -8086 0
8091 7895 0
-8091 -7895 0
7604 7690 0
-7604 -7690 0
7610 7690 0
-7610 -7690 0
7616 7690 0
-7616 -7690 0
7622 7690 0
-7622 -7690 0
7628 7690 0
-7628 -7690 0
7634 7690 0
-7634 -7690 0
7640 7690 0
-7640 -7690 0
7646 7690 0
-7646 -7690 0
7652 7690 0
-7652 -7690 0
7658 7690 0
-7658 -7690 0
7690 7244 0
-7690 -7244 0
7251 7703 0
-7251 -7703 0
8163 7250 0
-8163 -7250 0
6609 6607 0
-6609 -6607 0
7250 6609 0
-7250 -6609 0
7663 8184 0
-7663 -8184 0
7254 7703 0
-7254 -7703 0
7664 8183 0
-7664 -8183 0
7260 7703 0
-7260 -7703 0
7670 8183 0
-7670 -8183 0
7266 7703 0
-7266 -7703 0
7676 8183 0
-7676 -8183 0
6627 6625 0
-6627 -6625 0
8183 6627 0
-8183 -6627 0
7272 7697 0
-7272 -7697 0
7691 7697 0
-7691 -7697 0
7700 7697 0
-7700 -7697 0
6637 6635 0
-6637 -6635 0
7697 6637 0
-7697 -6637 0
6651 6639 0
-6651 -6639 0
6640 6651 0
-6640 -6651 0
7281 7703 0
-7281 -7703 0
7284 7703 0
-7284 -7703 0
7290 7703 0
-7290 -7703 0
7703 6649 0
-7703 -6649 0
7409 6651 0
-7409 -6651 0
6655 6653 0
-6655 -6653 0
7603 6655 0
-7603 -6655 0
6659 6657 0
-6659 -6657 0
7615 6659 0
-7615 -6659 0
6663 6661 0
-6663 -6661 0
7609 6663 0
-7609 -6663 0
6667 6665 0
-6667 -6665 0
7621 6667 0
-7621 -6667 0
6671 6669 0
-6671 -6669 0
7381 6671 0
-7381 -6671 0
6675 6673 0
-6675 -6673 0
7627 6675 0
-7627 -6675 0
6679 6677 0
-6679 -6677 0
7633 6679 0
-7633 -6679 0
6683 6681 0
-6683 -6681 0
7639 6683 0
-7639 -6683 0
6687 6685 0
-6687 -6685 0
7645 6687 0
-7645 -6687 0
6691 6689 0
-6691 -6689 0
7651 6691 0
-7651 -6691 0
6695 6693 0
-6695 -6693 0
7657 6695 0
-7657 -6695 0
6696 6697 0
-6696 -6697 0
6701 6699 0
-6701 -6699 0
7098 6701 0
-7098 -6701 0
6702 6703 0
-6702 -6703 0
-7801 7623 0
-7801 7626 0
7801 -7623 -7626 0
-7804 7629 0
-7804 7632 0
7804 -7629 -7632 0
-7807 7635 0
-7807 7638 0
7807 -7635 -7638 0
-7795 7641 0
-7795 7644 0
7795 -7641 -7644 0
-7798 7647 0
-7798 7650 0
7798 -7647 -7650 0
-8190 7719 0
-8190 6721 0
8190 -7719 -6721 0
-8192 7903 0
-8192 6724 0
8192 -7903 -6724 0
-7905 7907 0
-7905 7908 0
7905 -7907 -7908 0
-8194 7909 0
-8194 6730 0
8194 -7909 -6730 0
-7911 7913 0
-7911 7914 0
7911 -7913 -7914 0
-8196 7725 0
-8196 6736 0
8196 -7725 -6736 0
-8198 7915 0
-8198 6739 0
8198 -7915 -6739 0
-7917 7919 0
-7917 7920 0
7917 -7919 -7920 0
-7907 7900 0
-7907 7724 0
7907 -7900 -7724 0
-7913 7907 0
-7913 7908 0
7913 -7907 -7908 0
-7729 7913 0
-7729 7914 0
7729 -7913 -7914 0
-7919 7729 0
-7919 7730 0
7919 -7729 -7730 0
-8200 7731 0
-8200 6757 0
8200 -7731 -6757 0
-8202 7921 0
-8202 6760 0
8202 -7921 -6760 0
-7923 7925 0
-7923 7926 0
7923 -7925 -7926 0
-8204 7927 0
-8204 6766 0
8204 -7927 -6766 0
-7929 7931 0
-7929 7932 0
7929 -7931 -7932 0
-8206 7933 0
-8206 6772 0
8206 -7933 -6772 0
-7935 7937 0
-7935 7938 0
7935 -7937 -7938 0
-8208 7939 0
-8208 6778 0
8208 -7939 -6778 0
-7941 7943 0
-7941 7944 0
7941 -7943 -7944 0
-8210 7737 0
-8210 6784 0
8210 -7737 -6784 0
-7925 7735 0
-7925 7736 0
7925 -7735 -7736 0
-7931 7925 0
-7931 7926 0
7931 -7925 -7926 0
-7937 7931 0
-7937 7932 0
7937 -7931 -7932 0
-7943 7937 0
-7943 7938 0
7943 -7937 -7938 0
-7741 7943 0
-7741 7944 0
7741 -7943 -7944 0
-7317 7741 0
-7317 6802 0
7317 -7741 -6802 0
-8212 6804 0
-8212 6805 0
8212 -6804 -6805 0
-7420 7306 0
-7420 7309 0
7420 -7306 -7309 0
-8214 7743 0
-8214 6811 0
8214 -7743 -6811 0
-8216 7945 0
-8216 6814 0
8216 -7945 -6814 0
-7947 7949 0
-7947 7950 0
7947 -7949 -7950 0
-8218 7951 0
-8218 6820 0
8218 -7951 -6820 0
-7953 7955 0
-7953 7956 0
7953 -7955 -7956 0
-7949 7747 0
-7949 7748 0
7949 -7747 -7748 0
-7955 7949 0
-7955 7950 0
7955 -7949 -7950 0
-8220 7749 0
-8220 6832 0
8220 -7749 -6832 0
-8222 7755 0
-8222 6835 0
8222 -7755 -6835 0
-8224 7957 0
-8224 6838 0
8224 -7957 -6838 0
-7959 7961 0
-7959 7962 0
7959 -7961 -7962 0
-7759 8031 0
-7759 7754 0
7759 -8031 -7754 0
-7961 7759 0
-7961 7760 0
7961 -7759 -7760 0
-7411 7955 0
-7411 7956 0
7411 -7955 -7956 0
-7444 6852 0
-7444 7955 0
7444 -6852 -7955 0
-7305 7919 0
-7305 7920 0
7305 -7919 -7920 0
-7314 7741 0
-7314 7742 0
7314 -7741 -7742 0
-7526 7961 0
-7526 7962 0
7526 -7961 -7962 0
-7423 8079 0
-7423 8080 0
7423 -8079 -8080 0
-8226 7963 0
-8226 6868 0
8226 -7963 -6868 0
-7965 8000 0
-7965 7968 0
7965 -8000 -7968 0
-8228 7969 0
-8228 6874 0
8228 -7969 -6874 0
-7971 7973 0
-7971 7974 0
7971 -7973 -7974 0
-8230 7975 0
-8230 6880 0
8230 -7975 -6880 0
-7977 7979 0
-7977 7980 0
7977 -7979 -7980 0
-8232 7981 0
-8232 6886 0
8232 -7981 -6886 0
-7983 7985 0
-7983 7986 0
7983 -7985 -7986 0
-6890 7611 0
-6890 7614 0
6890 -7611 -7614 0
-8234 7987 0
-8234 6895 0
8234 -7987 -6895 0
-7989 7991 0
-7989 7992 0
7989 -7991 -7992 0
-7973 8000 0
-7973 7968 0
7973 -8000 -7968 0
-7979 7973 0
-7979 7974 0
7979 -7973 -7974 0
-7985 7979 0
-7985 7980 0
7985 -7979 -7980 0
-7991 7985 0
-7991 7986 0
7991 -7985 -7986 0
-7338 7330 0
-7338 7999 0
7338 -7330 -7999 0
-7344 7333 0
-7344 7336 0
7344 -7333 -7336 0
-7350 7339 0
-7350 7342 0
7350 -7339 -7342 0
-7356 7345 0
-7356 7348 0
7356 -7345 -7348 0
-8236 6926 0
-8236 6925 0
8236 -6926 -6925 0
-6926 7377 0
-6926 7380 0
6926 -7377 -7380 0
-8238 6932 0
-8238 6931 0
8238 -6932 -6931 0
-6932 7383 0
-6932 7386 0
6932 -7383 -7386 0
-8240 6938 0
-8240 6937 0
8240 -6938 -6937 0
-6938 7389 0
-6938 7392 0
6938 -7389 -7392 0
-8242 6944 0
-8242 6943 0
8242 -6944 -6943 0
-6944 7398 0
-6944 7401 0
6944 -7398 -7401 0
-8007 7824 0
-8007 7409 0
8007 -7824 -7409 0
-8004 7822 0
-8004 7409 0
8004 -7822 -7409 0
-8049 7410 0
-8049 7413 0
8049 -7410 -7413 0
-7462 7422 0
-7462 7425 0
7462 -7422 -7425 0
-7435 7428 0
-7435 7431 0
7435 -7428 -7431 0
-8067 8013 0
-8067 8026 0
8067 -8013 -8026 0
-8244 8009 0
-8244 6967 0
8244 -8009 -6967 0
-8011 8013 0
-8011 8014 0
8011 -8013 -8014 0
-8246 8015 0
-8246 6973 0
8246 -8015 -6973 0
-8017 8019 0
-8017 8020 0
8017 -8019 -8020 0
-8248 8021 0
-8248 6979 0
8248 -8021 -6979 0
-8023 8025 0
-8023 8026 0
8023 -8025 -8026 0
-8019 8013 0
-8019 8014 0
8019 -8013 -8014 0
-8025 8019 0
-8025 8020 0
8025 -8019 -8020 0
-7454 8031 0
-7454 8032 0
-7454 8044 0
7454 -8031 -8032 -8044 0
-8250 8027 0
-8250 6995 0
8250 -8027 -6995 0
-8029 8031 0
-8029 8032 0
8029 -8031 -8032 0
-8252 8033 0
-8252 7001 0
8252 -8033 -7001 0
-8035 8037 0
-8035 8038 0
8035 -8037 -8038 0
-8254 8039 0
-8254 7007 0
8254 -8039 -7007 0
-8041 8043 0
-8041 8044 0
8041 -8043 -8044 0
-8037 8031 0
-8037 8032 0
8037 -8031 -8032 0
-8043 8037 0
-8043 8038 0
8043 -8037 -8038 0
-8256 8045 0
-8256 7019 0
8256 -8045 -7019 0
-8047 8049 0
-8047 8050 0
8047 -8049 -8050 0
-8258 8051 0
-8258 7025 0
8258 -8051 -7025 0
-8053 8055 0
-8053 8056 0
8053 -8055 -8056 0
-8260 8057 0
-8260 7031 0
8260 -8057 -7031 0
-8059 8061 0
-8059 8062 0
8059 -8061 -8062 0
-8055 8049 0
-8055 8050 0
8055 -8049 -8050 0
-8061 8049 0
-8061 8056 0
8061 -8049 -8056 0
-7529 8061 0
-7529 8062 0
7529 -8061 -8062 0
-8262 8063 0
-8262 7046 0
8262 -8063 -7046 0
-8065 8067 0
-8065 8068 0
8065 -8067 -8068 0
-8264 8069 0
-8264 7052 0
8264 -8069 -7052 0
-8071 8073 0
-8071 8074 0
8071 -8073 -8074 0
-8266 8075 0
-8266 7058 0
8266 -8075 -7058 0
-8077 8079 0
-8077 8080 0
8077 -8079 -8080 0
-8073 8067 0
-8073 8068 0
8073 -8067 -8068 0
-8079 8067 0
-8079 8074 0
8079 -8067 -8074 0
-7217 7443 0
-7217 7446 0
7217 -7443 -7446 0
-8157 7416 0
-8157 7419 0
8157 -7416 -7419 0
-7777 7434 0
-7777 7437 0
7777 -7434 -7437 0
-8268 7464 0
-8268 7079 0
8268 -7464 -7079 0
-8270 8081 0
-8270 7082 0
8270 -8081 -7082 0
-8082 8091 0
-8082 7508 0
8082 -8091 -7508 0
-8272 7467 0
-8272 7088 0
8272 -7467 -7088 0
-8274 8087 0
-8274 7091 0
8274 -8087 -7091 0
-8088 8091 0
-8088 7094 0
8088 -8091 -7094 0
-7600 7096 0
-7600 7097 0
-7600 7098 0
7600 -7096 -7097 -7098 0
-8276 8093 0
-8276 7101 0
8276 -8093 -7101 0
-8095 8097 0
-8095 8098 0
8095 -8097 -8098 0
-8278 8099 0
-8278 7107 0
8278 -8099 -7107 0
-8101 8103 0
-8101 8104 0
8101 -8103 -8104 0
-8280 8105 0
-8280 7113 0
8280 -8105 -7113 0
-8107 8109 0
-8107 8110 0
8107 -8109 -8110 0
-8282 8111 0
-8282 7119 0
8282 -8111 -7119 0
-8113 8115 0
-8113 8116 0
8113 -8115 -8116 0
-8103 8097 0
-8103 8098 0
8103 -8097 -8098 0
-8109 8103 0
-8109 8104 0
8109 -8103 -8104 0
-8115 8109 0
-8115 8110 0
8115 -8109 -8110 0
-7477 7494 0
-7477 7497 0
7477 -7494 -7497 0
-7483 7500 0
-7483 7503 0
7483 -7500 -7503 0
-7492 7506 0
-7492 7509 0
7492 -7506 -7509 0
-8284 7473 0
-8284 7476 0
8284 -7473 -7476 0
-8286 7479 0
-8286 7482 0
8286 -7479 -7482 0
-8288 7488 0
-8288 7491 0
8288 -7488 -7491 0
-8290 8121 0
-8290 7152 0
8290 -8121 -7152 0
-8123 8125 0
-8123 8126 0
8123 -8125 -8126 0
-8292 8127 0
-8292 7158 0
8292 -8127 -7158 0
-8129 8131 0
-8129 8132 0
8129 -8131 -8132 0
-8294 8133 0
-8294 7164 0
8294 -8133 -7164 0
-8135 8137 0
-8135 8138 0
8135 -8137 -8138 0
-8296 8139 0
-8296 7170 0
8296 -8139 -7170 0
-8141 8143 0
-8141 8144 0
8141 -8143 -8144 0
-8298 8145 0
-8298 7176 0
8298 -8145 -7176 0
-8147 8149 0
-8147 8150 0
8147 -8149 -8150 0
-8131 8125 0
-8131 8126 0
8131 -8125 -8126 0
-8137 8131 0
-8137 8132 0
8137 -8131 -8132 0
-8143 8137 0
-8143 8138 0
8143 -8137 -8138 0
-8149 8143 0
-8149 8144 0
8149 -8143 -8144 0
-8300 7533 0
-8300 7536 0
8300 -7533 -7536 0
-8302 7539 0
-8302 7542 0
8302 -7539 -7542 0
-8304 7545 0
-8304 7548 0
8304 -7545 -7548 0
-8306 7551 0
-8306 7554 0
8306 -7551 -7554 0
-7204 7617 0
-7204 7620 0
7204 -7617 -7620 0
-8308 7572 0
-8308 7209 0
8308 -7572 -7209 0
-7573 7575 0
-7573 7212 0
7573 -7575 -7212 0
-7580 7605 0
-7580 7608 0
7580 -7605 -7608 0
-8125 7217 0
-8125 8158 0
8125 -7217 -8158 0
-8310 7584 0
-8310 7587 0
8310 -7584 -7587 0
-8312 7593 0
-8312 7596 0
8312 -7593 -7596 0
-7766 7653 0
-7766 7656 0
7766 -7653 -7656 0
-7776 7599 0
-7776 7602 0
7776 -7599 -7602 0
-8175 7305 0
-8175 7663 0
8175 -7305 -7663 0
-8176 7314 0
-8176 7669 0
8176 -7314 -7669 0
-8177 7526 0
-8177 7675 0
8177 -7526 -7675 0
-8178 7423 0
-8178 7672 0
8178 -7423 -7672 0
-7486 7244 0
-7486 7825 0
7486 -7244 -7825 0
-7591 7247 0
-7591 7825 0
7591 -7247 -7825 0
-8314 7250 0
-8314 7251 0
8314 -7250 -7251 0
-8316 7255 0
-8316 7254 0
8316 -7255 -7254 0
-7255 7659 0
-7255 7662 0
7255 -7659 -7662 0
-8318 7261 0
-8318 7260 0
8318 -7261 -7260 0
-7261 7665 0
-7261 7668 0
7261 -7665 -7668 0
-8320 7267 0
-8320 7266 0
8320 -7267 -7266 0
-7267 7671 0
-7267 7674 0
7267 -7671 -7674 0
-8166 7680 0
-8166 7272 0
8166 -7680 -7272 0
-8169 7686 0
-8169 7689 0
8169 -7686 -7689 0
-8172 7695 0
-8172 7698 0
8172 -7695 -7698 0
-8328 7761 0
-8328 7281 0
8328 -7761 -7281 0
-8330 8179 0
-8330 7284 0
8330 -8179 -7284 0
-8180 8183 0
-8180 7672 0
8180 -8183 -7672 0
-8332 8159 0
-8332 7290 0
8332 -8159 -7290 0
7721 -7900 0
7721 -7724 0
-7721 7900 7724 0
7727 -7729 0
7727 -7730 0
-7727 7729 7730 0
7733 -7735 0
7733 -7736 0
-7733 7735 7736 0
7739 -7741 0
7739 -7742 0
-7739 7741 7742 0
7735 -7696 0
7735 -7305 0
-7735 7696 7305 0
7306 -7742 0
7306 -7696 0
-7306 7742 7696 0
7309 -7438 0
7309 -7311 0
-7309 7438 7311 0
8031 -7696 0
8031 -7314 0
-8031 7696 7314 0
7447 -7696 0
7447 -7317 0
-7447 7696 7317 0
7745 -7747 0
7745 -7748 0
-7745 7747 7748 0
7751 -8031 0
7751 -7754 0
-7751 8031 7754 0
7757 -7759 0
7757 -7760 0
-7757 7759 7760 0
7763 -7776 0
7763 -7771 0
-7763 7776 7771 0
7330 -7801 0
7330 -7968 0
-7330 7801 7968 0
7333 -7804 0
7333 -7974 0
-7333 7804 7974 0
7336 -7998 0
7336 -7338 0
-7336 7998 7338 0
7339 -7807 0
7339 -7980 0
-7339 7807 7980 0
7342 -7996 0
7342 -7344 0
-7342 7996 7344 0
7345 -7795 0
7345 -7986 0
-7345 7795 7986 0
7348 -7995 0
7348 -7350 0
-7348 7995 7350 0
7901 -7798 0
7901 -7992 0
-7901 7798 7992 0
7902 -7994 0
7902 -7356 0
-7902 7994 7356 0
7780 -7968 0
7780 -7801 0
-7780 7968 7801 0
7783 -7974 0
7783 -7804 0
-7783 7974 7804 0
7786 -7980 0
7786 -7807 0
-7786 7980 7807 0
7789 -7986 0
7789 -7795 0
-7789 7986 7795 0
7792 -7992 0
7792 -7798 0
-7792 7992 7798 0
7405 -7815 0
7405 -7816 0
7405 -7817 0
7405 -7818 0
-7405 7815 7816 7817 7818 0
7377 -7818 0
7377 -7400 0
-7377 7818 7400 0
7380 -7381 0
7380 -7382 0
-7380 7381 7382 0
7383 -7817 0
7383 -7400 0
-7383 7817 7400 0
7386 -7818 0
7386 -7388 0
-7386 7818 7388 0
7389 -7816 0
7389 -7400 0
-7389 7816 7400 0
7392 -7817 0
7392 -7394 0
-7392 7817 7394 0
7400 -7454 0
7400 -7699 0
-7400 7454 7699 0
7398 -7815 0
7398 -7400 0
-7398 7815 7400 0
7401 -7816 0
7401 -7403 0
-7401 7816 7403 0
7820 -7405 0
7820 -7409 0
-7820 7405 7409 0
7823 -8001 0
7823 -7409 0
-7823 8001 7409 0
7410 -7411 0
7410 -7445 0
-7410 7411 7445 0
7413 -8031 0
7413 -7415 0
-7413 8031 7415 0
7416 -7956 0
7416 -7445 0
-7416 7956 7445 0
7419 -7420 0
7419 -7421 0
-7419 7420 7421 0
7422 -7423 0
7422 -7699 0
-7422 7423 7699 0
7425 -7529 0
7425 -7427 0
-7425 7529 7427 0
7428 -8080 0
7428 -7699 0
-7428 8080 7699 0
7431 -8062 0
7431 -7433 0
-7431 8062 7433 0
7434 -7435 0
7434 -7690 0
-7434 7435 7690 0
7437 -7438 0
7437 -7439 0
-7437 7438 7439 0
7445 -7600 0
7445 -7690 0
-7445 7600 7690 0
7443 -7444 0
7443 -7445 0
-7443 7444 7445 0
7446 -7447 0
7446 -7448 0
-7446 7447 7448 0
7449 -7703 0
7449 -8067 0
-7449 7703 8067 0
7452 -7703 0
7452 -7454 0
-7452 7703 7454 0
7455 -7703 0
7455 -8061 0
-7455 7703 8061 0
7458 -7703 0
7458 -8079 0
-7458 7703 8079 0
8097 -7462 0
8097 -7690 0
-8097 7462 7690 0
7464 -8157 0
7464 -7466 0
-7464 8157 7466 0
7467 -8091 0
7467 -7469 0
-7467 8091 7469 0
7654 -7894 0
7654 -8158 0
-7654 7894 8158 0
7473 -8118 0
7473 -7490 0
-7473 8118 7490 0
7476 -7477 0
7476 -7478 0
-7476 7477 7478 0
7479 -8119 0
7479 -7490 0
-7479 8119 7490 0
7482 -7483 0
7482 -7484 0
-7482 7483 7484 0
7490 -7486 0
7490 -7703 0
-7490 7486 7703 0
7488 -8120 0
7488 -7490 0
-7488 8120 7490 0
7491 -7492 0
7491 -7493 0
-7491 7492 7493 0
7494 -7645 0
7494 -7508 0
-7494 7645 7508 0
7497 -7627 0
7497 -7499 0
-7497 7627 7499 0
7500 -7651 0
7500 -7508 0
-7500 7651 7508 0
7503 -7633 0
7503 -7505 0
-7503 7633 7505 0
7506 -7657 0
7506 -7508 0
-7506 7657 7508 0
7509 -7639 0
7509 -7511 0
-7509 7639 7511 0
7830 -8118 0
7830 -8098 0
-7830 8118 8098 0
7833 -8119 0
7833 -8104 0
-7833 8119 8104 0
7836 -8120 0
7836 -8110 0
-7836 8120 8110 0
7839 -8117 0
7839 -8116 0
-7839 8117 8116 0
7747 -7699 0
7747 -7526 0
-7747 7699 7526 0
8013 -7699 0
8013 -7529 0
-8013 7699 7529 0
8158 -7852 0
8158 -7856 0
-8158 7852 7856 0
7533 -8152 0
7533 -7595 0
-7533 8152 7595 0
7536 -7603 0
7536 -7538 0
-7536 7603 7538 0
7539 -8153 0
7539 -7595 0
-7539 8153 7595 0
7542 -7615 0
7542 -7544 0
-7542 7615 7544 0
7545 -8154 0
7545 -7595 0
-7545 8154 7595 0
7548 -7609 0
7548 -7550 0
-7548 7609 7550 0
7551 -8155 0
7551 -7595 0
-7551 8155 7595 0
7554 -7621 0
7554 -7556 0
-7554 7621 7556 0
7861 -8152 0
7861 -8126 0
-7861 8152 8126 0
7864 -8153 0
7864 -8132 0
-7864 8153 8132 0
7867 -8154 0
7867 -8138 0
-7867 8154 8138 0
7870 -8155 0
7870 -8144 0
-7870 8155 8144 0
7873 -8151 0
7873 -8150 0
-7873 8151 8150 0
7572 -7573 0
7572 -8125 0
-7572 7573 8125 0
7575 -7894 0
7575 -8156 0
-7575 7894 8156 0
7890 -7594 0
7890 -7580 0
-7890 7594 7580 0
7891 -7582 0
7891 -7585 0
-7891 7582 7585 0
7584 -7585 0
7584 -7595 0
-7584 7585 7595 0
7587 -7697 0
7587 -7589 0
-7587 7697 7589 0
7595 -7591 0
7595 -7703 0
-7595 7591 7703 0
7593 -7594 0
7593 -7595 0
-7593 7594 7595 0
7596 -8183 0
7596 -7598 0
-7596 8183 7598 0
7599 -7600 0
7599 -7690 0
-7599 7600 7690 0
7602 -7603 0
7602 -7604 0
-7602 7603 7604 0
7605 -7606 0
7605 -7690 0
-7605 7606 7690 0
7608 -7609 0
7608 -7610 0
-7608 7609 7610 0
7611 -7825 0
7611 -7690 0
-7611 7825 7690 0
7614 -7615 0
7614 -7616 0
-7614 7615 7616 0
7617 -7825 0
7617 -7690 0
-7617 7825 7690 0
7620 -7621 0
7620 -7622 0
-7620 7621 7622 0
7623 -7704 0
7623 -7690 0
-7623 7704 7690 0
7626 -7627 0
7626 -7628 0
-7626 7627 7628 0
7629 -7707 0
7629 -7690 0
-7629 7707 7690 0
7632 -7633 0
7632 -7634 0
-7632 7633 7634 0
7635 -7710 0
7635 -7690 0
-7635 7710 7690 0
7638 -7639 0
7638 -7640 0
-7638 7639 7640 0
7641 -7713 0
7641 -7690 0
-7641 7713 7690 0
7644 -7645 0
7644 -7646 0
-7644 7645 7646 0
7647 -7716 0
7647 -7690 0
-7647 7716 7690 0
7650 -7651 0
7650 -7652 0
-7650 7651 7652 0
7653 -7654 0
7653 -7690 0
-7653 7654 7690 0
7656 -7657 0
7656 -7658 0
-7656 7657 7658 0
7659 -7669 0
7659 -8183 0
-7659 7669 8183 0
7662 -7663 0
7662 -7664 0
-7662 7663 7664 0
7665 -7675 0
7665 -8183 0
-7665 7675 8183 0
7668 -7669 0
7668 -7670 0
-7668 7669 7670 0
7671 -7672 0
7671 -8183 0
-7671 7672 8183 0
7674 -7675 0
7674 -7676 0
-7674 7675 7676 0
8322 -8165 0
8322 -7701 0
-8322 8165 7701 0
7680 -7690 0
7680 -7697 0
-7680 7690 7697 0
8324 -8168 0
8324 -7701 0
-8324 8168 7701 0
7686 -7699 0
7686 -7697 0
-7686 7699 7697 0
7689 -7690 0
7689 -7691 0
-7689 7690 7691 0
8326 -8171 0
8326 -7701 0
-8326 8171 7701 0
7695 -7696 0
7695 -7697 0
-7695 7696 7697 0
7698 -7699 0
7698 -7700 0
-7698 7699 7700 0
7701 -8163 0
7701 -7703 0
-7701 8163 7703 0
7704 8126 0
7704 7718 0
-7704 -8126 -7718 0
7707 8132 0
7707 7718 0
-7707 -8132 -7718 0
7710 8138 0
7710 7718 0
-7710 -8138 -7718 0
7713 8144 0
7713 7718 0
-7713 -8144 -7718 0
7716 8150 0
7716 7718 0
-7716 -8150 -7718 0
7719 7722 0
7719 7721 0
-7719 -7722 -7721 0
7722 7900 0
7722 7724 0
-7722 -7900 -7724 0
7725 7728 0
7725 7727 0
-7725 -7728 -7727 0
7728 7729 0
7728 7730 0
-7728 -7729 -7730 0
7731 7734 0
7731 7733 0
-7731 -7734 -7733 0
7734 7735 0
7734 7736 0
-7734 -7735 -7736 0
7737 7740 0
7737 7739 0
-7737 -7740 -7739 0
7740 7741 0
7740 7742 0
-7740 -7741 -7742 0
7743 7746 0
7743 7745 0
-7743 -7746 -7745 0
7746 7747 0
7746 7748 0
-7746 -7747 -7748 0
7749 7752 0
7749 7751 0
-7749 -7752 -7751 0
7752 8031 0
7752 7754 0
-7752 -8031 -7754 0
7755 7758 0
7755 7757 0
-7755 -7758 -7757 0
7758 7759 0
7758 7760 0
-7758 -7759 -7760 0
7761 7775 0
7761 7763 0
-7761 -7775 -7763 0
7774 8157 0
7774 7766 0
-7774 -8157 -7766 0
7773 7768 0
7773 7811 0
7773 8157 0
-7773 -7768 -7811 -8157 0
7771 7900 0
7771 7773 0
7771 7774 0
-7771 -7900 -7773 -7774 0
7775 7776 0
7775 7777 0
-7775 -7776 -7777 0
7999 7799 0
7999 7780 0
-7999 -7799 -7780 0
7998 7802 0
7998 7783 0
-7998 -7802 -7783 0
7996 7805 0
7996 7786 0
-7996 -7805 -7786 0
7995 7793 0
7995 7789 0
-7995 -7793 -7789 0
7994 7796 0
7994 7792 0
-7994 -7796 -7792 0
7793 7986 0
7793 7795 0
-7793 -7986 -7795 0
7796 7992 0
7796 7798 0
-7796 -7992 -7798 0
7799 7968 0
7799 7801 0
-7799 -7968 -7801 0
7802 7974 0
7802 7804 0
-7802 -7974 -7804 0
7805 7980 0
7805 7807 0
-7805 -7980 -7807 0
7812 7993 0
7812 7997 0
-7812 -7993 -7997 0
7811 7812 0
7811 7900 0
-7811 -7812 -7900 0
8001 7815 0
8001 7816 0
8001 7817 0
8001 7818 0
-8001 -7815 -7816 -7817 -7818 0
7824 7820 0
7824 7821 0
-7824 -7820 -7821 0
7822 7823 0
7822 7824 0
-7822 -7823 -7824 0
7825 7826 0
7825 7895 0
-7825 -7826 -7895 0
7896 7840 0
7896 7830 0
-7896 -7840 -7830 0
7897 7843 0
7897 7833 0
-7897 -7843 -7833 0
7898 7846 0
7898 7836 0
-7898 -7846 -7836 0
7899 7849 0
7899 7839 0
-7899 -7849 -7839 0
7840 8118 0
7840 8098 0
-7840 -8118 -8098 0
7843 8119 0
7843 8104 0
-7843 -8119 -8104 0
7846 8120 0
7846 8110 0
-7846 -8120 -8110 0
7849 8117 0
7849 8116 0
-7849 -8117 -8116 0
7852 7859 0
7852 7862 0
7852 7865 0
-7852 -7859 -7862 -7865 0
7856 7868 0
7856 7871 0
-7856 -7868 -7871 0
7859 7874 0
7859 7861 0
-7859 -7874 -7861 0
7862 7877 0
7862 7864 0
-7862 -7877 -7864 0
7865 7880 0
7865 7867 0
-7865 -7880 -7867 0
7868 7883 0
7868 7870 0
-7868 -7883 -7870 0
7871 7886 0
7871 7873 0
-7871 -7886 -7873 0
7874 8152 0
7874 8126 0
-7874 -8152 -8126 0
7877 8153 0
7877 8132 0
-7877 -8153 -8132 0
7880 8154 0
7880 8138 0
-7880 -8154 -8138 0
7883 8155 0
7883 8144 0
-7883 -8155 -8144 0
7886 8151 0
7886 8150 0
-7886 -8151 -8150 0
8161 7890 0
8161 7891 0
-8161 -7890 -7891 0
8160 8157 0
8160 7894 0
-8160 -8157 -7894 0
7895 7896 0
7895 7897 0
7895 7898 0
7895 7899 0
-7895 -7896 -7897 -7898 -7899 0
7900 7901 0
7900 7902 0
-7900 -7901 -7902 0
-7903 -7906 0
-7903 -7905 0
7903 7906 7905 0
-7906 -7907 0
-7906 -7908 0
7906 7907 7908 0
-7909 -7912 0
-7909 -7911 0
7909 7912 7911 0
-7912 -7913 0
-7912 -7914 0
7912 7913 7914 0
-7915 -7918 0
-7915 -7917 0
7915 7918 7917 0
-7918 -7919 0
-7918 -7920 0
7918 7919 7920 0
-7921 -7924 0
-7921 -7923 0
7921 7924 7923 0
-7924 -7925 0
-7924 -7926 0
7924 7925 7926 0
-7927 -7930 0
-7927 -7929 0
7927 7930 7929 0
-7930 -7931 0
-7930 -7932 0
7930 7931 7932 0
-7933 -7936 0
-7933 -7935 0
7933 7936 7935 0
-7936 -7937 0
-7936 -7938 0
7936 7937 7938 0
-7939 -7942 0
-7939 -7941 0
7939 7942 7941 0
-7942 -7943 0
-7942 -7944 0
7942 7943 7944 0
-7945 -7948 0
-7945 -7947 0
7945 7948 7947 0
-7948 -7949 0
-7948 -7950 0
7948 7949 7950 0
-7951 -7954 0
-7951 -7953 0
7951 7954 7953 0
-7954 -7955 0
-7954 -7956 0
7954 7955 7956 0
-7957 -7960 0
-7957 -7959 0
7957 7960 7959 0
-7960 -7961 0
-7960 -7962 0
7960 7961 7962 0
-7963 -7966 0
-7963 -7965 0
7963 7966 7965 0
-7966 -8000 0
-7966 -7968 0
7966 8000 7968 0
-7969 -7972 0
-7969 -7971 0
7969 7972 7971 0
-7972 -7973 0
-7972 -7974 0
7972 7973 7974 0
-7975 -7978 0
-7975 -7977 0
7975 7978 7977 0
-7978 -7979 0
-7978 -7980 0
7978 7979 7980 0
-7981 -7984 0
-7981 -7983 0
7981 7984 7983 0
-7984 -7985 0
-7984 -7986 0
7984 7985 7986 0
-7987 -7990 0
-7987 -7989 0
7987 7990 7989 0
-7990 -7991 0
-7990 -7992 0
7990 7991 7992 0
-7993 -7994 0
-7993 -7995 0
-7993 -7996 0
7993 7994 7995 7996 0
-7997 -7998 0
-7997 -7999 0
7997 7998 7999 0
-8000 -8001 0
-8000 -8006 0
8000 8001 8006 0
-8008 -8004 0
-8008 -8005 0
8008 8004 8005 0
-8006 -8007 0
-8006 -8008 0
8006 8007 8008 0
-8009 -8012 0
-8009 -8011 0
8009 8012 8011 0
-8012 -8013 0
-8012 -8014 0
8012 8013 8014 0
-8015 -8018 0
-8015 -8017 0
8015 8018 8017 0
-8018 -8019 0
-8018 -8020 0
8018 8019 8020 0
-8021 -8024 0
-8021 -8023 0
8021 8024 8023 0
-8024 -8025 0
-8024 -8026 0
8024 8025 8026 0
-8027 -8030 0
-8027 -8029 0
8027 8030 8029 0
-8030 -8031 0
-8030 -8032 0
8030 8031 8032 0
-8033 -8036 0
-8033 -8035 0
8033 8036 8035 0
-8036 -8037 0
-8036 -8038 0
8036 8037 8038 0
-8039 -8042 0
-8039 -8041 0
8039 8042 8041 0
-8042 -8043 0
-8042 -8044 0
8042 8043 8044 0
-8045 -8048 0
-8045 -8047 0
8045 8048 8047 0
-8048 -8049 0
-8048 -8050 0
8048 8049 8050 0
-8051 -8054 0
-8051 -8053 0
8051 8054 8053 0
-8054 -8055 0
-8054 -8056 0
8054 8055 8056 0
-8057 -8060 0
-8057 -8059 0
8057 8060 8059 0
-8060 -8061 0
-8060 -8062 0
8060 8061 8062 0
-8063 -8066 0
-8063 -8065 0
8063 8066 8065 0
-8066 -8067 0
-8066 -8068 0
8066 8067 8068 0
-8069 -8072 0
-8069 -8071 0
8069 8072 8071 0
-8072 -8073 0
-8072 -8074 0
8072 8073 8074 0
-8075 -8078 0
-8075 -8077 0
8075 8078 8077 0
-8078 -8079 0
-8078 -8080 0
8078 8079 8080 0
-8081 -8082 0
-8081 -8084 0
8081 8082 8084 0
-8084 -8091 0
-8084 -8086 0
8084 8091 8086 0
-8087 -8088 0
-8087 -8090 0
8087 8088 8090 0
-8090 -8091 0
-8090 -8092 0
8090 8091 8092 0
-8093 -8096 0
-8093 -8095 0
8093 8096 8095 0
-8096 -8097 0
-8096 -8098 0
8096 8097 8098 0
-8099 -8102 0
-8099 -8101 0
8099 8102 8101 0
-8102 -8103 0
-8102 -8104 0
8102 8103 8104 0
-8105 -8108 0
-8105 -8107 0
8105 8108 8107 0
-8108 -8109 0
-8108 -8110 0
8108 8109 8110 0
-8111 -8114 0
-8111 -8113 0
8111 8114 8113 0
-8114 -8115 0
-8114 -8116 0
8114 8115 8116 0
-8117 -8118 0
-8117 -8119 0
-8117 -8120 0
8117 8118 8119 8120 0
-8121 -8124 0
-8121 -8123 0
8121 8124 8123 0
-8124 -8125 0
-8124 -8126 0
8124 8125 8126 0
-8127 -8130 0
-8127 -8129 0
8127 8130 8129 0
-8130 -8131 0
-8130 -8132 0
8130 8131 8132 0
-8133 -8136 0
-8133 -8135 0
8133 8136 8135 0
-8136 -8137 0
-8136 -8138 0
8136 8137 8138 0
-8139 -8142 0
-8139 -8141 0
8139 8142 8141 0
-8142 -8143 0
-8142 -8144 0
8142 8143 8144 0
-8145 -8148 0
-8145 -8147 0
8145 8148 8147 0
-8148 -8149 0
-8148 -8150 0
8148 8149 8150 0
-8151 -8152 0
-8151 -8153 0
-8151 -8154 0
-8151 -8155 0
8151 8152 8153 8154 8155 0
-8156 -8157 0
-8156 -8158 0
8156 8157 8158 0
-8159 -8160 0
-8159 -8161 0
8159 8160 8161 0
-8173 -8163 0
-8173 -8164 0
8173 8163 8164 0
-8165 -8166 0
-8165 -8173 0
8165 8166 8173 0
-8168 -8169 0
-8168 -8173 0
8168 8169 8173 0
-8171 -8172 0
-8171 -8173 0
8171 8172 8173 0
-8174 -8175 0
-8174 -8176 0
-8174 -8177 0
-8174 -8178 0
8174 8175 8176 8177 8178 0
-8179 -8180 0
-8179 -8182 0
8179 8180 8182 0
-8182 -8183 0
-8182 -8184 0
8182 8183 8184 0
-8186 9778 0
8186 -9778 0
-8188 9962 0
8188 -9962 0
-8190 8344 0
8190 -8344 0
-8192 9865 0
8192 -9865 0
-8194 9871 0
8194 -9871 0
-8196 8352 0
8196 -8352 0
-8198 9877 0
8198 -9877 0
-8200 8358 0
8200 -8358 0
-8202 9883 0
8202 -9883 0
-8204 9889 0
8204 -9889 0
-8206 9895 0
8206 -9895 0
-8208 9901 0
8208 -9901 0
-8210 8759 0
8210 -8759 0
-8212 9395 0
8212 -9395 0
-8214 8382 0
8214 -8382 0
-8216 9907 0
8216 -9907 0
-8218 9913 0
8218 -9913 0
-8220 8392 0
8220 -8392 0
-8222 8396 0
8222 -8396 0
-8224 9919 0
8224 -9919 0
-8226 9925 0
8226 -9925 0
-8228 9931 0
8228 -9931 0
-8230 9937 0
8230 -9937 0
-8232 9943 0
8232 -9943 0
-8234 9949 0
8234 -9949 0
-8236 9775 0
8236 -9775 0
-8238 9774 0
8238 -9774 0
-8240 9773 0
8240 -9773 0
-8242 9772 0
8242 -9772 0
-8244 9971 0
8244 -9971 0
-8246 9977 0
8246 -9977 0
-8248 9983 0
8248 -9983 0
-8250 9989 0
8250 -9989 0
-8252 9995 0
8252 -9995 0
-8254 10001 0
8254 -10001 0
-8256 10007 0
8256 -10007 0
-8258 10013 0
8258 -10013 0
-8260 10019 0
8260 -10019 0
-8262 10025 0
8262 -10025 0
-8264 10031 0
8264 -10031 0
-8266 10037 0
8266 -10037 0
-8268 9423 0
8268 -9423 0
-8270 10043 0
8270 -10043 0
-8272 9426 0
8272 -9426 0
-8274 10049 0
8274 -10049 0
-8276 10055 0
8276 -10055 0
-8278 10061 0
8278 -10061 0
-8280 10067 0
8280 -10067 0
-8282 10073 0
8282 -10073 0
-8284 10075 0
8284 -10075 0
-8286 10076 0
8286 -10076 0
-8288 10077 0
8288 -10077 0
-8290 10083 0
8290 -10083 0
-8292 10089 0
8292 -10089 0
-8294 10095 0
8294 -10095 0
-8296 10101 0
8296 -10101 0
-8298 10107 0
8298 -10107 0
-8300 10109 0
8300 -10109 0
-8302 10110 0
8302 -10110 0
-8304 10111 0
8304 -10111 0
-8306 10112 0
8306 -10112 0
-8308 9851 0
8308 -9851 0
-8310 9542 0
8310 -9542 0
-8312 9551 0
8312 -9551 0
-8314 10121 0
8314 -10121 0
-8316 9626 0
8316 -9626 0
-8318 9632 0
8318 -9632 0
-8320 9629 0
8320 -9629 0
-8322 9201 0
8322 -9201 0
-8324 9204 0
8324 -9204 0
-8326 8378 0
8326 -8378 0
-8328 8654 0
8328 -8654 0
-8330 10141 0
8330 -10141 0
-8332 8660 0
8332 -8660 0
8336 9779 0
-8336 -9779 0
10143 8336 0
-10143 -8336 0
8340 9963 0
-8340 -9963 0
10145 8340 0
-10145 -8340 0
8678 9660 0
-8678 -9660 0
9681 8344 0
-9681 -8344 0
8681 9660 0
-8681 -9660 0
8687 9660 0
-8687 -9660 0
8693 9660 0
-8693 -9660 0
9687 8352 0
-9687 -8352 0
8696 9660 0
-8696 -9660 0
8714 9660 0
-8714 -9660 0
9693 8358 0
-9693 -8358 0
8717 9660 0
-8717 -9660 0
8723 9660 0
-8723 -9660 0
8729 9660 0
-8729 -9660 0
8735 9660 0
-8735 -9660 0
8741 9660 0
-8741 -9660 0
8762 9660 0
-8762 -9660 0
8761 9395 0
-8761 -9395 0
9699 8759 0
-9699 -8759 0
9268 9653 0
-9268 -9653 0
9653 8378 0
-9653 -8378 0
8768 9660 0
-8768 -9660 0
9705 8382 0
-9705 -8382 0
8771 9660 0
-8771 -9660 0
8777 9660 0
-8777 -9660 0
8809 9913 0
-8809 -9913 0
8789 9660 0
-8789 -9660 0
9711 8392 0
-9711 -8392 0
8792 9660 0
-8792 -9660 0
9717 8396 0
-9717 -8396 0
8795 9660 0
-8795 -9660 0
8825 8847 0
-8825 -8847 0
8831 8847 0
-8831 -8847 0
8837 8847 0
-8837 -8847 0
8843 8847 0
-8843 -8847 0
8852 8847 0
-8852 -8847 0
9725 9769 0
-9725 -9769 0
8882 9660 0
-8882 -9660 0
9339 9357 0
-9339 -9357 0
8888 9660 0
-8888 -9660 0
9345 9357 0
-9345 -9357 0
8894 9660 0
-8894 -9660 0
9351 9357 0
-9351 -9357 0
8900 9660 0
-8900 -9660 0
9360 9357 0
-9360 -9357 0
9372 9402 0
-9372 -9402 0
9378 9402 0
-9378 -9402 0
9384 9656 0
-9384 -9656 0
9390 9656 0
-9390 -9656 0
9656 9204 0
-9656 -9204 0
9396 9647 0
-9396 -9647 0
9405 9402 0
-9405 -9402 0
8924 9406 0
-8924 -9406 0
8930 9406 0
-8930 -9406 0
8936 9406 0
-8936 -9406 0
8952 9409 0
-8952 -9409 0
8958 9409 0
-8958 -9409 0
8964 9409 0
-8964 -9409 0
8976 9412 0
-8976 -9412 0
8982 9412 0
-8982 -9412 0
8988 9660 0
-8988 -9660 0
9003 9415 0
-9003 -9415 0
9009 9415 0
-9009 -9415 0
9015 9660 0
-9015 -9660 0
9036 9660 0
-9036 -9660 0
9039 9660 0
-9039 -9660 0
9051 9426 0
-9051 -9426 0
9045 9660 0
-9045 -9660 0
9054 10049 0
-9054 -10049 0
9048 9660 0
-9048 -9660 0
9053 9611 0
-9053 -9611 0
9058 9782 0
-9058 -9782 0
9064 9782 0
-9064 -9782 0
9070 9782 0
-9070 -9782 0
9076 9782 0
-9076 -9782 0
9783 9660 0
-9783 -9660 0
9435 9447 0
-9435 -9447 0
9441 9447 0
-9441 -9447 0
9450 9447 0
-9450 -9447 0
9456 9465 0
-9456 -9465 0
9462 9465 0
-9462 -9465 0
9468 9465 0
-9468 -9465 0
9465 9423 0
-9465 -9423 0
9109 9161 0
-9109 -9161 0
9115 9161 0
-9115 -9161 0
9121 9161 0
-9121 -9161 0
9127 9161 0
-9127 -9161 0
9133 9161 0
-9133 -9161 0
9495 9552 0
-9495 -9552 0
9501 9552 0
-9501 -9552 0
9507 9552 0
-9507 -9552 0
9513 9552 0
-9513 -9552 0
9166 9161 0
-9166 -9161 0
9169 10113 0
-9169 -10113 0
9675 10118 0
-9675 -10118 0
9539 9537 0
-9539 -9537 0
9546 9552 0
-9546 -9552 0
9555 9552 0
-9555 -9552 0
9563 10043 0
-9563 -10043 0
10048 9852 0
-10048 -9852 0
9561 9647 0
-9561 -9647 0
9567 9647 0
-9567 -9647 0
9573 9647 0
-9573 -9647 0
9579 9647 0
-9579 -9647 0
9585 9647 0
-9585 -9647 0
9591 9647 0
-9591 -9647 0
9597 9647 0
-9597 -9647 0
9603 9647 0
-9603 -9647 0
9609 9647 0
-9609 -9647 0
9615 9647 0
-9615 -9647 0
9647 9201 0
-9647 -9201 0
9208 9660 0
-9208 -9660 0
10120 9207 0
-10120 -9207 0
8566 8564 0
-8566 -8564 0
9207 8566 0
-9207 -8566 0
9620 10141 0
-9620 -10141 0
9211 9660 0
-9211 -9660 0
9621 10140 0
-9621 -10140 0
9217 9660 0
-9217 -9660 0
9627 10140 0
-9627 -10140 0
9223 9660 0
-9223 -9660 0
9633 10140 0
-9633 -10140 0
8584 8582 0
-8584 -8582 0
10140 8584 0
-10140 -8584 0
9229 9654 0
-9229 -9654 0
9648 9654 0
-9648 -9654 0
9657 9654 0
-9657 -9654 0
8594 8592 0
-8594 -8592 0
9654 8594 0
-9654 -8594 0
8608 8596 0
-8608 -8596 0
8597 8608 0
-8597 -8608 0
9238 9660 0
-9238 -9660 0
9241 9660 0
-9241 -9660 0
9247 9660 0
-9247 -9660 0
9660 8606 0
-9660 -8606 0
9366 8608 0
-9366 -8608 0
8612 8610 0
-8612 -8610 0
9560 8612 0
-9560 -8612 0
8616 8614 0
-8616 -8614 0
9572 8616 0
-9572 -8616 0
8620 8618 0
-8620 -8618 0
9566 8620 0
-9566 -8620 0
8624 8622 0
-8624 -8622 0
9578 8624 0
-9578 -8624 0
8628 8626 0
-8628 -8626 0
9338 8628 0
-9338 -8628 0
8632 8630 0
-8632 -8630 0
9584 8632 0
-9584 -8632 0
8636 8634 0
-8636 -8634 0
9590 8636 0
-9590 -8636 0
8640 8638 0
-8640 -8638 0
9596 8640 0
-9596 -8640 0
8644 8642 0
-8644 -8642 0
9602 8644 0
-9602 -8644 0
8648 8646 0
-8648 -8646 0
9608 8648 0
-9608 -8648 0
8652 8650 0
-8652 -8650 0
9614 8652 0
-9614 -8652 0
8653 8654 0
-8653 -8654 0
8658 8656 0
-8658 -8656 0
9055 8658 0
-9055 -8658 0
8659 8660 0
-8659 -8660 0
-9758 9580 0
-9758 9583 0
9758 -9580 -9583 0
-9761 9586 0
-9761 9589 0
9761 -9586 -9589 0
-9764 9592 0
-9764 9595 0
9764 -9592 -9595 0
-9752 9598 0
-9752 9601 0
9752 -9598 -9601 0
-9755 9604 0
-9755 9607 0
9755 -9604 -9607 0
-10147 9676 0
-10147 8678 0
10147 -9676 -8678 0
-10149 9860 0
-10149 8681 0
10149 -9860 -8681 0
-9862 9864 0
-9862 9865 0
9862 -9864 -9865 0
-10151 9866 0
-10151 8687 0
10151 -9866 -8687 0
-9868 9870 0
-9868 9871 0
9868 -9870 -9871 0
-10153 9682 0
-10153 8693 0
10153 -9682 -8693 0
-10155 9872 0
-10155 8696 0
10155 -9872 -8696 0
-9874 9876 0
-9874 9877 0
9874 -9876 -9877 0
-9864 9857 0
-9864 9681 0
9864 -9857 -9681 0
-9870 9864 0
-9870 9865 0
9870 -9864 -9865 0
-9686 9870 0
-9686 9871 0
9686 -9870 -9871 0
-9876 9686 0
-9876 9687 0
9876 -9686 -9687 0
-10157 9688 0
-10157 8714 0
10157 -9688 -8714 0
-10159 9878 0
-10159 8717 0
10159 -9878 -8717 0
-9880 9882 0
-9880 9883 0
9880 -9882 -9883 0
-10161 9884 0
-10161 8723 0
10161 -9884 -8723 0
-9886 9888 0
-9886 9889 0
9886 -9888 -9889 0
-10163 9890 0
-10163 8729 0
10163 -9890 -8729 0
-9892 9894 0
-9892 9895 0
9892 -9894 -9895 0
-10165 9896 0
-10165 8735 0
10165 -9896 -8735 0
-9898 9900 0
-9898 9901 0
9898 -9900 -9901 0
-10167 9694 0
-10167 8741 0
10167 -9694 -8741 0
-9882 9692 0
-9882 9693 0
9882 -9692 -9693 0
-9888 9882 0
-9888 9883 0
9888 -9882 -9883 0
-9894 9888 0
-9894 9889 0
9894 -9888 -9889 0
-9900 9894 0
-9900 9895 0
9900 -9894 -9895 0
-9698 9900 0
-9698 9901 0
9698 -9900 -9901 0
-9274 9698 0
-9274 8759 0
9274 -9698 -8759 0
-10169 8761 0
-10169 8762 0
10169 -8761 -8762 0
-9377 9263 0
-9377 9266 0
9377 -9263 -9266 0
-10171 9700 0
-10171 8768 0
10171 -9700 -8768 0
-10173 9902 0
-10173 8771 0
10173 -9902 -8771 0
-9904 9906 0
-9904 9907 0
9904 -9906 -9907 0
-10175 9908 0
-10175 8777 0
10175 -9908 -8777 0
-9910 9912 0
-9910 9913 0
9910 -9912 -9913 0
-9906 9704 0
-9906 9705 0
9906 -9704 -9705 0
-9912 9906 0
-9912 9907 0
9912 -9906 -9907 0
-10177 9706 0
-10177 8789 0
10177 -9706 -8789 0
-10179 9712 0
-10179 8792 0
10179 -9712 -8792 0
-10181 9914 0
-10181 8795 0
10181 -9914 -8795 0
-9916 9918 0
-9916 9919 0
9916 -9918 -9919 0
-9716 9988 0
-9716 9711 0
9716 -9988 -9711 0
-9918 9716 0
-9918 9717 0
9918 -9716 -9717 0
-9368 9912 0
-9368 9913 0
9368 -9912 -9913 0
-9401 8809 0
-9401 9912 0
9401 -8809 -9912 0
-9262 9876 0
-9262 9877 0
9262 -9876 -9877 0
-9271 9698 0
-9271 9699 0
9271 -9698 -9699 0
-9483 9918 0
-9483 9919 0
9483 -9918 -9919 0
-9380 10036 0
-9380 10037 0
9380 -10036 -10037 0
-10183 9920 0
-10183 8825 0
10183 -9920 -8825 0
-9922 9957 0
-9922 9925 0
9922 -9957 -9925 0
-10185 9926 0
-10185 8831 0
10185 -9926 -8831 0
-9928 9930 0
-9928 9931 0
9928 -9930 -9931 0
-10187 9932 0
-10187 8837 0
10187 -9932 -8837 0
-9934 9936 0
-9934 9937 0
9934 -9936 -9937 0
-10189 9938 0
-10189 8843 0
10189 -9938 -8843 0
-9940 9942 0
-9940 9943 0
9940 -9942 -9943 0
-8847 9568 0
-8847 9571 0
8847 -9568 -9571 0
-10191 9944 0
-10191 8852 0
10191 -9944 -8852 0
-9946 9948 0
-9946 9949 0
9946 -9948 -9949 0
-9930 9957 0
-9930 9925 0
9930 -9957 -9925 0
-9936 9930 0
-9936 9931 0
9936 -9930 -9931 0
-9942 9936 0
-9942 9937 0
9942 -9936 -9937 0
-9948 9942 0
-9948 9943 0
9948 -9942 -9943 0
-9295 9287 0
-9295 9956 0
9295 -9287 -9956 0
-9301 9290 0
-9301 9293 0
9301 -9290 -9293 0
-9307 9296 0
-9307 9299 0
9307 -9296 -9299 0
-9313 9302 0
-9313 9305 0
9313 -9302 -9305 0
-10193 8883 0
-10193 8882 0
10193 -8883 -8882 0
-8883 9334 0
-8883 9337 0
8883 -9334 -9337 0
-10195 8889 0
-10195 8888 0
10195 -8889 -8888 0
-8889 9340 0
-8889 9343 0
8889 -9340 -9343 0
-10197 8895 0
-10197 8894 0
10197 -8895 -8894 0
-8895 9346 0
-8895 9349 0
8895 -9346 -9349 0
-10199 8901 0
-10199 8900 0
10199 -8901 -8900 0
-8901 9355 0
-8901 9358 0
8901 -9355 -9358 0
-9964 9781 0
-9964 9366 0
9964 -9781 -9366 0
-9961 9779 0
-9961 9366 0
9961 -9779 -9366 0
-10006 9367 0
-10006 9370 0
10006 -9367 -9370 0
-9419 9379 0
-9419 9382 0
9419 -9379 -9382 0
-9392 9385 0
-9392 9388 0
9392 -9385 -9388 0
-10024 9970 0
-10024 9983 0
10024 -9970 -9983 0
-10201 9966 0
-10201 8924 0
10201 -9966 -8924 0
-9968 9970 0
-9968 9971 0
9968 -9970 -9971 0
-10203 9972 0
-10203 8930 0
10203 -9972 -8930 0
-9974 9976 0
-9974 9977 0
9974 -9976 -9977 0
-10205 9978 0
-10205 8936 0
10205 -9978 -8936 0
-9980 9982 0
-9980 9983 0
9980 -9982 -9983 0
-9976 9970 0
-9976 9971 0
9976 -9970 -9971 0
-9982 9976 0
-9982 9977 0
9982 -9976 -9977 0
-9411 9988 0
-9411 9989 0
-9411 10001 0
9411 -9988 -9989 -10001 0
-10207 9984 0
-10207 8952 0
10207 -9984 -8952 0
-9986 9988 0
-9986 9989 0
9986 -9988 -9989 0
-10209 9990 0
-10209 8958 0
10209 -9990 -8958 0
-9992 9994 0
-9992 9995 0
9992 -9994 -9995 0
-10211 9996 0
-10211 8964 0
10211 -9996 -8964 0
-9998 10000 0
-9998 10001 0
9998 -10000 -10001 0
-9994 9988 0
-9994 9989 0
9994 -9988 -9989 0
-10000 9994 0
-10000 9995 0
10000 -9994 -9995 0
-10213 10002 0
-10213 8976 0
10213 -10002 -8976 0
-10004 10006 0
-10004 10007 0
10004 -10006 -10007 0
-10215 10008 0
-10215 8982 0
10215 -10008 -8982 0
-10010 10012 0
-10010 10013 0
10010 -10012 -10013 0
-10217 10014 0
-10217 8988 0
10217 -10014 -8988 0
-10016 10018 0
-10016 10019 0
10016 -10018 -10019 0
-10012 10006 0
-10012 10007 0
10012 -10006 -10007 0
-10018 10006 0
-10018 10013 0
10018 -10006 -10013 0
-9486 10018 0
-9486 10019 0
9486 -10018 -10019 0
-10219 10020 0
-10219 9003 0
10219 -10020 -9003 0
-10022 10024 0
-10022 10025 0
10022 -10024 -10025 0
-10221 10026 0
-10221 9009 0
10221 -10026 -9009 0
-10028 10030 0
-10028 10031 0
10028 -10030 -10031 0
-10223 10032 0
-10223 9015 0
10223 -10032 -9015 0
-10034 10036 0
-10034 10037 0
10034 -10036 -10037 0
-10030 10024 0
-10030 10025 0
10030 -10024 -10025 0
-10036 10024 0
-10036 10031 0
10036 -10024 -10031 0
-9174 9400 0
-9174 9403 0
9174 -9400 -9403 0
-10114 9373 0
-10114 9376 0
10114 -9373 -9376 0
-9734 9391 0
-9734 9394 0
9734 -9391 -9394 0
-10225 9421 0
-10225 9036 0
10225 -9421 -9036 0
-10227 10038 0
-10227 9039 0
10227 -10038 -9039 0
-10039 10048 0
-10039 9465 0
10039 -10048 -9465 0
-10229 9424 0
-10229 9045 0
10229 -9424 -9045 0
-10231 10044 0
-10231 9048 0
10231 -10044 -9048 0
-10045 10048 0
-10045 9051 0
10045 -10048 -9051 0
-9557 9053 0
-9557 9054 0
-9557 9055 0
9557 -9053 -9054 -9055 0
-10233 10050 0
-10233 9058 0
10233 -10050 -9058 0
-10052 10054 0
-10052 10055 0
10052 -10054 -10055 0
-10235 10056 0
-10235 9064 0
10235 -10056 -9064 0
-10058 10060 0
-10058 10061 0
10058 -10060 -10061 0
-10237 10062 0
-10237 9070 0
10237 -10062 -9070 0
-10064 10066 0
-10064 10067 0
10064 -10066 -10067 0
-10239 10068 0
-10239 9076 0
10239 -10068 -9076 0
-10070 10072 0
-10070 10073 0
10070 -10072 -10073 0
-10060 10054 0
-10060 10055 0
10060 -10054 -10055 0
-10066 10060 0
-10066 10061 0
10066 -10060 -10061 0
-10072 10066 0
-10072 10067 0
10072 -10066 -10067 0
-9434 9451 0
-9434 9454 0
9434 -9451 -9454 0
-9440 9457 0
-9440 9460 0
9440 -9457 -9460 0
-9449 9463 0
-9449 9466 0
9449 -9463 -9466 0
-10241 9430 0
-10241 9433 0
10241 -9430 -9433 0
-10243 9436 0
-10243 9439 0
10243 -9436 -9439 0
-10245 9445 0
-10245 9448 0
10245 -9445 -9448 0
-10247 10078 0
-10247 9109 0
10247 -10078 -9109 0
-10080 10082 0
-10080 10083 0
10080 -10082 -10083 0
-10249 10084 0
-10249 9115 0
10249 -10084 -9115 0
-10086 10088 0
-10086 10089 0
10086 -10088 -10089 0
-10251 10090 0
-10251 9121 0
10251 -10090 -9121 0
-10092 10094 0
-10092 10095 0
10092 -10094 -10095 0
-10253 10096 0
-10253 9127 0
10253 -10096 -9127 0
-10098 10100 0
-10098 10101 0
10098 -10100 -10101 0
-10255 10102 0
-10255 9133 0
10255 -10102 -9133 0
-10104 10106 0
-10104 10107 0
10104 -10106 -10107 0
-10088 10082 0
-10088 10083 0
10088 -10082 -10083 0
-10094 10088 0
-10094 10089 0
10094 -10088 -10089 0
-10100 10094 0
-10100 10095 0
10100 -10094 -10095 0
-10106 10100 0
-10106 10101 0
10106 -10100 -10101 0
-10257 9490 0
-10257 9493 0
10257 -9490 -9493 0
-10259 9496 0
-10259 9499 0
10259 -9496 -9499 0
-10261 9502 0
-10261 9505 0
10261 -9502 -9505 0
-10263 9508 0
-10263 9511 0
10263 -9508 -9511 0
-9161 9574 0
-9161 9577 0
9161 -9574 -9577 0
-10265 9529 0
-10265 9166 0
10265 -9529 -9166 0
-9530 9532 0
-9530 9169 0
9530 -9532 -9169 0
-9537 9562 0
-9537 9565 0
9537 -9562 -9565 0
-10082 9174 0
-10082 10115 0
10082 -9174 -10115 0
-10267 9541 0
-10267 9544 0
10267 -9541 -9544 0
-10269 9550 0
-10269 9553 0
10269 -9550 -9553 0
-9723 9610 0
-9723 9613 0
9723 -9610 -9613 0
-9733 9556 0
-9733 9559 0
9733 -9556 -9559 0
-10132 9262 0
-10132 9620 0
10132 -9262 -9620 0
-10133 9271 0
-10133 9626 0
10133 -9271 -9626 0
-10134 9483 0
-10134 9632 0
10134 -9483 -9632 0
-10135 9380 0
-10135 9629 0
10135 -9380 -9629 0
-9443 9201 0
-9443 9782 0
9443 -9201 -9782 0
-9548 9204 0
-9548 9782 0
9548 -9204 -9782 0
-10271 9207 0
-10271 9208 0
10271 -9207 -9208 0
-10273 9212 0
-10273 9211 0
10273 -9212 -9211 0
-9212 9616 0
-9212 9619 0
9212 -9616 -9619 0
-10275 9218 0
-10275 9217 0
10275 -9218 -9217 0
-9218 9622 0
-9218 9625 0
9218 -9622 -9625 0
-10277 9224 0
-10277 9223 0
10277 -9224 -9223 0
-9224 9628 0
-9224 9631 0
9224 -9628 -9631 0
-10123 9637 0
-10123 9229 0
10123 -9637 -9229 0
-10126 9643 0
-10126 9646 0
10126 -9643 -9646 0
-10129 9652 0
-10129 9655 0
10129 -9652 -9655 0
-10285 9718 0
-10285 9238 0
10285 -9718 -9238 0
-10287 10136 0
-10287 9241 0
10287 -10136 -9241 0
-10137 10140 0
-10137 9629 0
10137 -10140 -9629 0
-10289 10116 0
-10289 9247 0
10289 -10116 -9247 0
9678 -9857 0
9678 -9681 0
-9678 9857 9681 0
9684 -9686 0
9684 -9687 0
-9684 9686 9687 0
9690 -9692 0
9690 -9693 0
-9690 9692 9693 0
9696 -9698 0
9696 -9699 0
-9696 9698 9699 0
9692 -9653 0
9692 -9262 0
-9692 9653 9262 0
9263 -9699 0
9263 -9653 0
-9263 9699 9653 0
9266 -9395 0
9266 -9268 0
-9266 9395 9268 0
9988 -9653 0
9988 -9271 0
-9988 9653 9271 0
9404 -9653 0
9404 -9274 0
-9404 9653 9274 0
9702 -9704 0
9702 -9705 0
-9702 9704 9705 0
9708 -9988 0
9708 -9711 0
-9708 9988 9711 0
9714 -9716 0
9714 -9717 0
-9714 9716 9717 0
9720 -9733 0
9720 -9728 0
-9720 9733 9728 0
9287 -9758 0
9287 -9925 0
-9287 9758 9925 0
9290 -9761 0
9290 -9931 0
-9290 9761 9931 0
9293 -9955 0
9293 -9295 0
-9293 9955 9295 0
9296 -9764 0
9296 -9937 0
-9296 9764 9937 0
9299 -9953 0
9299 -9301 0
-9299 9953 9301 0
9302 -9752 0
9302 -9943 0
-9302 9752 9943 0
9305 -9952 0
9305 -9307 0
-9305 9952 9307 0
9858 -9755 0
9858 -9949 0
-9858 9755 9949 0
9859 -9951 0
9859 -9313 0
-9859 9951 9313 0
9737 -9925 0
9737 -9758 0
-9737 9925 9758 0
9740 -9931 0
9740 -9761 0
-9740 9931 9761 0
9743 -9937 0
9743 -9764 0
-9743 9937 9764 0
9746 -9943 0
9746 -9752 0
-9746 9943 9752 0
9749 -9949 0
9749 -9755 0
-9749 9949 9755 0
9362 -9772 0
9362 -9773 0
9362 -9774 0
9362 -9775 0
-9362 9772 9773 9774 9775 0
9334 -9775 0
9334 -9357 0
-9334 9775 9357 0
9337 -9338 0
9337 -9339 0
-9337 9338 9339 0
9340 -9774 0
9340 -9357 0
-9340 9774 9357 0
9343 -9775 0
9343 -9345 0
-9343 9775 9345 0
9346 -9773 0
9346 -9357 0
-9346 9773 9357 0
9349 -9774 0
9349 -9351 0
-9349 9774 9351 0
9357 -9411 0
9357 -9656 0
-9357 9411 9656 0
9355 -9772 0
9355 -9357 0
-9355 9772 9357 0
9358 -9773 0
9358 -9360 0
-9358 9773 9360 0
9777 -9362 0
9777 -9366 0
-9777 9362 9366 0
9780 -9958 0
9780 -9366 0
-9780 9958 9366 0
9367 -9368 0
9367 -9402 0
-9367 9368 9402 0
9370 -9988 0
9370 -9372 0
-9370 9988 9372 0
9373 -9913 0
9373 -9402 0
-9373 9913 9402 0
9376 -9377 0
9376 -9378 0
-9376 9377 9378 0
9379 -9380 0
9379 -9656 0
-9379 9380 9656 0
9382 -9486 0
9382 -9384 0
-9382 9486 9384 0
9385 -10037 0
9385 -9656 0
-9385 10037 9656 0
9388 -10019 0
9388 -9390 0
-9388 10019 9390 0
9391 -9392 0
9391 -9647 0
-9391 9392 9647 0
9394 -9395 0
9394 -9396 0
-9394 9395 9396 0
9402 -9557 0
9402 -9647 0
-9402 9557 9647 0
9400 -9401 0
9400 -9402 0
-9400 9401 9402 0
9403 -9404 0
9403 -9405 0
-9403 9404 9405 0
9406 -9660 0
9406 -10024 0
-9406 9660 10024 0
9409 -9660 0
9409 -9411 0
-9409 9660 9411 0
9412 -9660 0
9412 -10018 0
-9412 9660 10018 0
9415 -9660 0
9415 -10036 0
-9415 9660 10036 0
10054 -9419 0
10054 -9647 0
-10054 9419 9647 0
9421 -10114 0
9421 -9423 0
-9421 10114 9423 0
9424 -10048 0
9424 -9426 0
-9424 10048 9426 0
9611 -9851 0
9611 -10115 0
-9611 9851 10115 0
9430 -10075 0
9430 -9447 0
-9430 10075 9447 0
9433 -9434 0
9433 -9435 0
-9433 9434 9435 0
9436 -10076 0
9436 -9447 0
-9436 10076 9447 0
9439 -9440 0
9439 -9441 0
-9439 9440 9441 0
9447 -9443 0
9447 -9660 0
-9447 9443 9660 0
9445 -10077 0
9445 -9447 0
-9445 10077 9447 0
9448 -9449 0
9448 -9450 0
-9448 9449 9450 0
9451 -9602 0
9451 -9465 0
-9451 9602 9465 0
9454 -9584 0
9454 -9456 0
-9454 9584 9456 0
9457 -9608 0
9457 -9465 0
-9457 9608 9465 0
9460 -9590 0
9460 -9462 0
-9460 9590 9462 0
9463 -9614 0
9463 -9465 0
-9463 9614 9465 0
9466 -9596 0
9466 -9468 0
-9466 9596 9468 0
9787 -10075 0
9787 -10055 0
-9787 10075 10055 0
9790 -10076 0
9790 -10061 0
-9790 10076 10061 0
9793 -10077 0
9793 -10067 0
-9793 10077 10067 0
9796 -10074 0
9796 -10073 0
-9796 10074 10073 0
9704 -9656 0
9704 -9483 0
-9704 9656 9483 0
9970 -9656 0
9970 -9486 0
-9970 9656 9486 0
10115 -9809 0
10115 -9813 0
-10115 9809 9813 0
9490 -10109 0
9490 -9552 0
-9490 10109 9552 0
9493 -9560 0
9493 -9495 0
-9493 9560 9495 0
9496 -10110 0
9496 -9552 0
-9496 10110 9552 0
9499 -9572 0
9499 -9501 0
-9499 9572 9501 0
9502 -10111 0
9502 -9552 0
-9502 10111 9552 0
9505 -9566 0
9505 -9507 0
-9505 9566 9507 0
9508 -10112 0
9508 -9552 0
-9508 10112 9552 0
9511 -9578 0
9511 -9513 0
-9511 9578 9513 0
9818 -10109 0
9818 -10083 0
-9818 10109 10083 0
9821 -10110 0
9821 -10089 0
-9821 10110 10089 0
9824 -10111 0
9824 -10095 0
-9824 10111 10095 0
9827 -10112 0
9827 -10101 0
-9827 10112 10101 0
9830 -10108 0
9830 -10107 0
-9830 10108 10107 0
9529 -9530 0
9529 -10082 0
-9529 9530 10082 0
9532 -9851 0
9532 -10113 0
-9532 9851 10113 0
9847 -9551 0
9847 -9537 0
-9847 9551 9537 0
9848 -9539 0
9848 -9542 0
-9848 9539 9542 0
9541 -9542 0
9541 -9552 0
-9541 9542 9552 0
9544 -9654 0
9544 -9546 0
-9544 9654 9546 0
9552 -9548 0
9552 -9660 0
-9552 9548 9660 0
9550 -9551 0
9550 -9552 0
-9550 9551 9552 0
9553 -10140 0
9553 -9555 0
-9553 10140 9555 0
9556 -9557 0
9556 -9647 0
-9556 9557 9647 0
9559 -9560 0
9559 -9561 0
-9559 9560 9561 0
9562 -9563 0
9562 -9647 0
-9562 9563 9647 0
9565 -9566 0
9565 -9567 0
-9565 9566 9567 0
9568 -9782 0
9568 -9647 0
-9568 9782 9647 0
9571 -9572 0
9571 -9573 0
-9571 9572 9573 0
9574 -9782 0
9574 -9647 0
-9574 9782 9647 0
9577 -9578 0
9577 -9579 0
-9577 9578 9579 0
9580 -9661 0
9580 -9647 0
-9580 9661 9647 0
9583 -9584 0
9583 -9585 0
-9583 9584 9585 0
9586 -9664 0
9586 -9647 0
-9586 9664 9647 0
9589 -9590 0
9589 -9591 0
-9589 9590 9591 0
9592 -9667 0
9592 -9647 0
-9592 9667 9647 0
9595 -9596 0
9595 -9597 0
-9595 9596 9597 0
9598 -9670 0
9598 -9647 0
-9598 9670 9647 0
9601 -9602 0
9601 -9603 0
-9601 9602 9603 0
9604 -9673 0
9604 -9647 0
-9604 9673 9647 0
9607 -9608 0
9607 -9609 0
-9607 9608 9609 0
9610 -9611 0
9610 -9647 0
-9610 9611 9647 0
9613 -9614 0
9613 -9615 0
-9613 9614 9615 0
9616 -9626 0
9616 -10140 0
-9616 9626 10140 0
9619 -9620 0
9619 -9621 0
-9619 9620 9621 0
9622 -9632 0
9622 -10140 0
-9622 9632 10140 0
9625 -9626 0
9625 -9627 0
-9625 9626 9627 0
9628 -9629 0
9628 -10140 0
-9628 9629 10140 0
9631 -9632 0
9631 -9633 0
-9631 9632 9633 0
10279 -10122 0
10279 -9658 0
-10279 10122 9658 0
9637 -9647 0
9637 -9654 0
-9637 9647 9654 0
10281 -10125 0
10281 -9658 0
-10281 10125 9658 0
9643 -9656 0
9643 -9654 0
-9643 9656 9654 0
9646 -9647 0
9646 -9648 0
-9646 9647 9648 0
10283 -10128 0
10283 -9658 0
-10283 10128 9658 0
9652 -9653 0
9652 -9654 0
-9652 9653 9654 0
9655 -9656 0
9655 -9657 0
-9655 9656 9657 0
9658 -10120 0
9658 -9660 0
-9658 10120 9660 0
9661 10083 0
9661 9675 0
-9661 -10083 -9675 0
9664 10089 0
9664 9675 0
-9664 -10089 -9675 0
9667 10095 0
9667 9675 0
-9667 -10095 -9675 0
9670 10101 0
9670 9675 0
-9670 -10101 -9675 0
9673 10107 0
9673 9675 0
-9673 -10107 -9675 0
9676 9679 0
9676 9678 0
-9676 -9679 -9678 0
9679 9857 0
9679 9681 0
-9679 -9857 -9681 0
9682 9685 0
9682 9684 0
-9682 -9685 -9684 0
9685 9686 0
9685 9687 0
-9685 -9686 -9687 0
9688 9691 0
9688 9690 0
-9688 -9691 -9690 0
9691 9692 0
9691 9693 0
-9691 -9692 -9693 0
9694 9697 0
9694 9696 0
-9694 -9697 -9696 0
9697 9698 0
9697 9699 0
-9697 -9698 -9699 0
9700 9703 0
9700 9702 0
-9700 -9703 -9702 0
9703 9704 0
9703 9705 0
-9703 -9704 -9705 0
9706 9709 0
9706 9708 0
-9706 -9709 -9708 0
9709 9988 0
9709 9711 0
-9709 -9988 -9711 0
9712 9715 0
9712 9714 0
-9712 -9715 -9714 0
9715 9716 0
9715 9717 0
-9715 -9716 -9717 0
9718 9732 0
9718 9720 0
-9718 -9732 -9720 0
9731 10114 0
9731 9723 0
-9731 -10114 -9723 0
9730 9725 0
9730 9768 0
9730 10114 0
-9730 -9725 -9768 -10114 0
9728 9857 0
9728 9730 0
9728 9731 0
-9728 -9857 -9730 -9731 0
9732 9733 0
9732 9734 0
-9732 -9733 -9734 0
9956 9756 0
9956 9737 0
-9956 -9756 -9737 0
9955 9759 0
9955 9740 0
-9955 -9759 -9740 0
9953 9762 0
9953 9743 0
-9953 -9762 -9743 0
9952 9750 0
9952 9746 0
-9952 -9750 -9746 0
9951 9753 0
9951 9749 0
-9951 -9753 -9749 0
9750 9943 0
9750 9752 0
-9750 -9943 -9752 0
9753 9949 0
9753 9755 0
-9753 -9949 -9755 0
9756 9925 0
9756 9758 0
-9756 -9925 -9758 0
9759 9931 0
9759 9761 0
-9759 -9931 -9761 0
9762 9937 0
9762 9764 0
-9762 -9937 -9764 0
9769 9950 0
9769 9954 0
-9769 -9950 -9954 0
9768 9769 0
9768 9857 0
-9768 -9769 -9857 0
9958 9772 0
9958 9773 0
9958 9774 0
9958 9775 0
-9958 -9772 -9773 -9774 -9775 0
9781 9777 0
9781 9778 0
-9781 -9777 -9778 0
9779 9780 0
9779 9781 0
-9779 -9780 -9781 0
9782 9783 0
9782 9852 0
-9782 -9783 -9852 0
9853 9797 0
9853 9787 0
-9853 -9797 -9787 0
9854 9800 0
9854 9790 0
-9854 -9800 -9790 0
9855 9803 0
9855 9793 0
-9855 -9803 -9793 0
9856 9806 0
9856 9796 0
-9856 -9806 -9796 0
9797 10075 0
9797 10055 0
-9797 -10075 -10055 0
9800 10076 0
9800 10061 0
-9800 -10076 -10061 0
9803 10077 0
9803 10067 0
-9803 -10077 -10067 0
9806 10074 0
9806 10073 0
-9806 -10074 -10073 0
9809 9816 0
9809 9819 0
9809 9822 0
-9809 -9816 -9819 -9822 0
9813 9825 0
9813 9828 0
-9813 -9825 -9828 0
9816 9831 0
9816 9818 0
-9816 -9831 -9818 0
9819 9834 0
9819 9821 0
-9819 -9834 -9821 0
9822 9837 0
9822 9824 0
-9822 -9837 -9824 0
9825 9840 0
9825 9827 0
-9825 -9840 -9827 0
9828 9843 0
9828 9830 0
-9828 -9843 -9830 0
9831 10109 0
9831 10083 0
-9831 -10109 -10083 0
9834 10110 0
9834 10089 0
-9834 -10110 -10089 0
9837 10111 0
9837 10095 0
-9837 -10111 -10095 0
9840 10112 0
9840 10101 0
-9840 -10112 -10101 0
9843 10108 0
9843 10107 0
-9843 -10108 -10107 0
10118 9847 0
10118 9848 0
-10118 -9847 -9848 0
10117 10114 0
10117 9851 0
-10117 -10114 -9851 0
9852 9853 0
9852 9854 0
9852 9855 0
9852 9856 0
-9852 -9853 -9854 -9855 -9856 0
9857 9858 0
9857 9859 0
-9857 -9858 -9859 0
-9860 -9863 0
-9860 -9862 0
9860 9863 9862 0
-9863 -9864 0
-9863 -9865 0
9863 9864 9865 0
-9866 -9869 0
-9866 -9868 0
9866 9869 9868 0
-9869 -9870 0
-9869 -9871 0
9869 9870 9871 0
-9872 -9875 0
-9872 -9874 0
9872 9875 9874 0
-9875 -9876 0
-9875 -9877 0
9875 9876 9877 0
-9878 -9881 0
-9878 -9880 0
9878 9881 9880 0
-9881 -9882 0
-9881 -9883 0
9881 9882 9883 0
-9884 -9887 0
-9884 -9886 0
9884 9887 9886 0
-9887 -9888 0
-9887 -9889 0
9887 9888 9889 0
-9890 -9893 0
-9890 -9892 0
9890 9893 9892 0
-9893 -9894 0
-9893 -9895 0
9893 9894 9895 0
-9896 -9899 0
-9896 -9898 0
9896 9899 9898 0
-9899 -9900 0
-9899 -9901 0
9899 9900 9901 0
-9902 -9905 0
-9902 -9904 0
9902 9905 9904 0
-9905 -9906 0
-9905 -9907 0
9905 9906 9907 0
-9908 -9911 0
-9908 -9910 0
9908 9911 9910 0
-9911 -9912 0
-9911 -9913 0
9911 9912 9913 0
-9914 -9917 0
-9914 -9916 0
9914 9917 9916 0
-9917 -9918 0
-9917 -9919 0
9917 9918 9919 0
-9920 -9923 0
-9920 -9922 0
9920 9923 9922 0
-9923 -9957 0
-9923 -9925 0
9923 9957 9925 0
-9926 -9929 0
-9926 -9928 0
9926 9929 9928 0
-9929 -9930 0
-9929 -9931 0
9929 9930 9931 0
-9932 -9935 0
-9932 -9934 0
9932 9935 9934 0
-9935 -9936 0
-9935 -9937 0
9935 9936 9937 0
-9938 -9941 0
-9938 -9940 0
9938 9941 9940 0
-9941 -9942 0
-9941 -9943 0
9941 9942 9943 0
-9944 -9947 0
-9944 -9946 0
9944 9947 9946 0
-9947 -9948 0
-9947 -9949 0
9947 9948 9949 0
-9950 -9951 0
-9950 -9952 0
-9950 -9953 0
9950 9951 9952 9953 0
-9954 -9955 0
-9954 -9956 0
9954 9955 9956 0
-9957 -9958 0
-9957 -9963 0
9957 9958 9963 0
-9965 -9961 0
-9965 -9962 0
9965 9961 9962 0
-9963 -9964 0
-9963 -9965 0
9963 9964 9965 0
-9966 -9969 0
-9966 -9968 0
9966 9969 9968 0
-9969 -9970 0
-9969 -9971 0
9969 9970 9971 0
-9972 -9975 0
-9972 -9974 0
9972 9975 9974 0
-9975 -9976 0
-9975 -9977 0
9975 9976 9977 0
-9978 -9981 0
-9978 -9980 0
9978 9981 9980 0
-9981 -9982 0
-9981 -9983 0
9981 9982 9983 0
-9984 -9987 0
-9984 -9986 0
9984 9987 9986 0
-9987 -9988 0
-9987 -9989 0
9987 9988 9989 0
-9990 -9993 0
-9990 -9992 0
9990 9993 9992 0
-9993 -9994 0
-9993 -9995 0
9993 9994 9995 0
-9996 -9999 0
-9996 -9998 0
9996 9999 9998 0
-9999 -10000 0
-9999 -10001 0
9999 10000 10001 0
-10002 -10005 0
-10002 -10004 0
10002 10005 10004 0
-10005 -10006 0
-10005 -10007 0
10005 10006 10007 0
-10008 -10011 0
-10008 -10010 0
10008 10011 10010 0
-10011 -10012 0
-10011 -10013 0
10011 10012 10013 0
-10014 -10017 0
-10014 -10016 0
10014 10017 10016 0
-10017 -10018 0
-10017 -10019 0
10017 10018 10019 0
-10020 -10023 0
-10020 -10022 0
10020 10023 10022 0
-10023 -10024 0
-10023 -10025 0
10023 10024 10025 0
-10026 -10029 0
-10026 -10028 0
10026 10029 10028 0
-10029 -10030 0
-10029 -10031 0
10029 10030 10031 0
-10032 -10035 0
-10032 -10034 0
10032 10035 10034 0
-10035 -10036 0
-10035 -10037 0
10035 10036 10037 0
-10038 -10039 0
-10038 -10041 0
10038 10039 10041 0
-10041 -10048 0
-10041 -10043 0
10041 10048 10043 0
-10044 -10045 0
-10044 -10047 0
10044 10045 10047 0
-10047 -10048 0
-10047 -10049 0
10047 10048 10049 0
-10050 -10053 0
-10050 -10052 0
10050 10053 10052 0
-10053 -10054 0
-10053 -10055 0
10053 10054 10055 0
-10056 -10059 0
-10056 -10058 0
10056 10059 10058 0
-10059 -10060 0
-10059 -10061 0
10059 10060 10061 0
-10062 -10065 0
-10062 -10064 0
10062 10065 10064 0
-10065 -10066 0
-10065 -10067 0
10065 10066 10067 0
-10068 -10071 0
-10068 -10070 0
10068 10071 10070 0
-10071 -10072 0
-10071 -10073 0
10071 10072 10073 0
-10074 -10075 0
-10074 -10076 0
-10074 -10077 0
10074 10075 10076 10077 0
-10078 -10081 0
-10078 -10080 0
10078 10081 10080 0
-10081 -10082 0
-10081 -10083 0
10081 10082 10083 0
-10084 -10087 0
-10084 -10086 0
10084 10087 10086 0
-10087 -10088 0
-10087 -10089 0
10087 10088 10089 0
-10090 -10093 0
-10090 -10092 0
10090 10093 10092 0
-10093 -10094 0
-10093 -10095 0
10093 10094 10095 0
-10096 -10099 0
-10096 -10098 0
10096 10099 10098 0
-10099 -10100 0
-10099 -10101 0
10099 10100 10101 0
-10102 -10105 0
-10102 -10104 0
10102 10105 10104 0
-10105 -10106 0
-10105 -10107 0
10105 10106 10107 0
-10108 -10109 0
-10108 -10110 0
-10108 -10111 0
-10108 -10112 0
10108 10109 10110 10111 10112 0
-10113 -10114 0
-10113 -10115 0
10113 10114 10115 0
-10116 -10117 0
-10116 -10118 0
10116 10117 10118 0
-10130 -10120 0
-10130 -10121 0
10130 10120 10121 0
-10122 -10123 0
-10122 -10130 0
10122 10123 10130 0
-10125 -10126 0
-10125 -10130 0
10125 10126 10130 0
-10128 -10129 0
-10128 -10130 0
10128 10129 10130 0
-10131 -10132 0
-10131 -10133 0
-10131 -10134 0
-10131 -10135 0
10131 10132 10133 10134 10135 0
-10136 -10137 0
-10136 -10139 0
10136 10137 10139 0
-10139 -10140 0
-10139 -10141 0
10139 10140 10141 0
-10143 11735 0
10143 -11735 0
-10145 11919 0
10145 -11919 0
-10147 10301 0
10147 -10301 0
-10149 11822 0
10149 -11822 0
-10151 11828 0
10151 -11828 0
-10153 10309 0
10153 -10309 0
-10155 11834 0
10155 -11834 0
-10157 10315 0
10157 -10315 0
-10159 11840 0
10159 -11840 0
-10161 11846 0
10161 -11846 0
-10163 11852 0
10163 -11852 0
-10165 11858 0
10165 -11858 0
-10167 10716 0
10167 -10716 0
-10169 11352 0
10169 -11352 0
-10171 10339 0
10171 -10339 0
-10173 11864 0
10173 -11864 0
-10175 11870 0
10175 -11870 0
-10177 10349 0
10177 -10349 0
-10179 10353 0
10179 -10353 0
-10181 11876 0
10181 -11876 0
-10183 11882 0
10183 -11882 0
-10185 11888 0
10185 -11888 0
-10187 11894 0
10187 -11894 0
-10189 11900 0
10189 -11900 0
-10191 11906 0
10191 -11906 0
-10193 11732 0
10193 -11732 0
-10195 11731 0
10195 -11731 0
-10197 11730 0
10197 -11730 0
-10199 11729 0
10199 -11729 0
-10201 11928 0
10201 -11928 0
-10203 11934 0
10203 -11934 0
-10205 11940 0
10205 -11940 0
-10207 11946 0
10207 -11946 0
-10209 11952 0
10209 -11952 0
-10211 11958 0
10211 -11958 0
-10213 11964 0
10213 -11964 0
-10215 11970 0
10215 -11970 0
-10217 11976 0
10217 -11976 0
-10219 11982 0
10219 -11982 0
-10221 11988 0
10221 -11988 0
-10223 11994 0
10223 -11994 0
-10225 11380 0
10225 -11380 0
-10227 12000 0
10227 -12000 0
-10229 11383 0
10229 -11383 0
-10231 12006 0
10231 -12006 0
-10233 12012 0
10233 -12012 0
-10235 12018 0
10235 -12018 0
-10237 12024 0
10237 -12024 0
-10239 12030 0
10239 -12030 0
-10241 12032 0
10241 -12032 0
-10243 12033 0
10243 -12033 0
-10245 12034 0
10245 -12034 0
-10247 12040 0
10247 -12040 0
-10249 12046 0
10249 -12046 0
-10251 12052 0
10251 -12052 0
-10253 12058 0
10253 -12058 0
-10255 12064 0
10255 -12064 0
-10257 12066 0
10257 -12066 0
-10259 12067 0
10259 -12067 0
-10261 12068 0
10261 -12068 0
-10263 12069 0
10263 -12069 0
-10265 11808 0
10265 -11808 0
-10267 11499 0
10267 -11499 0
-10269 11508 0
10269 -11508 0
-10271 12078 0
10271 -12078 0
-10273 11583 0
10273 -11583 0
-10275 11589 0
10275 -11589 0
-10277 11586 0
10277 -11586 0
-10279 11158 0
10279 -11158 0
-10281 11161 0
10281 -11161 0
-10283 10335 0
10283 -10335 0
-10285 10611 0
10285 -10611 0
-10287 12098 0
10287 -12098 0
-10289 10617 0
10289 -10617 0
10293 11736 0
-10293 -11736 0
12100 10293 0
-12100 -10293 0
10297 11920 0
-10297 -11920 0
12102 10297 0
-12102 -10297 0
10635 11617 0
-10635 -11617 0
11638 10301 0
-11638 -10301 0
10638 11617 0
-10638 -11617 0
10644 11617 0
-10644 -11617 0
10650 11617 0
-10650 -11617 0
11644 10309 0
-11644 -10309 0
10653 11617 0
-10653 -11617 0
10671 11617 0
-10671 -11617 0
11650 10315 0
-11650 -10315 0
10674 11617 0
-10674 -11617 0
10680 11617 0
-10680 -11617 0
10686 11617 0
-10686 -11617 0
10692 11617 0
-10692 -11617 0
10698 11617 0
-10698 -11617 0
10719 11617 0
-10719 -11617 0
10718 11352 0
-10718 -11352 0
11656 10716 0
-11656 -10716 0
11225 11610 0
-11225 -11610 0
11610 10335 0
-11610 -10335 0
10725 11617 0
-10725 -11617 0
11662 10339 0
-11662 -10339 0
10728 11617 0
-10728 -11617 0
10734 11617 0
-10734 -11617 0
10766 11870 0
-10766 -11870 0
10746 11617 0
-10746 -11617 0
11668 10349 0
-11668 -10349 0
10749 11617 0
-10749 -11617 0
11674 10353 0
-11674 -10353 0
10752 11617 0
-10752 -11617 0
10782 10804 0
-10782 -10804 0
10788 10804 0
-10788 -10804 0
10794 10804 0
-10794 -10804 0
10800 10804 0
-10800 -10804 0
10809 10804 0
-10809 -10804 0
11682 11726 0
-11682 -11726 0
10839 11617 0
-10839 -11617 0
11296 11314 0
-11296 -11314 0
10845 11617 0
-10845 -11617 0
11302 11314 0
-11302 -11314 0
10851 11617 0
-10851 -11617 0
11308 11314 0
-11308 -11314 0
10857 11617 0
-10857 -11617 0
11317 11314 0
-11317 -11314 0
11329 11359 0
-11329 -11359 0
11335 11359 0
-11335 -11359 0
11341 11613 0
-11341 -11613 0
11347 11613 0
-11347 -11613 0
11613 11161 0
-11613 -11161 0
11353 11604 0
-11353 -11604 0
11362 11359 0
-11362 -11359 0
10881 11363 0
-10881 -11363 0
10887 11363 0
-10887 -11363 0
10893 11363 0
-10893 -11363 0
10909 11366 0
-10909 -11366 0
10915 11366 0
-10915 -11366 0
10921 11366 0
-10921 -11366 0
10933 11369 0
-10933 -11369 0
10939 11369 0
-10939 -11369 0
10945 11617 0
-10945 -11617 0
10960 11372 0
-10960 -11372 0
10966 11372 0
-10966 -11372 0
10972 11617 0
-10972 -11617 0
10993 11617 0
-10993 -11617 0
10996 11617 0
-10996 -11617 0
11008 11383 0
-11008 -11383 0
11002 11617 0
-11002 -11617 0
11011 12006 0
-11011 -12006 0
11005 11617 0
-11005 -11617 0
11010 11568 0
-11010 -11568 0
11015 11739 0
-11015 -11739 0
11021 11739 0
-11021 -11739 0
11027 11739 0
-11027 -11739 0
11033 11739 0
-11033 -11739 0
11740 11617 0
-11740 -11617 0
11392 11404 0
-11392 -11404 0
11398 11404 0
-11398 -11404 0
11407 11404 0
-11407 -11404 0
11413 11422 0
-11413 -11422 0
11419 11422 0
-11419 -11422 0
11425 11422 0
-11425 -11422 0
11422 11380 0
-11422 -11380 0
11066 11118 0
-11066 -11118 0
11072 11118 0
-11072 -11118 0
11078 11118 0
-11078 -11118 0
11084 11118 0
-11084 -11118 0
11090 11118 0
-11090 -11118 0
11452 11509 0
-11452 -11509 0
11458 11509 0
-11458 -11509 0
11464 11509 0
-11464 -11509 0
11470 11509 0
-11470 -11509 0
11123 11118 0
-11123 -11118 0
11126 12070 0
-11126 -12070 0
11632 12075 0
-11632 -12075 0
11496 11494 0
-11496 -11494 0
11503 11509 0
-11503 -11509 0
11512 11509 0
-11512 -11509 0
11520 12000 0
-11520 -12000 0
12005 11809 0
-12005 -11809 0
11518 11604 0
-11518 -11604 0
11524 11604 0
-11524 -11604 0
11530 11604 0
-11530 -11604 0
11536 11604 0
-11536 -11604 0
11542 11604 0
-11542 -11604 0
11548 11604 0
-11548 -11604 0
11554 11604 0
-11554 -11604 0
11560 11604 0
-11560 -11604 0
11566 11604 0
-11566 -11604 0
11572 11604 0
-11572 -11604 0
11604 11158 0
-11604 -11158 0
11165 11617 0
-11165 -11617 0
12077 11164 0
-12077 -11164 0
10523 10521 0
-10523 -10521 0
11164 10523 0
-11164 -10523 0
11577 12098 0
-11577 -12098 0
11168 11617 0
-11168 -11617 0
11578 12097 0
-11578 -12097 0
11174 11617 0
-11174 -11617 0
11584 12097 0
-11584 -12097 0
11180 11617 0
-11180 -11617 0
11590 12097 0
-11590 -12097 0
10541 10539 0
-10541 -10539 0
12097 10541 0
-12097 -10541 0
11186 11611 0
-11186 -11611 0
11605 11611 0
-11605 -11611 0
11614 11611 0
-11614 -11611 0
10551 10549 0
-10551 -10549 0
11611 10551 0
-11611 -10551 0
10565 10553 0
-10565 -10553 0
10554 10565 0
-10554 -10565 0
11195 11617 0
-11195 -11617 0
11198 11617 0
-11198 -11617 0
11204 11617 0
-11204 -11617 0
11617 10563 0
-11617 -10563 0
11323 10565 0
-11323 -10565 0
10569 10567 0
-10569 -10567 0
11517 10569 0
-11517 -10569 0
10573 10571 0
-10573 -10571 0
11529 10573 0
-11529 -10573 0
10577 10575 0
-10577 -10575 0
11523 10577 0
-11523 -10577 0
10581 10579 0
-10581 -10579 0
11535 10581 0
-11535 -10581 0
10585 10583 0
-10585 -10583 0
11295 10585 0
-11295 -10585 0
10589 10587 0
-10589 -10587 0
11541 10589 0
-11541 -10589 0
10593 10591 0
-10593 -10591 0
11547 10593 0
-11547 -10593 0
10597 10595 0
-10597 -10595 0
11553 10597 0
-11553 -10597 0
10601 10599 0
-10601 -10599 0
11559 10601 0
-11559 -10601 0
10605 10603 0
-10605 -10603 0
11565 10605 0
-11565 -10605 0
10609 10607 0
-10609 -10607 0
11571 10609 0
-11571 -10609 0
10610 10611 0
-10610 -10611 0
10615 10613 0
-10615 -10613 0
11012 10615 0
-11012 -10615 0
10616 10617 0
-10616 -10617 0
-11715 11537 0
-11715 11540 0
11715 -11537 -11540 0
-11718 11543 0
-11718 11546 0
11718 -11543 -11546 0
-11721 11549 0
-11721 11552 0
11721 -11549 -11552 0
-11709 11555 0
-11709 11558 0
11709 -11555 -11558 0
-11712 11561 0
-11712 11564 0
11712 -11561 -11564 0
-12104 11633 0
-12104 10635 0
12104 -11633 -10635 0
-12106 11817 0
-12106 10638 0
12106 -11817 -10638 0
-11819 11821 0
-11819 11822 0
11819 -11821 -11822 0
-12108 11823 0
-12108 10644 0
12108 -11823 -10644 0
-11825 11827 0
-11825 11828 0
11825 -11827 -11828 0
-12110 11639 0
-12110 10650 0
12110 -11639 -10650 0
-12112 11829 0
-12112 10653 0
12112 -11829 -10653 0
-11831 11833 0
-11831 11834 0
11831 -11833 -11834 0
-11821 11814 0
-11821 11638 0
11821 -11814 -11638 0
-11827 11821 0
-11827 11822 0
11827 -11821 -11822 0
-11643 11827 0
-11643 11828 0
11643 -11827 -11828 0
-11833 11643 0
-11833 11644 0
11833 -11643 -11644 0
-12114 11645 0
-12114 10671 0
12114 -11645 -10671 0
-12116 11835 0
-12116 10674 0
12116 -11835 -10674 0
-11837 11839 0
-11837 11840 0
11837 -11839 -11840 0
-12118 11841 0
-12118 10680 0
12118 -11841 -10680 0
-11843 11845 0
-11843 11846 0
11843 -11845 -11846 0
-12120 11847 0
-12120 10686 0
12120 -11847 -10686 0
-11849 11851 0
-11849 11852 0
11849 -11851 -11852 0
-12122 11853 0
-12122 10692 0
12122 -11853 -10692 0
-11855 11857 0
-11855 11858 0
11855 -11857 -11858 0
-12124 11651 0
-12124 10698 0
12124 -11651 -10698 0
-11839 11649 0
-11839 11650 0
11839 -11649 -11650 0
-11845 11839 0
-11845 11840 0
11845 -11839 -11840 0
-11851 11845 0
-11851 11846 0
11851 -11845 -11846 0
-11857 11851 0
-11857 11852 0
11857 -11851 -11852 0
-11655 11857 0
-11655 11858 0
11655 -11857 -11858 0
-11231 11655 0
-11231 10716 0
11231 -11655 -10716 0
-12126 10718 0
-12126 10719 0
12126 -10718 -10719 0
-11334 11220 0
-11334 11223 0
11334 -11220 -11223 0
-12128 11657 0
-12128 10725 0
12128 -11657 -10725 0
-12130 11859 0
-12130 10728 0
12130 -11859 -10728 0
-11861 11863 0
-11861 11864 0
11861 -11863 -11864 0
-12132 11865 0
-12132 10734 0
12132 -11865 -10734 0
-11867 11869 0
-11867 11870 0
11867 -11869 -11870 0
-11863 11661 0
-11863 11662 0
11863 -11661 -11662 0
-11869 11863 0
-11869 11864 0
11869 -11863 -11864 0
-12134 11663 0
-12134 10746 0
12134 -11663 -10746 0
-12136 11669 0
-12136 10749 0
12136 -11669 -10749 0
-12138 11871 0
-12138 10752 0
12138 -11871 -10752 0
-11873 11875 0
-11873 11876 0
11873 -11875 -11876 0
-11673 11945 0
-11673 11668 0
11673 -11945 -11668 0
-11875 11673 0
-11875 11674 0
11875 -11673 -11674 0
-11325 11869 0
-11325 11870 0
11325 -11869 -11870 0
-11358 10766 0
-11358 11869 0
11358 -10766 -11869 0
-11219 11833 0
-11219 11834 0
11219 -11833 -11834 0
-11228 11655 0
-11228 11656 0
11228 -11655 -11656 0
-11440 11875 0
-11440 11876 0
11440 -11875 -11876 0
-11337 11993 0
-11337 11994 0
11337 -11993 -11994 0
-12140 11877 0
-12140 10782 0
12140 -11877 -10782 0
-11879 11914 0
-11879 11882 0
11879 -11914 -11882 0
-12142 11883 0
-12142 10788 0
12142 -11883 -10788 0
-11885 11887 0
-11885 11888 0
11885 -11887 -11888 0
-12144 11889 0
-12144 10794 0
12144 -11889 -10794 0
-11891 11893 0
-11891 11894 0
11891 -11893 -11894 0
-12146 11895 0
-12146 10800 0
12146 -11895 -10800 0
-11897 11899 0
-11897 11900 0
11897 -11899 -11900 0
-10804 11525 0
-10804 11528 0
10804 -11525 -11528 0
-12148 11901 0
-12148 10809 0
12148 -11901 -10809 0
-11903 11905 0
-11903 11906 0
11903 -11905 -11906 0
-11887 11914 0
-11887 11882 0
11887 -11914 -11882 0
-11893 11887 0
-11893 11888 0
11893 -11887 -11888 0
-11899 11893 0
-11899 11894 0
11899 -11893 -11894 0
-11905 11899 0
-11905 11900 0
11905 -11899 -11900 0
-11252 11244 0
-11252 11913 0
11252 -11244 -11913 0
-11258 11247 0
-11258 11250 0
11258 -11247 -11250 0
-11264 11253 0
-11264 11256 0
11264 -11253 -11256 0
-11270 11259 0
-11270 11262 0
11270 -11259 -11262 0
-12150 10840 0
-12150 10839 0
12150 -10840 -10839 0
-10840 11291 0
-10840 11294 0
10840 -11291 -11294 0
-12152 10846 0
-12152 10845 0
12152 -10846 -10845 0
-10846 11297 0
-10846 11300 0
10846 -11297 -11300 0
-12154 10852 0
-12154 10851 0
12154 -10852 -10851 0
-10852 11303 0
-10852 11306 0
10852 -11303 -11306 0
-12156 10858 0
-12156 10857 0
12156 -10858 -10857 0
-10858 11312 0
-10858 11315 0
10858 -11312 -11315 0
-11921 11738 0
-11921 11323 0
11921 -11738 -11323 0
-11918 11736 0
-11918 11323 0
11918 -11736 -11323 0
-11963 11324 0
-11963 11327 0
11963 -11324 -11327 0
-11376 11336 0
-11376 11339 0
11376 -11336 -11339 0
-11349 11342 0
-11349 11345 0
11349 -11342 -11345 0
-11981 11927 0
-11981 11940 0
11981 -11927 -11940 0
-12158 11923 0
-12158 10881 0
12158 -11923 -10881 0
-11925 11927 0
-11925 11928 0
11925 -11927 -11928 0
-12160 11929 0
-12160 10887 0
12160 -11929 -10887 0
-11931 11933 0
-11931 11934 0
11931 -11933 -11934 0
-12162 11935 0
-12162 10893 0
12162 -11935 -10893 0
-11937 11939 0
-11937 11940 0
11937 -11939 -11940 0
-11933 11927 0
-11933 11928 0
11933 -11927 -11928 0
-11939 11933 0
-11939 11934 0
11939 -11933 -11934 0
-11368 11945 0
-11368 11946 0
-11368 11958 0
11368 -11945 -11946 -11958 0
-12164 11941 0
-12164 10909 0
12164 -11941 -10909 0
-11943 11945 0
-11943 11946 0
11943 -11945 -11946 0
-12166 11947 0
-12166 10915 0
12166 -11947 -10915 0
-11949 11951 0
-11949 11952 0
11949 -11951 -11952 0
-12168 11953 0
-12168 10921 0
12168 -11953 -10921 0
-11955 11957 0
-11955 11958 0
11955 -11957 -11958 0
-11951 11945 0
-11951 11946 0
11951 -11945 -11946 0
-11957 11951 0
-11957 11952 0
11957 -11951 -11952 0
-12170 11959 0
-12170 10933 0
12170 -11959 -10933 0
-11961 11963 0
-11961 11964 0
11961 -11963 -11964 0
-12172 11965 0
-12172 10939 0
12172 -11965 -10939 0
-11967 11969 0
-11967 11970 0
11967 -11969 -11970 0
-12174 11971 0
-12174 10945 0
12174 -11971 -10945 0
-11973 11975 0
-11973 11976 0
11973 -11975 -11976 0
-11969 11963 0
-11969 11964 0
11969 -11963 -11964 0
-11975 11963 0
-11975 11970 0
11975 -11963 -11970 0
-11443 11975 0
-11443 11976 0
11443 -11975 -11976 0
-12176 11977 0
-12176 10960 0
12176 -11977 -10960 0
-11979 11981 0
-11979 11982 0
11979 -11981 -11982 0
-12178 11983 0
-12178 10966 0
12178 -11983 -10966 0
-11985 11987 0
-11985 11988 0
11985 -11987 -11988 0
-12180 11989 0
-12180 10972 0
12180 -11989 -10972 0
-11991 11993 0
-11991 11994 0
11991 -11993 -11994 0
-11987 11981 0
-11987 11982 0
11987 -11981 -11982 0
-11993 11981 0
-11993 11988 0
11993 -11981 -11988 0
-11131 11357 0
-11131 11360 0
11131 -11357 -11360 0
-12071 11330 0
-12071 11333 0
12071 -11330 -11333 0
-11691 11348 0
-11691 11351 0
11691 -11348 -11351 0
-12182 11378 0
-12182 10993 0
12182 -11378 -10993 0
-12184 11995 0
-12184 10996 0
12184 -11995 -10996 0
-11996 12005 0
-11996 11422 0
11996 -12005 -11422 0
-12186 11381 0
-12186 11002 0
12186 -11381 -11002 0
-12188 12001 0
-12188 11005 0
12188 -12001 -11005 0
-12002 12005 0
-12002 11008 0
12002 -12005 -11008 0
-11514 11010 0
-11514 11011 0
-11514 11012 0
11514 -11010 -11011 -11012 0
-12190 12007 0
-12190 11015 0
12190 -12007 -11015 0
-12009 12011 0
-12009 12012 0
12009 -12011 -12012 0
-12192 12013 0
-12192 11021 0
12192 -12013 -11021 0
-12015 12017 0
-12015 12018 0
12015 -12017 -12018 0
-12194 12019 0
-12194 11027 0
12194 -12019 -11027 0
-12021 12023 0
-12021 12024 0
12021 -12023 -12024 0
-12196 12025 0
-12196 11033 0
12196 -12025 -11033 0
-12027 12029 0
-12027 12030 0
12027 -12029 -12030 0
-12017 12011 0
-12017 12012 0
12017 -12011 -12012 0
-12023 12017 0
-12023 12018 0
12023 -12017 -12018 0
-12029 12023 0
-12029 12024 0
12029 -12023 -12024 0
-11391 11408 0
-11391 11411 0
11391 -11408 -11411 0
-11397 11414 0
-11397 11417 0
11397 -11414 -11417 0
-11406 11420 0
-11406 11423 0
11406 -11420 -11423 0
-12198 11387 0
-12198 11390 0
12198 -11387 -11390 0
-12200 11393 0
-12200 11396 0
12200 -11393 -11396 0
-12202 11402 0
-12202 11405 0
12202 -11402 -11405 0
-12204 12035 0
-12204 11066 0
12204 -12035 -11066 0
-12037 12039 0
-12037 12040 0
12037 -12039 -12040 0
-12206 12041 0
-12206 11072 0
12206 -12041 -11072 0
-12043 12045 0
-12043 12046 0
12043 -12045 -12046 0
-12208 12047 0
-12208 11078 0
12208 -12047 -11078 0
-12049 12051 0
-12049 12052 0
12049 -12051 -12052 0
-12210 12053 0
-12210 11084 0
12210 -12053 -11084 0
-12055 12057 0
-12055 12058 0
12055 -12057 -12058 0
-12212 12059 0
-12212 11090 0
12212 -12059 -11090 0
-12061 12063 0
-12061 12064 0
12061 -12063 -12064 0
-12045 12039 0
-12045 12040 0
12045 -12039 -12040 0
-12051 12045 0
-12051 12046 0
12051 -12045 -12046 0
-12057 12051 0
-12057 12052 0
12057 -12051 -12052 0
-12063 12057 0
-12063 12058 0
12063 -12057 -12058 0
-12214 11447 0
-12214 11450 0
12214 -11447 -11450 0
-12216 11453 0
-12216 11456 0
12216 -11453 -11456 0
-12218 11459 0
-12218 11462 0
12218 -11459 -11462 0
-12220 11465 0
-12220 11468 0
12220 -11465 -11468 0
-11118 11531 0
-11118 11534 0
11118 -11531 -11534 0
-12222 11486 0
-12222 11123 0
12222 -11486 -11123 0
-11487 11489 0
-11487 11126 0
11487 -11489 -11126 0
-11494 11519 0
-11494 11522 0
11494 -11519 -11522 0
-12039 11131 0
-12039 12072 0
12039 -11131 -12072 0
-12224 11498 0
-12224 11501 0
12224 -11498 -11501 0
-12226 11507 0
-12226 11510 0
12226 -11507 -11510 0
-11680 11567 0
-11680 11570 0
11680 -11567 -11570 0
-11690 11513 0
-11690 11516 0
11690 -11513 -11516 0
-12089 11219 0
-12089 11577 0
12089 -11219 -11577 0
-12090 11228 0
-12090 11583 0
12090 -11228 -11583 0
-12091 11440 0
-12091 11589 0
12091 -11440 -11589 0
-12092 11337 0
-12092 11586 0
12092 -11337 -11586 0
-11400 11158 0
-11400 11739 0
11400 -11158 -11739 0
-11505 11161 0
-11505 11739 0
11505 -11161 -11739 0
-12228 11164 0
-12228 11165 0
12228 -11164 -11165 0
-12230 11169 0
-12230 11168 0
12230 -11169 -11168 0
-11169 11573 0
-11169 11576 0
11169 -11573 -11576 0
-12232 11175 0
-12232 11174 0
12232 -11175 -11174 0
-11175 11579 0
-11175 11582 0
11175 -11579 -11582 0
-12234 11181 0
-12234 11180 0
12234 -11181 -11180 0
-11181 11585 0
-11181 11588 0
11181 -11585 -11588 0
-12080 11594 0
-12080 11186 0
12080 -11594 -11186 0
-12083 11600 0
-12083 11603 0
12083 -11600 -11603 0
-12086 11609 0
-12086 11612 0
12086 -11609 -11612 0
-12242 11675 0
-12242 11195 0
12242 -11675 -11195 0
-12244 12093 0
-12244 11198 0
12244 -12093 -11198 0
-12094 12097 0
-12094 11586 0
12094 -12097 -11586 0
-12246 12073 0
-12246 11204 0
12246 -12073 -11204 0
11635 -11814 0
11635 -11638 0
-11635 11814 11638 0
11641 -11643 0
11641 -11644 0
-11641 11643 11644 0
11647 -11649 0
11647 -11650 0
-11647 11649 11650 0
11653 -11655 0
11653 -11656 0
-11653 11655 11656 0
11649 -11610 0
11649 -11219 0
-11649 11610 11219 0
11220 -11656 0
11220 -11610 0
-11220 11656 11610 0
11223 -11352 0
11223 -11225 0
-11223 11352 11225 0
11945 -11610 0
11945 -11228 0
-11945 11610 11228 0
11361 -11610 0
11361 -11231 0
-11361 11610 11231 0
11659 -11661 0
11659 -11662 0
-11659 11661 11662 0
11665 -11945 0
11665 -11668 0
-11665 11945 11668 0
11671 -11673 0
11671 -11674 0
-11671 11673 11674 0
11677 -11690 0
11677 -11685 0
-11677 11690 11685 0
11244 -11715 0
11244 -11882 0
-11244 11715 11882 0
11247 -11718 0
11247 -11888 0
-11247 11718 11888 0
11250 -11912 0
11250 -11252 0
-11250 11912 11252 0
11253 -11721 0
11253 -11894 0
-11253 11721 11894 0
11256 -11910 0
11256 -11258 0
-11256 11910 11258 0
11259 -11709 0
11259 -11900 0
-11259 11709 11900 0
11262 -11909 0
11262 -11264 0
-11262 11909 11264 0
11815 -11712 0
11815 -11906 0
-11815 11712 11906 0
11816 -11908 0
11816 -11270 0
-11816 11908 11270 0
11694 -11882 0
11694 -11715 0
-11694 11882 11715 0
11697 -11888 0
11697 -11718 0
-11697 11888 11718 0
11700 -11894 0
11700 -11721 0
-11700 11894 11721 0
11703 -11900 0
11703 -11709 0
-11703 11900 11709 0
11706 -11906 0
11706 -11712 0
-11706 11906 11712 0
11319 -11729 0
11319 -11730 0
11319 -11731 0
11319 -11732 0
-11319 11729 11730 11731 11732 0
11291 -11732 0
11291 -11314 0
-11291 11732 11314 0
11294 -11295 0
11294 -11296 0
-11294 11295 11296 0
11297 -11731 0
11297 -11314 0
-11297 11731 11314 0
11300 -11732 0
11300 -11302 0
-11300 11732 11302 0
11303 -11730 0
11303 -11314 0
-11303 11730 11314 0
11306 -11731 0
11306 -11308 0
-11306 11731 11308 0
11314 -11368 0
11314 -11613 0
-11314 11368 11613 0
11312 -11729 0
11312 -11314 0
-11312 11729 11314 0
11315 -11730 0
11315 -11317 0
-11315 11730 11317 0
11734 -11319 0
11734 -11323 0
-11734 11319 11323 0
11737 -11915 0
11737 -11323 0
-11737 11915 11323 0
11324 -11325 0
11324 -11359 0
-11324 11325 11359 0
11327 -11945 0
11327 -11329 0
-11327 11945 11329 0
11330 -11870 0
11330 -11359 0
-11330 11870 11359 0
11333 -11334 0
11333 -11335 0
-11333 11334 11335 0
11336 -11337 0
11336 -11613 0
-11336 11337 11613 0
11339 -11443 0
11339 -11341 0
-11339 11443 11341 0
11342 -11994 0
11342 -11613 0
-11342 11994 11613 0
11345 -11976 0
11345 -11347 0
-11345 11976 11347 0
11348 -11349 0
11348 -11604 0
-11348 11349 11604 0
11351 -11352 0
11351 -11353 0
-11351 11352 11353 0
11359 -11514 0
11359 -11604 0
-11359 11514 11604 0
11357 -11358 0
11357 -11359 0
-11357 11358 11359 0
11360 -11361 0
11360 -11362 0
-11360 11361 11362 0
11363 -11617 0
11363 -11981 0
-11363 11617 11981 0
11366 -11617 0
11366 -11368 0
-11366 11617 11368 0
11369 -11617 0
11369 -11975 0
-11369 11617 11975 0
11372 -11617 0
11372 -11993 0
-11372 11617 11993 0
12011 -11376 0
12011 -11604 0
-12011 11376 11604 0
11378 -12071 0
11378 -11380 0
-11378 12071 11380 0
11381 -12005 0
11381 -11383 0
-11381 12005 11383 0
11568 -11808 0
11568 -12072 0
-11568 11808 12072 0
11387 -12032 0
11387 -11404 0
-11387 12032 11404 0
11390 -11391 0
11390 -11392 0
-11390 11391 11392 0
11393 -12033 0
11393 -11404 0
-11393 12033 11404 0
11396 -11397 0
11396 -11398 0
-11396 11397 11398 0
11404 -11400 0
11404 -11617 0
-11404 11400 11617 0
11402 -12034 0
11402 -11404 0
-11402 12034 11404 0
11405 -11406 0
11405 -11407 0
-11405 11406 11407 0
11408 -11559 0
11408 -11422 0
-11408 11559 11422 0
11411 -11541 0
11411 -11413 0
-11411 11541 11413 0
11414 -11565 0
11414 -11422 0
-11414 11565 11422 0
11417 -11547 0
11417 -11419 0
-11417 11547 11419 0
11420 -11571 0
11420 -11422 0
-11420 11571 11422 0
11423 -11553 0
11423 -11425 0
-11423 11553 11425 0
11744 -12032 0
11744 -12012 0
-11744 12032 12012 0
11747 -12033 0
11747 -12018 0
-11747 12033 12018 0
11750 -12034 0
11750 -12024 0
-11750 12034 12024 0
11753 -12031 0
11753 -12030 0
-11753 12031 12030 0
11661 -11613 0
11661 -11440 0
-11661 11613 11440 0
11927 -11613 0
11927 -11443 0
-11927 11613 11443 0
12072 -11766 0
12072 -11770 0
-12072 11766 11770 0
11447 -12066 0
11447 -11509 0
-11447 12066 11509 0
11450 -11517 0
11450 -11452 0
-11450 11517 11452 0
11453 -12067 0
11453 -11509 0
-11453 12067 11509 0
11456 -11529 0
11456 -11458 0
-11456 11529 11458 0
11459 -12068 0
11459 -11509 0
-11459 12068 11509 0
11462 -11523 0
11462 -11464 0
-11462 11523 11464 0
11465 -12069 0
11465 -11509 0
-11465 12069 11509 0
11468 -11535 0
11468 -11470 0
-11468 11535 11470 0
11775 -12066 0
11775 -12040 0
-11775 12066 12040 0
11778 -12067 0
11778 -12046 0
-11778 12067 12046 0
11781 -12068 0
11781 -12052 0
-11781 12068 12052 0
11784 -12069 0
11784 -12058 0
-11784 12069 12058 0
11787 -12065 0
11787 -12064 0
-11787 12065 12064 0
11486 -11487 0
11486 -12039 0
-11486 11487 12039 0
11489 -11808 0
11489 -12070 0
-11489 11808 12070 0
11804 -11508 0
11804 -11494 0
-11804 11508 11494 0
11805 -11496 0
11805 -11499 0
-11805 11496 11499 0
11498 -11499 0
11498 -11509 0
-11498 11499 11509 0
11501 -11611 0
11501 -11503 0
-11501 11611 11503 0
11509 -11505 0
11509 -11617 0
-11509 11505 11617 0
11507 -11508 0
11507 -11509 0
-11507 11508 11509 0
11510 -12097 0
11510 -11512 0
-11510 12097 11512 0
11513 -11514 0
11513 -11604 0
-11513 11514 11604 0
11516 -11517 0
11516 -11518 0
-11516 11517 11518 0
11519 -11520 0
11519 -11604 0
-11519 11520 11604 0
11522 -11523 0
11522 -11524 0
-11522 11523 11524 0
11525 -11739 0
11525 -11604 0
-11525 11739 11604 0
11528 -11529 0
11528 -11530 0
-11528 11529 11530 0
11531 -11739 0
11531 -11604 0
-11531 11739 11604 0
11534 -11535 0
11534 -11536 0
-11534 11535 11536 0
11537 -11618 0
11537 -11604 0
-11537 11618 11604 0
11540 -11541 0
11540 -11542 0
-11540 11541 11542 0
11543 -11621 0
11543 -11604 0
-11543 11621 11604 0
11546 -11547 0
11546 -11548 0
-11546 11547 11548 0
11549 -11624 0
11549 -11604 0
-11549 11624 11604 0
11552 -11553 0
11552 -11554 0
-11552 11553 11554 0
11555 -11627 0
11555 -11604 0
-11555 11627 11604 0
11558 -11559 0
11558 -11560 0
-11558 11559 11560 0
11561 -11630 0
11561 -11604 0
-11561 11630 11604 0
11564 -11565 0
11564 -11566 0
-11564 11565 11566 0
11567 -11568 0
11567 -11604 0
-11567 11568 11604 0
11570 -11571 0
11570 -11572 0
-11570 11571 11572 0
11573 -11583 0
11573 -12097 0
-11573 11583 12097 0
11576 -11577 0
11576 -11578 0
-11576 11577 11578 0
11579 -11589 0
11579 -12097 0
-11579 11589 12097 0
11582 -11583 0
11582 -11584 0
-11582 11583 11584 0
11585 -11586 0
11585 -12097 0
-11585 11586 12097 0
11588 -11589 0
11588 -11590 0
-11588 11589 11590 0
12236 -12079 0
12236 -11615 0
-12236 12079 11615 0
11594 -11604 0
11594 -11611 0
-11594 11604 11611 0
12238 -12082 0
12238 -11615 0
-12238 12082 11615 0
11600 -11613 0
11600 -11611 0
-11600 11613 11611 0
11603 -11604 0
11603 -11605 0
-11603 11604 11605 0
12240 -12085 0
12240 -11615 0
-12240 12085 11615 0
11609 -11610 0
11609 -11611 0
-11609 11610 11611 0
11612 -11613 0
11612 -11614 0
-11612 11613 11614 0
11615 -12077 0
11615 -11617 0
-11615 12077 11617 0
11618 12040 0
11618 11632 0
-11618 -12040 -11632 0
11621 12046 0
11621 11632 0
-11621 -12046 -11632 0
11624 12052 0
11624 11632 0
-11624 -12052 -11632 0
11627 12058 0
11627 11632 0
-11627 -12058 -11632 0
11630 12064 0
11630 11632 0
-11630 -12064 -11632 0
11633 11636 0
11633 11635 0
-11633 -11636 -11635 0
11636 11814 0
11636 11638 0
-11636 -11814 -11638 0
11639 11642 0
11639 11641 0
-11639 -11642 -11641 0
11642 11643 0
11642 11644 0
-11642 -11643 -11644 0
11645 11648 0
11645 11647 0
-11645 -11648 -11647 0
11648 11649 0
11648 11650 0
-11648 -11649 -11650 0
11651 11654 0
11651 11653 0
-11651 -11654 -11653 0
11654 11655 0
11654 11656 0
-11654 -11655 -11656 0
11657 11660 0
11657 11659 0
-11657 -11660 -11659 0
11660 11661 0
11660 11662 0
-11660 -11661 -11662 0
11663 11666 0
11663 11665 0
-11663 -11666 -11665 0
11666 11945 0
11666 11668 0
-11666 -11945 -11668 0
11669 11672 0
11669 11671 0
-11669 -11672 -11671 0
11672 11673 0
11672 11674 0
-11672 -11673 -11674 0
11675 11689 0
11675 11677 0
-11675 -11689 -11677 0
11688 12071 0
11688 11680 0
-11688 -12071 -11680 0
11687 11682 0
11687 11725 0
11687 12071 0
-11687 -11682 -11725 -12071 0
11685 11814 0
11685 11687 0
11685 11688 0
-11685 -11814 -11687 -11688 0
11689 11690 0
11689 11691 0
-11689 -11690 -11691 0
11913 11713 0
11913 11694 0
-11913 -11713 -11694 0
11912 11716 0
11912 11697 0
-11912 -11716 -11697 0
11910 11719 0
11910 11700 0
-11910 -11719 -11700 0
11909 11707 0
11909 11703 0
-11909 -11707 -11703 0
11908 11710 0
11908 11706 0
-11908 -11710 -11706 0
11707 11900 0
11707 11709 0
-11707 -11900 -11709 0
11710 11906 0
11710 11712 0
-11710 -11906 -11712 0
11713 11882 0
11713 11715 0
-11713 -11882 -11715 0
11716 11888 0
11716 11718 0
-11716 -11888 -11718 0
11719 11894 0
11719 11721 0
-11719 -11894 -11721 0
11726 11907 0
11726 11911 0
-11726 -11907 -11911 0
11725 11726 0
11725 11814 0
-11725 -11726 -11814 0
11915 11729 0
11915 11730 0
11915 11731 0
11915 11732 0
-11915 -11729 -11730 -11731 -11732 0
11738 11734 0
11738 11735 0
-11738 -11734 -11735 0
11736 11737 0
11736 11738 0
-11736 -11737 -11738 0
11739 11740 0
11739 11809 0
-11739 -11740 -11809 0
11810 11754 0
11810 11744 0
-11810 -11754 -11744 0
11811 11757 0
11811 11747 0
-11811 -11757 -11747 0
11812 11760 0
11812 11750 0
-11812 -11760 -11750 0
11813 11763 0
11813 11753 0
-11813 -11763 -11753 0
11754 12032 0
11754 12012 0
-11754 -12032 -12012 0
11757 12033 0
11757 12018 0
-11757 -12033 -12018 0
11760 12034 0
11760 12024 0
-11760 -12034 -12024 0
11763 12031 0
11763 12030 0
-11763 -12031 -12030 0
11766 11773 0
11766 11776 0
11766 11779 0
-11766 -11773 -11776 -11779 0
11770 11782 0
11770 11785 0
-11770 -11782 -11785 0
11773 11788 0
11773 11775 0
-11773 -11788 -11775 0
11776 11791 0
11776 11778 0
-11776 -11791 -11778 0
11779 11794 0
11779 11781 0
-11779 -11794 -11781 0
11782 11797 0
11782 11784 0
-11782 -11797 -11784 0
11785 11800 0
11785 11787 0
-11785 -11800 -11787 0
11788 12066 0
11788 12040 0
-11788 -12066 -12040 0
11791 12067 0
11791 12046 0
-11791 -12067 -12046 0
11794 12068 0
11794 12052 0
-11794 -12068 -12052 0
11797 12069 0
11797 12058 0
-11797 -12069 -12058 0
11800 12065 0
11800 12064 0
-11800 -12065 -12064 0
12075 11804 0
12075 11805 0
-12075 -11804 -11805 0
12074 12071 0
12074 11808 0
-12074 -12071 -11808 0
11809 11810 0
11809 11811 0
11809 11812 0
11809 11813 0
-11809 -11810 -11811 -11812 -11813 0
11814 11815 0
11814 11816 0
-11814 -11815 -11816 0
-11817 -11820 0
-11817 -11819 0
11817 11820 11819 0
-11820 -11821 0
-11820 -11822 0
11820 11821 11822 0
-11823 -11826 0
-11823 -11825 0
11823 11826 11825 0
-11826 -11827 0
-11826 -11828 0
11826 11827 11828 0
-11829 -11832 0
-11829 -11831 0
11829 11832 11831 0
-11832 -11833 0
-11832 -11834 0
11832 11833 11834 0
-11835 -11838 0
-11835 -11837 0
11835 11838 11837 0
-11838 -11839 0
-11838 -11840 0
11838 11839 11840 0
-11841 -11844 0
-11841 -11843 0
11841 11844 11843 0
-11844 -11845 0
-11844 -11846 0
11844 11845 11846 0
-11847 -11850 0
-11847 -11849 0
11847 11850 11849 0
-11850 -11851 0
-11850 -11852 0
11850 11851 11852 0
-11853 -11856 0
-11853 -11855 0
11853 11856 11855 0
-11856 -11857 0
-11856 -11858 0
11856 11857 11858 0
-11859 -11862 0
-11859 -11861 0
11859 11862 11861 0
-11862 -11863 0
-11862 -11864 0
11862 11863 11864 0
-11865 -11868 0
-11865 -11867 0
11865 11868 11867 0
-11868 -11869 0
-11868 -11870 0
11868 11869 11870 0
-11871 -11874 0
-11871 -11873 0
11871 11874 11873 0
-11874 -11875 0
-11874 -11876 0
11874 11875 11876 0
-11877 -11880 0
-11877 -11879 0
11877 11880 11879 0
-11880 -11914 0
-11880 -11882 0
11880 11914 11882 0
-11883 -11886 0
-11883 -11885 0
11883 11886 11885 0
-11886 -11887 0
-11886 -11888 0
11886 11887 11888 0
-11889 -11892 0
-11889 -11891 0
11889 11892 11891 0
-11892 -11893 0
-11892 -11894 0
11892 11893 11894 0
-11895 -11898 0
-11895 -11897 0
11895 11898 11897 0
-11898 -11899 0
-11898 -11900 0
11898 11899 11900 0
-11901 -11904 0
-11901 -11903 0
11901 11904 11903 0
-11904 -11905 0
-11904 -11906 0
11904 11905 11906 0
-11907 -11908 0
-11907 -11909 0
-11907 -11910 0
11907 11908 11909 11910 0
-11911 -11912 0
-11911 -11913 0
11911 11912 11913 0
-11914 -11915 0
-11914 -11920 0
11914 11915 11920 0
-11922 -11918 0
-11922 -11919 0
11922 11918 11919 0
-11920 -11921 0
-11920 -11922 0
11920 11921 11922 0
-11923 -11926 0
-11923 -11925 0
11923 11926 11925 0
-11926 -11927 0
-11926 -11928 0
11926 11927 11928 0
-11929 -11932 0
-11929 -11931 0
11929 11932 11931 0
-11932 -11933 0
-11932 -11934 0
11932 11933 11934 0
-11935 -11938 0
-11935 -11937 0
11935 11938 11937 0
-11938 -11939 0
-11938 -11940 0
11938 11939 11940 0
-11941 -11944 0
-11941 -11943 0
11941 11944 11943 0
-11944 -11945 0
-11944 -11946 0
11944 11945 11946 0
-11947 -11950 0
-11947 -11949 0
11947 11950 11949 0
-11950 -11951 0
-11950 -11952 0
11950 11951 11952 0
-11953 -11956 0
-11953 -11955 0
11953 11956 11955 0
-11956 -11957 0
-11956 -11958 0
11956 11957 11958 0
-11959 -11962 0
-11959 -11961 0
11959 11962 11961 0
-11962 -11963 0
-11962 -11964 0
11962 11963 11964 0
-11965 -11968 0
-11965 -11967 0
11965 11968 11967 0
-11968 -11969 0
-11968 -11970 0
11968 11969 11970 0
-11971 -11974 0
-11971 -11973 0
11971 11974 11973 0
-11974 -11975 0
-11974 -11976 0
11974 11975 11976 0
-11977 -11980 0
-11977 -11979 0
11977 11980 11979 0
-11980 -11981 0
-11980 -11982 0
11980 11981 11982 0
-11983 -11986 0
-11983 -11985 0
11983 11986 11985 0
-11986 -11987 0
-11986 -11988 0
11986 11987 11988 0
-11989 -11992 0
-11989 -11991 0
11989 11992 11991 0
-11992 -11993 0
-11992 -11994 0
11992 11993 11994 0
-11995 -11996 0
-11995 -11998 0
11995 11996 11998 0
-11998 -12005 0
-11998 -12000 0
11998 12005 12000 0
-12001 -12002 0
-12001 -12004 0
12001 12002 12004 0
-12004 -12005 0
-12004 -12006 0
12004 12005 12006 0
-12007 -12010 0
-12007 -12009 0
12007 12010 12009 0
-12010 -12011 0
-12010 -12012 0
12010 12011 12012 0
-12013 -12016 0
-12013 -12015 0
12013 12016 12015 0
-12016 -12017 0
-12016 -12018 0
12016 12017 12018 0
-12019 -12022 0
-12019 -12021 0
12019 12022 12021 0
-12022 -12023 0
-12022 -12024 0
12022 12023 12024 0
-12025 -12028 0
-12025 -12027 0
12025 12028 12027 0
-12028 -12029 0
-12028 -12030 0
12028 12029 12030 0
-12031 -12032 0
-12031 -12033 0
-12031 -12034 0
12031 12032 12033 12034 0
-12035 -12038 0
-12035 -12037 0
12035 12038 12037 0
-12038 -12039 0
-12038 -12040 0
12038 12039 12040 0
-12041 -12044 0
-12041 -12043 0
12041 12044 12043 0
-12044 -12045 0
-12044 -12046 0
12044 12045 12046 0
-12047 -12050 0
-12047 -12049 0
12047 12050 12049 0
-12050 -12051 0
-12050 -12052 0
12050 12051 12052 0
-12053 -12056 0
-12053 -12055 0
12053 12056 12055 0
-12056 -12057 0
-12056 -12058 0
12056 12057 12058 0
-12059 -12062 0
-12059 -12061 0
12059 12062 12061 0
-12062 -12063 0
-12062 -12064 0
12062 12063 12064 0
-12065 -12066 0
-12065 -12067 0
-12065 -12068 0
-12065 -12069 0
12065 12066 12067 12068 12069 0
-12070 -12071 0
-12070 -12072 0
12070 12071 12072 0
-12073 -12074 0
-12073 -12075 0
12073 12074 12075 0
-12087 -12077 0
-12087 -12078 0
12087 12077 12078 0
-12079 -12080 0
-12079 -12087 0
12079 12080 12087 0
-12082 -12083 0
-12082 -12087 0
12082 12083 12087 0
-12085 -12086 0
-12085 -12087 0
12085 12086 12087 0
-12088 -12089 0
-12088 -12090 0
-12088 -12091 0
-12088 -12092 0
12088 12089 12090 12091 12092 0
-12093 -12094 0
-12093 -12096 0
12093 12094 12096 0
-12096 -12097 0
-12096 -12098 0
12096 12097 12098 0
-12100 13692 0
12100 -13692 0
-12102 13876 0
12102 -13876 0
-12104 12258 0
12104 -12258 0
-12106 13779 0
12106 -13779 0
-12108 13785 0
12108 -13785 0
-12110 12266 0
12110 -12266 0
-12112 13791 0
12112 -13791 0
-12114 12272 0
12114 -12272 0
-12116 13797 0
12116 -13797 0
-12118 13803 0
12118 -13803 0
-12120 13809 0
12120 -13809 0
-12122 13815 0
12122 -13815 0
-12124 12673 0
12124 -12673 0
-12126 13309 0
12126 -13309 0
-12128 12296 0
12128 -12296 0
-12130 13821 0
12130 -13821 0
-12132 13827 0
12132 -13827 0
-12134 12306 0
12134 -12306 0
-12136 12310 0
12136 -12310 0
-12138 13833 0
12138 -13833 0
-12140 13839 0
12140 -13839 0
-12142 13845 0
12142 -13845 0
-12144 13851 0
12144 -13851 0
-12146 13857 0
12146 -13857 0
-12148 13863 0
12148 -13863 0
-12150 13689 0
12150 -13689 0
-12152 13688 0
12152 -13688 0
-12154 13687 0
12154 -13687 0
-12156 13686 0
12156 -13686 0
-12158 13885 0
12158 -13885 0
-12160 13891 0
12160 -13891 0
-12162 13897 0
12162 -13897 0
-12164 13903 0
12164 -13903 0
-12166 13909 0
12166 -13909 0
-12168 13915 0
12168 -13915 0
-12170 13921 0
12170 -13921 0
-12172 13927 0
12172 -13927 0
-12174 13933 0
12174 -13933 0
-12176 13939 0
12176 -13939 0
-12178 13945 0
12178 -13945 0
-12180 13951 0
12180 -13951 0
-12182 13337 0
12182 -13337 0
-12184 13957 0
12184 -13957 0
-12186 13340 0
12186 -13340 0
-12188 13963 0
12188 -13963 0
-12190 13969 0
12190 -13969 0
-12192 13975 0
12192 -13975 0
-12194 13981 0
12194 -13981 0
-12196 13987 0
12196 -13987 0
-12198 13989 0
12198 -13989 0
-12200 13990 0
12200 -13990 0
-12202 13991 0
12202 -13991 0
-12204 13997 0
12204 -13997 0
-12206 14003 0
12206 -14003 0
-12208 14009 0
12208 -14009 0
-12210 14015 0
12210 -14015 0
-12212 14021 0
12212 -14021 0
-12214 14023 0
12214 -14023 0
-12216 14024 0
12216 -14024 0
-12218 14025 0
12218 -14025 0
-12220 14026 0
12220 -14026 0
-12222 13765 0
12222 -13765 0
-12224 13456 0
12224 -13456 0
-12226 13465 0
12226 -13465 0
-12228 14035 0
12228 -14035 0
-12230 13540 0
12230 -13540 0
-12232 13546 0
12232 -13546 0
-12234 13543 0
12234 -13543 0
-12236 13115 0
12236 -13115 0
-12238 13118 0
12238 -13118 0
-12240 12292 0
12240 -12292 0
-12242 12568 0
12242 -12568 0
-12244 14055 0
12244 -14055 0
-12246 12574 0
12246 -12574 0
12250 13693 0
-12250 -13693 0
14057 12250 0
-14057 -12250 0
12254 13877 0
-12254 -13877 0
14059 12254 0
-14059 -12254 0
12592 13574 0
-12592 -13574 0
13595 12258 0
-13595 -12258 0
12595 13574 0
-12595 -13574 0
12601 13574 0
-12601 -13574 0
12607 13574 0
-12607 -13574 0
13601 12266 0
-13601 -12266 0
12610 13574 0
-12610 -13574 0
12628 13574 0
-12628 -13574 0
13607 12272 0
-13607 -12272 0
12631 13574 0
-12631 -13574 0
12637 13574 0
-12637 -13574 0
12643 13574 0
-12643 -13574 0
12649 13574 0
-12649 -13574 0
12655 13574 0
-12655 -13574 0
12676 13574 0
-12676 -13574 0
12675 13309 0
-12675 -13309 0
13613 12673 0
-13613 -12673 0
13182 13567 0
-13182 -13567 0
13567 12292 0
-13567 -12292 0
12682 13574 0
-12682 -13574 0
13619 12296 0
-13619 -12296 0
12685 13574 0
-12685 -13574 0
12691 13574 0
-12691 -13574 0
12723 13827 0
-12723 -13827 0
12703 13574 0
-12703 -13574 0
13625 12306 0
-13625 -12306 0
12706 13574 0
-12706 -13574 0
13631 12310 0
-13631 -12310 0
12709 13574 0
-12709 -13574 0
12739 12761 0
-12739 -12761 0
12745 12761 0
-12745 -12761 0
12751 12761 0
-12751 -12761 0
12757 12761 0
-12757 -12761 0
12766 12761 0
-12766 -12761 0
13639 13683 0
-13639 -13683 0
12796 13574 0
-12796 -13574 0
13253 13271 0
-13253 -13271 0
12802 13574 0
-12802 -13574 0
13259 13271 0
-13259 -13271 0
12808 13574 0
-12808 -13574 0
13265 13271 0
-13265 -13271 0
12814 13574 0
-12814 -13574 0
13274 13271 0
-13274 -13271 0
13286 13316 0
-13286 -13316 0
13292 13316 0
-13292 -13316 0
13298 13570 0
-13298 -13570 0
13304 13570 0
-13304 -13570 0
13570 13118 0
-13570 -13118 0
13310 13561 0
-13310 -13561 0
13319 13316 0
-13319 -13316 0
12838 13320 0
-12838 -13320 0
12844 13320 0
-12844 -13320 0
12850 13320 0
-12850 -13320 0
12866 13323 0
-12866 -13323 0
12872 13323 0
-12872 -13323 0
12878 13323 0
-12878 -13323 0
12890 13326 0
-12890 -13326 0
12896 13326 0
-12896 -13326 0
12902 13574 0
-12902 -13574 0
12917 13329 0
-12917 -13329 0
12923 13329 0
-12923 -13329 0
12929 13574 0
-12929 -13574 0
12950 13574 0
-12950 -13574 0
12953 13574 0
-12953 -13574 0
12965 13340 0
-12965 -13340 0
12959 13574 0
-12959 -13574 0
12968 13963 0
-12968 -13963 0
12962 13574 0
-12962 -13574 0
12967 13525 0
-12967 -13525 0
12972 13696 0
-12972 -13696 0
12978 13696 0
-12978 -13696 0
12984 13696 0
-12984 -13696 0
12990 13696 0
-12990 -13696 0
13697 13574 0
-13697 -13574 0
13349 13361 0
-13349 -13361 0
13355 13361 0
-13355 -13361 0
13364 13361 0
-13364 -13361 0
13370 13379 0
-13370 -13379 0
13376 13379 0
-13376 -13379 0
13382 13379 0
-13382 -13379 0
13379 13337 0
-13379 -13337 0
13023 13075 0
-13023 -13075 0
13029 13075 0
-13029 -13075 0
13035 13075 0
-13035 -13075 0
13041 13075 0
-13041 -13075 0
13047 13075 0
-13047 -13075 0
13409 13466 0
-13409 -13466 0
13415 13466 0
-13415 -13466 0
13421 13466 0
-13421 -13466 0
13427 13466 0
-13427 -13466 0
13080 13075 0
-13080 -13075 0
13083 14027 0
-13083 -14027 0
13589 14032 0
-13589 -14032 0
13453 13451 0
-13453 -13451 0
13460 13466 0
-13460 -13466 0
13469 13466 0
-13469 -13466 0
13477 13957 0
-13477 -13957 0
13962 13766 0
-13962 -13766 0
13475 13561 0
-13475 -13561 0
13481 13561 0
-13481 -13561 0
13487 13561 0
-13487 -13561 0
13493 13561 0
-13493 -13561 0
13499 13561 0
-13499 -13561 0
13505 13561 0
-13505 -13561 0
13511 13561 0
-13511 -13561 0
13517 13561 0
-13517 -13561 0
13523 13561 0
-13523 -13561 0
13529 13561 0
-13529 -13561 0
13561 13115 0
-13561 -13115 0
13122 13574 0
-13122 -13574 0
14034 13121 0
-14034 -13121 0
12480 12478 0
-12480 -12478 0
13121 12480 0
-13121 -12480 0
13534 14055 0
-13534 -14055 0
13125 13574 0
-13125 -13574 0
13535 14054 0
-13535 -14054 0
13131 13574 0
-13131 -13574 0
13541 14054 0
-13541 -14054 0
13137 13574 0
-13137 -13574 0
13547 14054 0
-13547 -14054 0
12498 12496 0
-12498 -12496 0
14054 12498 0
-14054 -12498 0
13143 13568 0
-13143 -13568 0
13562 13568 0
-13562 -13568 0
13571 13568 0
-13571 -13568 0
12508 12506 0
-12508 -12506 0
13568 12508 0
-13568 -12508 0
12522 12510 0
-12522 -12510 0
12511 12522 0
-12511 -12522 0
13152 13574 0
-13152 -13574 0
13155 13574 0
-13155 -13574 0
13161 13574 0
-13161 -13574 0
13574 12520 0
-13574 -12520 0
13280 12522 0
-13280 -12522 0
12526 12524 0
-12526 -12524 0
13474 12526 0
-13474 -12526 0
12530 12528 0
-12530 -12528 0
13486 12530 0
-13486 -12530 0
12534 12532 0
-12534 -12532 0
13480 12534 0
-13480 -12534 0
12538 12536 0
-12538 -12536 0
13492 12538 0
-13492 -12538 0
12542 12540 0
-12542 -12540 0
13252 12542 0
-13252 -12542 0
12546 12544 0
-12546 -12544 0
13498 12546 0
-13498 -12546 0
12550 12548 0
-12550 -12548 0
13504 12550 0
-13504 -12550 0
12554 12552 0
-12554 -12552 0
13510 12554 0
-13510 -12554 0
12558 12556 0
-12558 -12556 0
13516 12558 0
-13516 -12558 0
12562 12560 0
-12562 -12560 0
13522 12562 0
-13522 -12562 0
12566 12564 0
-12566 -12564 0
13528 12566 0
-13528 -12566 0
12567 12568 0
-12567 -12568 0
12572 12570 0
-12572 -12570 0
12969 12572 0
-12969 -12572 0
12573 12574 0
-12573 -12574 0
-13672 13494 0
-13672 13497 0
13672 -13494 -13497 0
-13675 13500 0
-13675 13503 0
13675 -13500 -13503 0
-13678 13506 0
-13678 13509 0
13678 -13506 -13509 0
-13666 13512 0
-13666 13515 0
13666 -13512 -13515 0
-13669 13518 0
-13669 13521 0
13669 -13518 -13521 0
-14061 13590 0
-14061 12592 0
14061 -13590 -12592 0
-14063 13774 0
-14063 12595 0
14063 -13774 -12595 0
-13776 13778 0
-13776 13779 0
13776 -13778 -13779 0
-14065 13780 0
-14065 12601 0
14065 -13780 -12601 0
-13782 13784 0
-13782 13785 0
13782 -13784 -13785 0
-14067 13596 0
-14067 12607 0
14067 -13596 -12607 0
-14069 13786 0
-14069 12610 0
14069 -13786 -12610 0
-13788 13790 0
-13788 13791 0
13788 -13790 -13791 0
-13778 13771 0
-13778 13595 0
13778 -13771 -13595 0
-13784 13778 0
-13784 13779 0
13784 -13778 -13779 0
-13600 13784 0
-13600 13785 0
13600 -13784 -13785 0
-13790 13600 0
-13790 13601 0
13790 -13600 -13601 0
-14071 13602 0
-14071 12628 0
14071 -13602 -12628 0
-14073 13792 0
-14073 12631 0
14073 -13792 -12631 0
-13794 13796 0
-13794 13797 0
13794 -13796 -13797 0
-14075 13798 0
-14075 12637 0
14075 -13798 -12637 0
-13800 13802 0
-13800 13803 0
13800 -13802 -13803 0
-14077 13804 0
-14077 12643 0
14077 -13804 -12643 0
-13806 13808 0
-13806 13809 0
13806 -13808 -13809 0
-14079 13810 0
-14079 12649 0
14079 -13810 -12649 0
-13812 13814 0
-13812 13815 0
13812 -13814 -13815 0
-14081 13608 0
-14081 12655 0
14081 -13608 -12655 0
-13796 13606 0
-13796 13607 0
13796 -13606 -13607 0
-13802 13796 0
-13802 13797 0
13802 -13796 -13797 0
-13808 13802 0
-13808 13803 0
13808 -13802 -13803 0
-13814 13808 0
-13814 13809 0
13814 -13808 -13809 0
-13612 13814 0
-13612 13815 0
13612 -13814 -13815 0
-13188 13612 0
-13188 12673 0
13188 -13612 -12673 0
-14083 12675 0
-14083 12676 0
14083 -12675 -12676 0
-13291 13177 0
-13291 13180 0
13291 -13177 -13180 0
-14085 13614 0
-14085 12682 0
14085 -13614 -12682 0
-14087 13816 0
-14087 12685 0
14087 -13816 -12685 0
-13818 13820 0
-13818 13821 0
13818 -13820 -13821 0
-14089 13822 0
-14089 12691 0
14089 -13822 -12691 0
-13824 13826 0
-13824 13827 0
13824 -13826 -13827 0
-13820 13618 0
-13820 13619 0
13820 -13618 -13619 0
-13826 13820 0
-13826 13821 0
13826 -13820 -13821 0
-14091 13620 0
-14091 12703 0
14091 -13620 -12703 0
-14093 13626 0
-14093 12706 0
14093 -13626 -12706 0
-14095 13828 0
-14095 12709 0
14095 -13828 -12709 0
-13830 13832 0
-13830 13833 0
13830 -13832 -13833 0
-13630 13902 0
-13630 13625 0
13630 -13902 -13625 0
-13832 13630 0
-13832 13631 0
13832 -13630 -13631 0
-13282 13826 0
-13282 13827 0
13282 -13826 -13827 0
-13315 12723 0
-13315 13826 0
13315 -12723 -13826 0
-13176 13790 0
-13176 13791 0
13176 -13790 -13791 0
-13185 13612 0
-13185 13613 0
13185 -13612 -13613 0
-13397 13832 0
-13397 13833 0
13397 -13832 -13833 0
-13294 13950 0
-13294 13951 0
13294 -13950 -13951 0
-14097 13834 0
-14097 12739 0
14097 -13834 -12739 0
-13836 13871 0
-13836 13839 0
13836 -13871 -13839 0
-14099 13840 0
-14099 12745 0
14099 -13840 -12745 0
-13842 13844 0
-13842 13845 0
13842 -13844 -13845 0
-14101 13846 0
-14101 12751 0
14101 -13846 -12751 0
-13848 13850 0
-13848 13851 0
13848 -13850 -13851 0
-14103 13852 0
-14103 12757 0
14103 -13852 -12757 0
-13854 13856 0
-13854 13857 0
13854 -13856 -13857 0
-12761 13482 0
-12761 13485 0
12761 -13482 -13485 0
-14105 13858 0
-14105 12766 0
14105 -13858 -12766 0
-13860 13862 0
-13860 13863 0
13860 -13862 -13863 0
-13844 13871 0
-13844 13839 0
13844 -13871 -13839 0
-13850 13844 0
-13850 13845 0
13850 -13844 -13845 0
-13856 13850 0
-13856 13851 0
13856 -13850 -13851 0
-13862 13856 0
-13862 13857 0
13862 -13856 -13857 0
-13209 13201 0
-13209 13870 0
13209 -13201 -13870 0
-13215 13204 0
-13215 13207 0
13215 -13204 -13207 0
-13221 13210 0
-13221 13213 0
13221 -13210 -13213 0
-13227 13216 0
-13227 13219 0
13227 -13216 -13219 0
-14107 12797 0
-14107 12796 0
14107 -12797 -12796 0
-12797 13248 0
-12797 13251 0
12797 -13248 -13251 0
-14109 12803 0
-14109 12802 0
14109 -12803 -12802 0
-12803 13254 0
-12803 13257 0
12803 -13254 -13257 0
-14111 12809 0
-14111 12808 0
14111 -12809 -12808 0
-12809 13260 0
-12809 13263 0
12809 -13260 -13263 0
-14113 12815 0
-14113 12814 0
14113 -12815 -12814 0
-12815 13269 0
-12815 13272 0
12815 -13269 -13272 0
-13878 13695 0
-13878 13280 0
13878 -13695 -13280 0
-13875 13693 0
-13875 13280 0
13875 -13693 -13280 0
-13920 13281 0
-13920 13284 0
13920 -13281 -13284 0
-13333 13293 0
-13333 13296 0
13333 -13293 -13296 0
-13306 13299 0
-13306 13302 0
13306 -13299 -13302 0
-13938 13884 0
-13938 13897 0
13938 -13884 -13897 0
-14115 13880 0
-14115 12838 0
14115 -13880 -12838 0
-13882 13884 0
-13882 13885 0
13882 -13884 -13885 0
-14117 13886 0
-14117 12844 0
14117 -13886 -12844 0
-13888 13890 0
-13888 13891 0
13888 -13890 -13891 0
-14119 13892 0
-14119 12850 0
14119 -13892 -12850 0
-13894 13896 0
-13894 13897 0
13894 -13896 -13897 0
-13890 13884 0
-13890 13885 0
13890 -13884 -13885 0
-13896 13890 0
-13896 13891 0
13896 -13890 -13891 0
-13325 13902 0
-13325 13903 0
-13325 13915 0
13325 -13902 -13903 -13915 0
-14121 13898 0
-14121 12866 0
14121 -13898 -12866 0
-13900 13902 0
-13900 13903 0
13900 -13902 -13903 0
-14123 13904 0
-14123 12872 0
14123 -13904 -12872 0
-13906 13908 0
-13906 13909 0
13906 -13908 -13909 0
-14125 13910 0
-14125 12878 0
14125 -13910 -12878 0
-13912 13914 0
-13912 13915 0
13912 -13914 -13915 0
-13908 13902 0
-13908 13903 0
13908 -13902 -13903 0
-13914 13908 0
-13914 13909 0
13914 -13908 -13909 0
-14127 13916 0
-14127 12890 0
14127 -13916 -12890 0
-13918 13920 0
-13918 13921 0
13918 -13920 -13921 0
-14129 13922 0
-14129 12896 0
14129 -13922 -12896 0
-13924 13926 0
-13924 13927 0
13924 -13926 -13927 0
-14131 13928 0
-14131 12902 0
14131 -13928 -12902 0
-13930 13932 0
-13930 13933 0
13930 -13932 -13933 0
-13926 13920 0
-13926 13921 0
13926 -13920 -13921 0
-13932 13920 0
-13932 13927 0
13932 -13920 -13927 0
-13400 13932 0
-13400 13933 0
13400 -13932 -13933 0
-14133 13934 0
-14133 12917 0
14133 -13934 -12917 0
-13936 13938 0
-13936 13939 0
13936 -13938 -13939 0
-14135 13940 0
-14135 12923 0
14135 -13940 -12923 0
-13942 13944 0
-13942 13945 0
13942 -13944 -13945 0
-14137 13946 0
-14137 12929 0
14137 -13946 -12929 0
-13948 13950 0
-13948 13951 0
13948 -13950 -13951 0
-13944 13938 0
-13944 13939 0
13944 -13938 -13939 0
-13950 13938 0
-13950 13945 0
13950 -13938 -13945 0
-13088 13314 0
-13088 13317 0
13088 -13314 -13317 0
-14028 13287 0
-14028 13290 0
14028 -13287 -13290 0
-13648 13305 0
-13648 13308 0
13648 -13305 -13308 0
-14139 13335 0
-14139 12950 0
14139 -13335 -12950 0
-14141 13952 0
-14141 12953 0
14141 -13952 -12953 0
-13953 13962 0
-13953 13379 0
13953 -13962 -13379 0
-14143 13338 0
-14143 12959 0
14143 -13338 -12959 0
-14145 13958 0
-14145 12962 0
14145 -13958 -12962 0
-13959 13962 0
-13959 12965 0
13959 -13962 -12965 0
-13471 12967 0
-13471 12968 0
-13471 12969 0
13471 -12967 -12968 -12969 0
-14147 13964 0
-14147 12972 0
14147 -13964 -12972 0
-13966 13968 0
-13966 13969 0
13966 -13968 -13969 0
-14149 13970 0
-14149 12978 0
14149 -13970 -12978 0
-13972 13974 0
-13972 13975 0
13972 -13974 -13975 0
-14151 13976 0
-14151 12984 0
14151 -13976 -12984 0
-13978 13980 0
-13978 13981 0
13978 -13980 -13981 0
-14153 13982 0
-14153 12990 0
14153 -13982 -12990 0
-13984 13986 0
-13984 13987 0
13984 -13986 -13987 0
-13974 13968 0
-13974 13969 0
13974 -13968 -13969 0
-13980 13974 0
-13980 13975 0
13980 -13974 -13975 0
-13986 13980 0
-13986 13981 0
13986 -13980 -13981 0
-13348 13365 0
-13348 13368 0
13348 -13365 -13368 0
-13354 13371 0
-13354 13374 0
13354 -13371 -13374 0
-13363 13377 0
-13363 13380 0
13363 -13377 -13380 0
-14155 13344 0
-14155 13347 0
14155 -13344 -13347 0
-14157 13350 0
-14157 13353 0
14157 -13350 -13353 0
-14159 13359 0
-14159 13362 0
14159 -13359 -13362 0
-14161 13992 0
-14161 13023 0
14161 -13992 -13023 0
-13994 13996 0
-13994 13997 0
13994 -13996 -13997 0
-14163 13998 0
-14163 13029 0
14163 -13998 -13029 0
-14000 14002 0
-14000 14003 0
14000 -14002 -14003 0
-14165 14004 0
-14165 13035 0
14165 -14004 -13035 0
-14006 14008 0
-14006 14009 0
14006 -14008 -14009 0
-14167 14010 0
-14167 13041 0
14167 -14010 -13041 0
-14012 14014 0
-14012 14015 0
14012 -14014 -14015 0
-14169 14016 0
-14169 13047 0
14169 -14016 -13047 0
-14018 14020 0
-14018 14021 0
14018 -14020 -14021 0
-14002 13996 0
-14002 13997 0
14002 -13996 -13997 0
-14008 14002 0
-14008 14003 0
14008 -14002 -14003 0
-14014 14008 0
-14014 14009 0
14014 -14008 -14009 0
-14020 14014 0
-14020 14015 0
14020 -14014 -14015 0
-14171 13404 0
-14171 13407 0
14171 -13404 -13407 0
-14173 13410 0
-14173 13413 0
14173 -13410 -13413 0
-14175 13416 0
-14175 13419 0
14175 -13416 -13419 0
-14177 13422 0
-14177 13425 0
14177 -13422 -13425 0
-13075 13488 0
-13075 13491 0
13075 -13488 -13491 0
-14179 13443 0
-14179 13080 0
14179 -13443 -13080 0
-13444 13446 0
-13444 13083 0
13444 -13446 -13083 0
-13451 13476 0
-13451 13479 0
13451 -13476 -13479 0
-13996 13088 0
-13996 14029 0
13996 -13088 -14029 0
-14181 13455 0
-14181 13458 0
14181 -13455 -13458 0
-14183 13464 0
-14183 13467 0
14183 -13464 -13467 0
-13637 13524 0
-13637 13527 0
13637 -13524 -13527 0
-13647 13470 0
-13647 13473 0
13647 -13470 -13473 0
-14046 13176 0
-14046 13534 0
14046 -13176 -13534 0
-14047 13185 0
-14047 13540 0
14047 -13185 -13540 0
-14048 13397 0
-14048 13546 0
14048 -13397 -13546 0
-14049 13294 0
-14049 13543 0
14049 -13294 -13543 0
-13357 13115 0
-13357 13696 0
13357 -13115 -13696 0
-13462 13118 0
-13462 13696 0
13462 -13118 -13696 0
-14185 13121 0
-14185 13122 0
14185 -13121 -13122 0
-14187 13126 0
-14187 13125 0
14187 -13126 -13125 0
-13126 13530 0
-13126 13533 0
13126 -13530 -13533 0
-14189 13132 0
-14189 13131 0
14189 -13132 -13131 0
-13132 13536 0
-13132 13539 0
13132 -13536 -13539 0
-14191 13138 0
-14191 13137 0
14191 -13138 -13137 0
-13138 13542 0
-13138 13545 0
13138 -13542 -13545 0
-14037 13551 0
-14037 13143 0
14037 -13551 -13143 0
-14040 13557 0
-14040 13560 0
14040 -13557 -13560 0
-14043 13566 0
-14043 13569 0
14043 -13566 -13569 0
-14199 13632 0
-14199 13152 0
14199 -13632 -13152 0
-14201 14050 0
-14201 13155 0
14201 -14050 -13155 0
-14051 14054 0
-14051 13543 0
14051 -14054 -13543 0
-14203 14030 0
-14203 13161 0
14203 -14030 -13161 0
13592 -13771 0
13592 -13595 0
-13592 13771 13595 0
13598 -13600 0
13598 -13601 0
-13598 13600 13601 0
13604 -13606 0
13604 -13607 0
-13604 13606 13607 0
13610 -13612 0
13610 -13613 0
-13610 13612 13613 0
13606 -13567 0
13606 -13176 0
-13606 13567 13176 0
13177 -13613 0
13177 -13567 0
-13177 13613 13567 0
13180 -13309 0
13180 -13182 0
-13180 13309 13182 0
13902 -13567 0
13902 -13185 0
-13902 13567 13185 0
13318 -13567 0
13318 -13188 0
-13318 13567 13188 0
13616 -13618 0
13616 -13619 0
-13616 13618 13619 0
13622 -13902 0
13622 -13625 0
-13622 13902 13625 0
13628 -13630 0
13628 -13631 0
-13628 13630 13631 0
13634 -13647 0
13634 -13642 0
-13634 13647 13642 0
13201 -13672 0
13201 -13839 0
-13201 13672 13839 0
13204 -13675 0
13204 -13845 0
-13204 13675 13845 0
13207 -13869 0
13207 -13209 0
-13207 13869 13209 0
13210 -13678 0
13210 -13851 0
-13210 13678 13851 0
13213 -13867 0
13213 -13215 0
-13213 13867 13215 0
13216 -13666 0
13216 -13857 0
-13216 13666 13857 0
13219 -13866 0
13219 -13221 0
-13219 13866 13221 0
13772 -13669 0
13772 -13863 0
-13772 13669 13863 0
13773 -13865 0
13773 -13227 0
-13773 13865 13227 0
13651 -13839 0
13651 -13672 0
-13651 13839 13672 0
13654 -13845 0
13654 -13675 0
-13654 13845 13675 0
13657 -13851 0
13657 -13678 0
-13657 13851 13678 0
13660 -13857 0
13660 -13666 0
-13660 13857 13666 0
13663 -13863 0
13663 -13669 0
-13663 13863 13669 0
13276 -13686 0
13276 -13687 0
13276 -13688 0
13276 -13689 0
-13276 13686 13687 13688 13689 0
13248 -13689 0
13248 -13271 0
-13248 13689 13271 0
13251 -13252 0
13251 -13253 0
-13251 13252 13253 0
13254 -13688 0
13254 -13271 0
-13254 13688 13271 0
13257 -13689 0
13257 -13259 0
-13257 13689 13259 0
13260 -13687 0
13260 -13271 0
-13260 13687 13271 0
13263 -13688 0
13263 -13265 0
-13263 13688 13265 0
13271 -13325 0
13271 -13570 0
-13271 13325 13570 0
13269 -13686 0
13269 -13271 0
-13269 13686 13271 0
13272 -13687 0
13272 -13274 0
-13272 13687 13274 0
13691 -13276 0
13691 -13280 0
-13691 13276 13280 0
13694 -13872 0
13694 -13280 0
-13694 13872 13280 0
13281 -13282 0
13281 -13316 0
-13281 13282 13316 0
13284 -13902 0
13284 -13286 0
-13284 13902 13286 0
13287 -13827 0
13287 -13316 0
-13287 13827 13316 0
13290 -13291 0
13290 -13292 0
-13290 13291 13292 0
13293 -13294 0
13293 -13570 0
-13293 13294 13570 0
13296 -13400 0
13296 -13298 0
-13296 13400 13298 0
13299 -13951 0
13299 -13570 0
-13299 13951 13570 0
13302 -13933 0
13302 -13304 0
-13302 13933 13304 0
13305 -13306 0
13305 -13561 0
-13305 13306 13561 0
13308 -13309 0
13308 -13310 0
-13308 13309 13310 0
13316 -13471 0
13316 -13561 0
-13316 13471 13561 0
13314 -13315 0
13314 -13316 0
-13314 13315 13316 0
13317 -13318 0
13317 -13319 0
-13317 13318 13319 0
13320 -13574 0
13320 -13938 0
-13320 13574 13938 0
13323 -13574 0
13323 -13325 0
-13323 13574 13325 0
13326 -13574 0
13326 -13932 0
-13326 13574 13932 0
13329 -13574 0
13329 -13950 0
-13329 13574 13950 0
13968 -13333 0
13968 -13561 0
-13968 13333 13561 0
13335 -14028 0
13335 -13337 0
-13335 14028 13337 0
13338 -13962 0
13338 -13340 0
-13338 13962 13340 0
13525 -13765 0
13525 -14029 0
-13525 13765 14029 0
13344 -13989 0
13344 -13361 0
-13344 13989 13361 0
13347 -13348 0
13347 -13349 0
-13347 13348 13349 0
13350 -13990 0
13350 -13361 0
-13350 13990 13361 0
13353 -13354 0
13353 -13355 0
-13353 13354 13355 0
13361 -13357 0
13361 -13574 0
-13361 13357 13574 0
13359 -13991 0
13359 -13361 0
-13359 13991 13361 0
13362 -13363 0
13362 -13364 0
-13362 13363 13364 0
13365 -13516 0
13365 -13379 0
-13365 13516 13379 0
13368 -13498 0
13368 -13370 0
-13368 13498 13370 0
13371 -13522 0
13371 -13379 0
-13371 13522 13379 0
13374 -13504 0
13374 -13376 0
-13374 13504 13376 0
13377 -13528 0
13377 -13379 0
-13377 13528 13379 0
13380 -13510 0
13380 -13382 0
-13380 13510 13382 0
13701 -13989 0
13701 -13969 0
-13701 13989 13969 0
13704 -13990 0
13704 -13975 0
-13704 13990 13975 0
13707 -13991 0
13707 -13981 0
-13707 13991 13981 0
13710 -13988 0
13710 -13987 0
-13710 13988 13987 0
13618 -13570 0
13618 -13397 0
-13618 13570 13397 0
13884 -13570 0
13884 -13400 0
-13884 13570 13400 0
14029 -13723 0
14029 -13727 0
-14029 13723 13727 0
13404 -14023 0
13404 -13466 0
-13404 14023 13466 0
13407 -13474 0
13407 -13409 0
-13407 13474 13409 0
13410 -14024 0
13410 -13466 0
-13410 14024 13466 0
13413 -13486 0
13413 -13415 0
-13413 13486 13415 0
13416 -14025 0
13416 -13466 0
-13416 14025 13466 0
13419 -13480 0
13419 -13421 0
-13419 13480 13421 0
13422 -14026 0
13422 -13466 0
-13422 14026 13466 0
13425 -13492 0
13425 -13427 0
-13425 13492 13427 0
13732 -14023 0
13732 -13997 0
-13732 14023 13997 0
13735 -14024 0
13735 -14003 0
-13735 14024 14003 0
13738 -14025 0
13738 -14009 0
-13738 14025 14009 0
13741 -14026 0
13741 -14015 0
-13741 14026 14015 0
13744 -14022 0
13744 -14021 0
-13744 14022 14021 0
13443 -13444 0
13443 -13996 0
-13443 13444 13996 0
13446 -13765 0
13446 -14027 0
-13446 13765 14027 0
13761 -13465 0
13761 -13451 0
-13761 13465 13451 0
13762 -13453 0
13762 -13456 0
-13762 13453 13456 0
13455 -13456 0
13455 -13466 0
-13455 13456 13466 0
13458 -13568 0
13458 -13460 0
-13458 13568 13460 0
13466 -13462 0
13466 -13574 0
-13466 13462 13574 0
13464 -13465 0
13464 -13466 0
-13464 13465 13466 0
13467 -14054 0
13467 -13469 0
-13467 14054 13469 0
13470 -13471 0
13470 -13561 0
-13470 13471 13561 0
13473 -13474 0
13473 -13475 0
-13473 13474 13475 0
13476 -13477 0
13476 -13561 0
-13476 13477 13561 0
13479 -13480 0
13479 -13481 0
-13479 13480 13481 0
13482 -13696 0
13482 -13561 0
-13482 13696 13561 0
13485 -13486 0
13485 -13487 0
-13485 13486 13487 0
13488 -13696 0
13488 -13561 0
-13488 13696 13561 0
13491 -13492 0
13491 -13493 0
-13491 13492 13493 0
13494 -13575 0
13494 -13561 0
-13494 13575 13561 0
13497 -13498 0
13497 -13499 0
-13497 13498 13499 0
13500 -13578 0
13500 -13561 0
-13500 13578 13561 0
13503 -13504 0
13503 -13505 0
-13503 13504 13505 0
13506 -13581 0
13506 -13561 0
-13506 13581 13561 0
13509 -13510 0
13509 -13511 0
-13509 13510 13511 0
13512 -13584 0
13512 -13561 0
-13512 13584 13561 0
13515 -13516 0
13515 -13517 0
-13515 13516 13517 0
13518 -13587 0
13518 -13561 0
-13518 13587 13561 0
13521 -13522 0
13521 -13523 0
-13521 13522 13523 0
13524 -13525 0
13524 -13561 0
-13524 13525 13561 0
13527 -13528 0
13527 -13529 0
-13527 13528 13529 0
13530 -13540 0
13530 -14054 0
-13530 13540 14054 0
13533 -13534 0
13533 -13535 0
-13533 13534 13535 0
13536 -13546 0
13536 -14054 0
-13536 13546 14054 0
13539 -13540 0
13539 -13541 0
-13539 13540 13541 0
13542 -13543 0
13542 -14054 0
-13542 13543 14054 0
13545 -13546 0
13545 -13547 0
-13545 13546 13547 0
14193 -14036 0
14193 -13572 0
-14193 14036 13572 0
13551 -13561 0
13551 -13568 0
-13551 13561 13568 0
14195 -14039 0
14195 -13572 0
-14195 14039 13572 0
13557 -13570 0
13557 -13568 0
-13557 13570 13568 0
13560 -13561 0
13560 -13562 0
-13560 13561 13562 0
14197 -14042 0
14197 -13572 0
-14197 14042 13572 0
13566 -13567 0
13566 -13568 0
-13566 13567 13568 0
13569 -13570 0
13569 -13571 0
-13569 13570 13571 0
13572 -14034 0
13572 -13574 0
-13572 14034 13574 0
13575 13997 0
13575 13589 0
-13575 -13997 -13589 0
13578 14003 0
13578 13589 0
-13578 -14003 -13589 0
13581 14009 0
13581 13589 0
-13581 -14009 -13589 0
13584 14015 0
13584 13589 0
-13584 -14015 -13589 0
13587 14021 0
13587 13589 0
-13587 -14021 -13589 0
13590 13593 0
13590 13592 0
-13590 -13593 -13592 0
13593 13771 0
13593 13595 0
-13593 -13771 -13595 0
13596 13599 0
13596 13598 0
-13596 -13599 -13598 0
13599 13600 0
13599 13601 0
-13599 -13600 -13601 0
13602 13605 0
13602 13604 0
-13602 -13605 -13604 0
13605 13606 0
13605 13607 0
-13605 -13606 -13607 0
13608 13611 0
13608 13610 0
-13608 -13611 -13610 0
13611 13612 0
13611 13613 0
-13611 -13612 -13613 0
13614 13617 0
13614 13616 0
-13614 -13617 -13616 0
13617 13618 0
13617 13619 0
-13617 -13618 -13619 0
13620 13623 0
13620 13622 0
-13620 -13623 -13622 0
13623 13902 0
13623 13625 0
-13623 -13902 -13625 0
13626 13629 0
13626 13628 0
-13626 -13629 -13628 0
13629 13630 0
13629 13631 0
-13629 -13630 -13631 0
13632 13646 0
13632 13634 0
-13632 -13646 -13634 0
13645 14028 0
13645 13637 0
-13645 -14028 -13637 0
13644 13639 0
13644 13682 0
13644 14028 0
-13644 -13639 -13682 -14028 0
13642 13771 0
13642 13644 0
13642 13645 0
-13642 -13771 -13644 -13645 0
13646 13647 0
13646 13648 0
-13646 -13647 -13648 0
13870 13670 0
13870 13651 0
-13870 -13670 -13651 0
13869 13673 0
13869 13654 0
-13869 -13673 -13654 0
13867 13676 0
13867 13657 0
-13867 -13676 -13657 0
13866 13664 0
13866 13660 0
-13866 -13664 -13660 0
13865 13667 0
13865 13663 0
-13865 -13667 -13663 0
13664 13857 0
13664 13666 0
-13664 -13857 -13666 0
13667 13863 0
13667 13669 0
-13667 -13863 -13669 0
13670 13839 0
13670 13672 0
-13670 -13839 -13672 0
13673 13845 0
13673 13675 0
-13673 -13845 -13675 0
13676 13851 0
13676 13678 0
-13676 -13851 -13678 0
13683 13864 0
13683 13868 0
-13683 -13864 -13868 0
13682 13683 0
13682 13771 0
-13682 -13683 -13771 0
13872 13686 0
13872 13687 0
13872 13688 0
13872 13689 0
-13872 -13686 -13687 -13688 -13689 0
13695 13691 0
13695 13692 0
-13695 -13691 -13692 0
13693 13694 0
13693 13695 0
-13693 -13694 -13695 0
13696 13697 0
13696 13766 0
-13696 -13697 -13766 0
13767 13711 0
13767 13701 0
-13767 -13711 -13701 0
13768 13714 0
13768 13704 0
-13768 -13714 -13704 0
13769 13717 0
13769 13707 0
-13769 -13717 -13707 0
13770 13720 0
13770 13710 0
-13770 -13720 -13710 0
13711 13989 0
13711 13969 0
-13711 -13989 -13969 0
13714 13990 0
13714 13975 0
-13714 -13990 -13975 0
13717 13991 0
13717 13981 0
-13717 -13991 -13981 0
13720 13988 0
13720 13987 0
-13720 -13988 -13987 0
13723 13730 0
13723 13733 0
13723 13736 0
-13723 -13730 -13733 -13736 0
13727 13739 0
13727 13742 0
-13727 -13739 -13742 0
13730 13745 0
13730 13732 0
-13730 -13745 -13732 0
13733 13748 0
13733 13735 0
-13733 -13748 -13735 0
13736 13751 0
13736 13738 0
-13736 -13751 -13738 0
13739 13754 0
13739 13741 0
-13739 -13754 -13741 0
13742 13757 0
13742 13744 0
-13742 -13757 -13744 0
13745 14023 0
13745 13997 0
-13745 -14023 -13997 0
13748 14024 0
13748 14003 0
-13748 -14024 -14003 0
13751 14025 0
13751 14009 0
-13751 -14025 -14009 0
13754 14026 0
13754 14015 0
-13754 -14026 -14015 0
13757 14022 0
13757 14021 0
-13757 -14022 -14021 0
14032 13761 0
14032 13762 0
-14032 -13761 -13762 0
14031 14028 0
14031 13765 0
-14031 -14028 -13765 0
13766 13767 0
13766 13768 0
13766 13769 0
13766 13770 0
-13766 -13767 -13768 -13769 -13770 0
13771 13772 0
13771 13773 0
-13771 -13772 -13773 0
-13774 -13777 0
-13774 -13776 0
13774 13777 13776 0
-13777 -13778 0
-13777 -13779 0
13777 13778 13779 0
-13780 -13783 0
-13780 -13782 0
13780 13783 13782 0
-13783 -13784 0
-13783 -13785 0
13783 13784 13785 0
-13786 -13789 0
-13786 -13788 0
13786 13789 13788 0
-13789 -13790 0
-13789 -13791 0
13789 13790 13791 0
-13792 -13795 0
-13792 -13794 0
13792 13795 13794 0
-13795 -13796 0
-13795 -13797 0
13795 13796 13797 0
-13798 -13801 0
-13798 -13800 0
13798 13801 13800 0
-13801 -13802 0
-13801 -13803 0
13801 13802 13803 0
-13804 -13807 0
-13804 -13806 0
13804 13807 13806 0
-13807 -13808 0
-13807 -13809 0
13807 13808 13809 0
-13810 -13813 0
-13810 -13812 0
13810 13813 13812 0
-13813 -13814 0
-13813 -13815 0
13813 13814 13815 0
-13816 -13819 0
-13816 -13818 0
13816 13819 13818 0
-13819 -13820 0
-13819 -13821 0
13819 13820 13821 0
-13822 -13825 0
-13822 -13824 0
13822 13825 13824 0
-13825 -13826 0
-13825 -13827 0
13825 13826 13827 0
-13828 -13831 0
-13828 -13830 0
13828 13831 13830 0
-13831 -13832 0
-13831 -13833 0
13831 13832 13833 0
-13834 -13837 0
-13834 -13836 0
13834 13837 13836 0
-13837 -13871 0
-13837 -13839 0
13837 13871 13839 0
-13840 -13843 0
-13840 -13842 0
13840 13843 13842 0
-13843 -13844 0
-13843 -13845 0
13843 13844 13845 0
-13846 -13849 0
-13846 -13848 0
13846 13849 13848 0
-13849 -13850 0
-13849 -13851 0
13849 13850 13851 0
-13852 -13855 0
-13852 -13854 0
13852 13855 13854 0
-13855 -13856 0
-13855 -13857 0
13855 13856 13857 0
-13858 -13861 0
-13858 -13860 0
13858 13861 13860 0
-13861 -13862 0
-13861 -13863 0
13861 13862 13863 0
-13864 -13865 0
-13864 -13866 0
-13864 -13867 0
13864 13865 13866 13867 0
-13868 -13869 0
-13868 -13870 0
13868 13869 13870 0
-13871 -13872 0
-13871 -13877 0
13871 13872 13877 0
-13879 -13875 0
-13879 -13876 0
13879 13875 13876 0
-13877 -13878 0
-13877 -13879 0
13877 13878 13879 0
-13880 -13883 0
-13880 -13882 0
13880 13883 13882 0
-13883 -13884 0
-13883 -13885 0
13883 13884 13885 0
-13886 -13889 0
-13886 -13888 0
13886 13889 13888 0
-13889 -13890 0
-13889 -13891 0
13889 13890 13891 0
-13892 -13895 0
-13892 -13894 0
13892 13895 13894 0
-13895 -13896 0
-13895 -13897 0
13895 13896 13897 0
-13898 -13901 0
-13898 -13900 0
13898 13901 13900 0
-13901 -13902 0
-13901 -13903 0
13901 13902 13903 0
-13904 -13907 0
-13904 -13906 0
13904 13907 13906 0
-13907 -13908 0
-13907 -13909 0
13907 13908 13909 0
-13910 -13913 0
-13910 -13912 0
13910 13913 13912 0
-13913 -13914 0
-13913 -13915 0
13913 13914 13915 0
-13916 -13919 0
-13916 -13918 0
13916 13919 13918 0
-13919 -13920 0
-13919 -13921 0
13919 13920 13921 0
-13922 -13925 0
-13922 -13924 0
13922 13925 13924 0
-13925 -13926 0
-13925 -13927 0
13925 13926 13927 0
-13928 -13931 0
-13928 -13930 0
13928 13931 13930 0
-13931 -13932 0
-13931 -13933 0
13931 13932 13933 0
-13934 -13937 0
-13934 -13936 0
13934 13937 13936 0
-13937 -13938 0
-13937 -13939 0
13937 13938 13939 0
-13940 -13943 0
-13940 -13942 0
13940 13943 13942 0
-13943 -13944 0
-13943 -13945 0
13943 13944 13945 0
-13946 -13949 0
-13946 -13948 0
13946 13949 13948 0
-13949 -13950 0
-13949 -13951 0
13949 13950 13951 0
-13952 -13953 0
-13952 -13955 0
13952 13953 13955 0
-13955 -13962 0
-13955 -13957 0
13955 13962 13957 0
-13958 -13959 0
-13958 -13961 0
13958 13959 13961 0
-13961 -13962 0
-13961 -13963 0
13961 13962 13963 0
-13964 -13967 0
-13964 -13966 0
13964 13967 13966 0
-13967 -13968 0
-13967 -13969 0
13967 13968 13969 0
-13970 -13973 0
-13970 -13972 0
13970 13973 13972 0
-13973 -13974 0
-13973 -13975 0
13973 13974 13975 0
-13976 -13979 0
-13976 -13978 0
13976 13979 13978 0
-13979 -13980 0
-13979 -13981 0
13979 13980 13981 0
-13982 -13985 0
-13982 -13984 0
13982 13985 13984 0
-13985 -13986 0
-13985 -13987 0
13985 13986 13987 0
-13988 -13989 0
-13988 -13990 0
-13988 -13991 0
13988 13989 13990 13991 0
-13992 -13995 0
-13992 -13994 0
13992 13995 13994 0
-13995 -13996 0
-13995 -13997 0
13995 13996 13997 0
-13998 -14001 0
-13998 -14000 0
13998 14001 14000 0
-14001 -14002 0
-14001 -14003 0
14001 14002 14003 0
-14004 -14007 0
-14004 -14006 0
14004 14007 14006 0
-14007 -14008 0
-14007 -14009 0
14007 14008 14009 0
-14010 -14013 0
-14010 -14012 0
14010 14013 14012 0
-14013 -14014 0
-14013 -14015 0
14013 14014 14015 0
-14016 -14019 0
-14016 -14018 0
14016 14019 14018 0
-14019 -14020 0
-14019 -14021 0
14019 14020 14021 0
-14022 -14023 0
-14022 -14024 0
-14022 -14025 0
-14022 -14026 0
14022 14023 14024 14025 14026 0
-14027 -14028 0
-14027 -14029 0
14027 14028 14029 0
-14030 -14031 0
-14030 -14032 0
14030 14031 14032 0
-14044 -14034 0
-14044 -14035 0
14044 14034 14035 0
-14036 -14037 0
-14036 -14044 0
14036 14037 14044 0
-14039 -14040 0
-14039 -14044 0
14039 14040 14044 0
-14042 -14043 0
-14042 -14044 0
14042 14043 14044 0
-14045 -14046 0
-14045 -14047 0
-14045 -14048 0
-14045 -14049 0
14045 14046 14047 14048 14049 0
-14050 -14051 0
-14050 -14053 0
14050 14051 14053 0
-14053 -14054 0
-14053 -14055 0
14053 14054 14055 0
-14057 15649 0
14057 -15649 0
-14059 15833 0
14059 -15833 0
-14061 14215 0
14061 -14215 0
-14063 15736 0
14063 -15736 0
-14065 15742 0
14065 -15742 0
-14067 14223 0
14067 -14223 0
-14069 15748 0
14069 -15748 0
-14071 14229 0
14071 -14229 0
-14073 15754 0
14073 -15754 0
-14075 15760 0
14075 -15760 0
-14077 15766 0
14077 -15766 0
-14079 15772 0
14079 -15772 0
-14081 14630 0
14081 -14630 0
-14083 15266 0
14083 -15266 0
-14085 14253 0
14085 -14253 0
-14087 15778 0
14087 -15778 0
-14089 15784 0
14089 -15784 0
-14091 14263 0
14091 -14263 0
-14093 14267 0
14093 -14267 0
-14095 15790 0
14095 -15790 0
-14097 15796 0
14097 -15796 0
-14099 15802 0
14099 -15802 0
-14101 15808 0
14101 -15808 0
-14103 15814 0
14103 -15814 0
-14105 15820 0
14105 -15820 0
-14107 15646 0
14107 -15646 0
-14109 15645 0
14109 -15645 0
-14111 15644 0
14111 -15644 0
-14113 15643 0
14113 -15643 0
-14115 15842 0
14115 -15842 0
-14117 15848 0
14117 -15848 0
-14119 15854 0
14119 -15854 0
-14121 15860 0
14121 -15860 0
-14123 15866 0
14123 -15866 0
-14125 15872 0
14125 -15872 0
-14127 15878 0
14127 -15878 0
-14129 15884 0
14129 -15884 0
-14131 15890 0
14131 -15890 0
-14133 15896 0
14133 -15896 0
-14135 15902 0
14135 -15902 0
-14137 15908 0
14137 -15908 0
-14139 15294 0
14139 -15294 0
-14141 15914 0
14141 -15914 0
-14143 15297 0
14143 -15297 0
-14145 15920 0
14145 -15920 0
-14147 15926 0
14147 -15926 0
-14149 15932 0
14149 -15932 0
-14151 15938 0
14151 -15938 0
-14153 15944 0
14153 -15944 0
-14155 15946 0
14155 -15946 0
-14157 15947 0
14157 -15947 0
-14159 15948 0
14159 -15948 0
-14161 15954 0
14161 -15954 0
-14163 15960 0
14163 -15960 0
-14165 15966 0
14165 -15966 0
-14167 15972 0
14167 -15972 0
-14169 15978 0
14169 -15978 0
-14171 15980 0
14171 -15980 0
-14173 15981 0
14173 -15981 0
-14175 15982 0
14175 -15982 0
-14177 15983 0
14177 -15983 0
-14179 15722 0
14179 -15722 0
-14181 15413 0
14181 -15413 0
-14183 15422 0
14183 -15422 0
-14185 15992 0
14185 -15992 0
-14187 15497 0
14187 -15497 0
-14189 15503 0
14189 -15503 0
-14191 15500 0
14191 -15500 0
-14193 15072 0
14193 -15072 0
-14195 15075 0
14195 -15075 0
-14197 14249 0
14197 -14249 0
-14199 14525 0
14199 -14525 0
-14201 16012 0
14201 -16012 0
-14203 14531 0
14203 -14531 0
14207 15650 0
-14207 -15650 0
16014 14207 0
-16014 -14207 0
14211 15834 0
-14211 -15834 0
16016 14211 0
-16016 -14211 0
14549 15531 0
-14549 -15531 0
15552 14215 0
-15552 -14215 0
14552 15531 0
-14552 -15531 0
14558 15531 0
-14558 -15531 0
14564 15531 0
-14564 -15531 0
15558 14223 0
-15558 -14223 0
14567 15531 0
-14567 -15531 0
14585 15531 0
-14585 -15531 0
15564 14229 0
-15564 -14229 0
14588 15531 0
-14588 -15531 0
14594 15531 0
-14594 -15531 0
14600 15531 0
-14600 -15531 0
14606 15531 0
-14606 -15531 0
14612 15531 0
-14612 -15531 0
14633 15531 0
-14633 -15531 0
14632 15266 0
-14632 -15266 0
15570 14630 0
-15570 -14630 0
15139 15524 0
-15139 -15524 0
15524 14249 0
-15524 -14249 0
14639 15531 0
-14639 -15531 0
15576 14253 0
-15576 -14253 0
14642 15531 0
-14642 -15531 0
14648 15531 0
-14648 -15531 0
14680 15784 0
-14680 -15784 0
14660 15531 0
-14660 -15531 0
15582 14263 0
-15582 -14263 0
14663 15531 0
-14663 -15531 0
15588 14267 0
-15588 -14267 0
14666 15531 0
-14666 -15531 0
14696 14718 0
-14696 -14718 0
14702 14718 0
-14702 -14718 0
14708 14718 0
-14708 -14718 0
14714 14718 0
-14714 -14718 0
14723 14718 0
-14723 -14718 0
15596 15640 0
-15596 -15640 0
14753 15531 0
-14753 -15531 0
15210 15228 0
-15210 -15228 0
14759 15531 0
-14759 -15531 0
15216 15228 0
-15216 -15228 0
14765 15531 0
-14765 -15531 0
15222 15228 0
-15222 -15228 0
14771 15531 0
-14771 -15531 0
15231 15228 0
-15231 -15228 0
15243 15273 0
-15243 -15273 0
15249 15273 0
-15249 -15273 0
15255 15527 0
-15255 -15527 0
15261 15527 0
-15261 -15527 0
15527 15075 0
-15527 -15075 0
15267 15518 0
-15267 -15518 0
15276 15273 0
-15276 -15273 0
14795 15277 0
-14795 -15277 0
14801 15277 0
-14801 -15277 0
14807 15277 0
-14807 -15277 0
14823 15280 0
-14823 -15280 0
14829 15280 0
-14829 -15280 0
14835 15280 0
-14835 -15280 0
14847 15283 0
-14847 -15283 0
14853 15283 0
-14853 -15283 0
14859 15531 0
-14859 -15531 0
14874 15286 0
-14874 -15286 0
14880 15286 0
-14880 -15286 0
14886 15531 0
-14886 -15531 0
14907 15531 0
-14907 -15531 0
14910 15531 0
-14910 -15531 0
14922 15297 0
-14922 -15297 0
14916 15531 0
-14916 -15531 0
14925 15920 0
-14925 -15920 0
14919 15531 0
-14919 -15531 0
14924 15482 0
-14924 -15482 0
14929 15653 0
-14929 -15653 0
14935 15653 0
-14935 -15653 0
14941 15653 0
-14941 -15653 0
14947 15653 0
-14947 -15653 0
15654 15531 0
-15654 -15531 0
15306 15318 0
-15306 -15318 0
15312 15318 0
-15312 -15318 0
15321 15318 0
-15321 -15318 0
15327 15336 0
-15327 -15336 0
15333 15336 0
-15333 -15336 0
15339 15336 0
-15339 -15336 0
15336 15294 0
-15336 -15294 0
14980 15032 0
-14980 -15032 0
14986 15032 0
-14986 -15032 0
14992 15032 0
-14992 -15032 0
14998 15032 0
-14998 -15032 0
15004 15032 0
-15004 -15032 0
15366 15423 0
-15366 -15423 0
15372 15423 0
-15372 -15423 0
15378 15423 0
-15378 -15423 0
15384 15423 0
-15384 -15423 0
15037 15032 0
-15037 -15032 0
15040 15984 0
-15040 -15984 0
15546 15989 0
-15546 -15989 0
15410 15408 0
-15410 -15408 0
15417 15423 0
-15417 -15423 0
15426 15423 0
-15426 -15423 0
15434 15914 0
-15434 -15914 0
15919 15723 0
-15919 -15723 0
15432 15518 0
-15432 -15518 0
15438 15518 0
-15438 -15518 0
15444 15518 0
-15444 -15518 0
15450 15518 0
-15450 -15518 0
15456 15518 0
-15456 -15518 0
15462 15518 0
-15462 -15518 0
15468 15518 0
-15468 -15518 0
15474 15518 0
-15474 -15518 0
15480 15518 0
-15480 -15518 0
15486 15518 0
-15486 -15518 0
15518 15072 0
-15518 -15072 0
15079 15531 0
-15079 -15531 0
15991 15078 0
-15991 -15078 0
14437 14435 0
-14437 -14435 0
15078 14437 0
-15078 -14437 0
15491 16012 0
-15491 -16012 0
15082 15531 0
-15082 -15531 0
15492 16011 0
-15492 -16011 0
15088 15531 0
-15088 -15531 0
15498 16011 0
-15498 -16011 0
15094 15531 0
-15094 -15531 0
15504 16011 0
-15504 -16011 0
14455 14453 0
-14455 -14453 0
16011 14455 0
-16011 -14455 0
15100 15525 0
-15100 -15525 0
15519 15525 0
-15519 -15525 0
15528 15525 0
-15528 -15525 0
14465 14463 0
-14465 -14463 0
15525 14465 0
-15525 -14465 0
14479 14467 0
-14479 -14467 0
14468 14479 0
-14468 -14479 0
15109 15531 0
-15109 -15531 0
15112 15531 0
-15112 -15531 0
15118 15531 0
-15118 -15531 0
15531 14477 0
-15531 -14477 0
15237 14479 0
-15237 -14479 0
14483 14481 0
-14483 -14481 0
15431 14483 0
-15431 -14483 0
14487 14485 0
-14487 -14485 0
15443 14487 0
-15443 -14487 0
14491 14489 0
-14491 -14489 0
15437 14491 0
-15437 -14491 0
14495 14493 0
-14495 -14493 0
15449 14495 0
-15449 -14495 0
14499 14497 0
-14499 -14497 0
15209 14499 0
-15209 -14499 0
14503 14501 0
-14503 -14501 0
15455 14503 0
-15455 -14503 0
14507 14505 0
-14507 -14505 0
15461 14507 0
-15461 -14507 0
14511 14509 0
-14511 -14509 0
15467 14511 0
-15467 -14511 0
14515 14513 0
-14515 -14513 0
15473 14515 0
-15473 -14515 0
14519 14517 0
-14519 -14517 0
15479 14519 0
-15479 -14519 0
14523 14521 0
-14523 -14521 0
15485 14523 0
-15485 -14523 0
14524 14525 0
-14524 -14525 0
14529 14527 0
-14529 -14527 0
14926 14529 0
-14926 -14529 0
14530 14531 0
-14530 -14531 0
-15629 15451 0
-15629 15454 0
15629 -15451 -15454 0
-15632 15457 0
-15632 15460 0
15632 -15457 -15460 0
-15635 15463 0
-15635 15466 0
15635 -15463 -15466 0
-15623 15469 0
-15623 15472 0
15623 -15469 -15472 0
-15626 15475 0
-15626 15478 0
15626 -15475 -15478 0
-16018 15547 0
-16018 14549 0
16018 -15547 -14549 0
-16020 15731 0
-16020 14552 0
16020 -15731 -14552 0
-15733 15735 0
-15733 15736 0
15733 -15735 -15736 0
-16022 15737 0
-16022 14558 0
16022 -15737 -14558 0
-15739 15741 0
-15739 15742 0
15739 -15741 -15742 0
-16024 15553 0
-16024 14564 0
16024 -15553 -14564 0
-16026 15743 0
-16026 14567 0
16026 -15743 -14567 0
-15745 15747 0
-15745 15748 0
15745 -15747 -15748 0
-15735 15728 0
-15735 15552 0
15735 -15728 -15552 0
-15741 15735 0
-15741 15736 0
15741 -15735 -15736 0
-15557 15741 0
-15557 15742 0
15557 -15741 -15742 0
-15747 15557 0
-15747 15558 0
15747 -15557 -15558 0
-16028 15559 0
-16028 14585 0
16028 -15559 -14585 0
-16030 15749 0
-16030 14588 0
16030 -15749 -14588 0
-15751 15753 0
-15751 15754 0
15751 -15753 -15754 0
-16032 15755 0
-16032 14594 0
16032 -15755 -14594 0
-15757 15759 0
-15757 15760 0
15757 -15759 -15760 0
-16034 15761 0
-16034 14600 0
16034 -15761 -14600 0
-15763 15765 0
-15763 15766 0
15763 -15765 -15766 0
-16036 15767 0
-16036 14606 0
16036 -15767 -14606 0
-15769 15771 0
-15769 15772 0
15769 -15771 -15772 0
-16038 15565 0
-16038 14612 0
16038 -15565 -14612 0
-15753 15563 0
-15753 15564 0
15753 -15563 -15564 0
-15759 15753 0
-15759 15754 0
15759 -15753 -15754 0
-15765 15759 0
-15765 15760 0
15765 -15759 -15760 0
-15771 15765 0
-15771 15766 0
15771 -15765 -15766 0
-15569 15771 0
-15569 15772 0
15569 -15771 -15772 0
-15145 15569 0
-15145 14630 0
15145 -15569 -14630 0
-16040 14632 0
-16040 14633 0
16040 -14632 -14633 0
-15248 15134 0
-15248 15137 0
15248 -15134 -15137 0
-16042 15571 0
-16042 14639 0
16042 -15571 -14639 0
-16044 15773 0
-16044 14642 0
16044 -15773 -14642 0
-15775 15777 0
-15775 15778 0
15775 -15777 -15778 0
-16046 15779 0
-16046 14648 0
16046 -15779 -14648 0
-15781 15783 0
-15781 15784 0
15781 -15783 -15784 0
-15777 15575 0
-15777 15576 0
15777 -15575 -15576 0
-15783 15777 0
-15783 15778 0
15783 -15777 -15778 0
-16048 15577 0
-16048 14660 0
16048 -15577 -14660 0
-16050 15583 0
-16050 14663 0
16050 -15583 -14663 0
-16052 15785 0
-16052 14666 0
16052 -15785 -14666 0
-15787 15789 0
-15787 15790 0
15787 -15789 -15790 0
-15587 15859 0
-15587 15582 0
15587 -15859 -15582 0
-15789 15587 0
-15789 15588 0
15789 -15587 -15588 0
-15239 15783 0
-15239 15784 0
15239 -15783 -15784 0
-15272 14680 0
-15272 15783 0
15272 -14680 -15783 0
-15133 15747 0
-15133 15748 0
15133 -15747 -15748 0
-15142 15569 0
-15142 15570 0
15142 -15569 -15570 0
-15354 15789 0
-15354 15790 0
15354 -15789 -15790 0
-15251 15907 0
-15251 15908 0
15251 -15907 -15908 0
-16054 15791 0
-16054 14696 0
16054 -15791 -14696 0
-15793 15828 0
-15793 15796 0
15793 -15828 -15796 0
-16056 15797 0
-16056 14702 0
16056 -15797 -14702 0
-15799 15801 0
-15799 15802 0
15799 -15801 -15802 0
-16058 15803 0
-16058 14708 0
16058 -15803 -14708 0
-15805 15807 0
-15805 15808 0
15805 -15807 -15808 0
-16060 15809 0
-16060 14714 0
16060 -15809 -14714 0
-15811 15813 0
-15811 15814 0
15811 -15813 -15814 0
-14718 15439 0
-14718 15442 0
14718 -15439 -15442 0
-16062 15815 0
-16062 14723 0
16062 -15815 -14723 0
-15817 15819 0
-15817 15820 0
15817 -15819 -15820 0
-15801 15828 0
-15801 15796 0
15801 -15828 -15796 0
-15807 15801 0
-15807 15802 0
15807 -15801 -15802 0
-15813 15807 0
-15813 15808 0
15813 -15807 -15808 0
-15819 15813 0
-15819 15814 0
15819 -15813 -15814 0
-15166 15158 0
-15166 15827 0
15166 -15158 -15827 0
-15172 15161 0
-15172 15164 0
15172 -15161 -15164 0
-15178 15167 0
-15178 15170 0
15178 -15167 -15170 0
-15184 15173 0
-15184 15176 0
15184 -15173 -15176 0
-16064 14754 0
-16064 14753 0
16064 -14754 -14753 0
-14754 15205 0
-14754 15208 0
14754 -15205 -15208 0
-16066 14760 0
-16066 14759 0
16066 -14760 -14759 0
-14760 15211 0
-14760 15214 0
14760 -15211 -15214 0
-16068 14766 0
-16068 14765 0
16068 -14766 -14765 0
-14766 15217 0
-14766 15220 0
14766 -15217 -15220 0
-16070 14772 0
-16070 14771 0
16070 -14772 -14771 0
-14772 15226 0
-14772 15229 0
14772 -15226 -15229 0
-15835 15652 0
-15835 15237 0
15835 -15652 -15237 0
-15832 15650 0
-15832 15237 0
15832 -15650 -15237 0
-15877 15238 0
-15877 15241 0
15877 -15238 -15241 0
-15290 15250 0
-15290 15253 0
15290 -15250 -15253 0
-15263 15256 0
-15263 15259 0
15263 -15256 -15259 0
-15895 15841 0
-15895 15854 0
15895 -15841 -15854 0
-16072 15837 0
-16072 14795 0
16072 -15837 -14795 0
-15839 15841 0
-15839 15842 0
15839 -15841 -15842 0
-16074 15843 0
-16074 14801 0
16074 -15843 -14801 0
-15845 15847 0
-15845 15848 0
15845 -15847 -15848 0
-16076 15849 0
-16076 14807 0
16076 -15849 -14807 0
-15851 15853 0
-15851 15854 0
15851 -15853 -15854 0
-15847 15841 0
-15847 15842 0
15847 -15841 -15842 0
-15853 15847 0
-15853 15848 0
15853 -15847 -15848 0
-15282 15859 0
-15282 15860 0
-15282 15872 0
15282 -15859 -15860 -15872 0
-16078 15855 0
-16078 14823 0
16078 -15855 -14823 0
-15857 15859 0
-15857 15860 0
15857 -15859 -15860 0
-16080 15861 0
-16080 14829 0
16080 -15861 -14829 0
-15863 15865 0
-15863 15866 0
15863 -15865 -15866 0
-16082 15867 0
-16082 14835 0
16082 -15867 -14835 0
-15869 15871 0
-15869 15872 0
15869 -15871 -15872 0
-15865 15859 0
-15865 15860 0
15865 -15859 -15860 0
-15871 15865 0
-15871 15866 0
15871 -15865 -15866 0
-16084 15873 0
-16084 14847 0
16084 -15873 -14847 0
-15875 15877 0
-15875 15878 0
15875 -15877 -15878 0
-16086 15879 0
-16086 14853 0
16086 -15879 -14853 0
-15881 15883 0
-15881 15884 0
15881 -15883 -15884 0
-16088 15885 0
-16088 14859 0
16088 -15885 -14859 0
-15887 15889 0
-15887 15890 0
15887 -15889 -15890 0
-15883 15877 0
-15883 15878 0
15883 -15877 -15878 0
-15889 15877 0
-15889 15884 0
15889 -15877 -15884 0
-15357 15889 0
-15357 15890 0
15357 -15889 -15890 0
-16090 15891 0
-16090 14874 0
16090 -15891 -14874 0
-15893 15895 0
-15893 15896 0
15893 -15895 -15896 0
-16092 15897 0
-16092 14880 0
16092 -15897 -14880 0
-15899 15901 0
-15899 15902 0
15899 -15901 -15902 0
-16094 15903 0
-16094 14886 0
16094 -15903 -14886 0
-15905 15907 0
-15905 15908 0
15905 -15907 -15908 0
-15901 15895 0
-15901 15896 0
15901 -15895 -15896 0
-15907 15895 0
-15907 15902 0
15907 -15895 -15902 0
-15045 15271 0
-15045 15274 0
15045 -15271 -15274 0
-15985 15244 0
-15985 15247 0
15985 -15244 -15247 0
-15605 15262 0
-15605 15265 0
15605 -15262 -15265 0
-16096 15292 0
-16096 14907 0
16096 -15292 -14907 0
-16098 15909 0
-16098 14910 0
16098 -15909 -14910 0
-15910 15919 0
-15910 15336 0
15910 -15919 -15336 0
-16100 15295 0
-16100 14916 0
16100 -15295 -14916 0
-16102 15915 0
-16102 14919 0
16102 -15915 -14919 0
-15916 15919 0
-15916 14922 0
15916 -15919 -14922 0
-15428 14924 0
-15428 14925 0
-15428 14926 0
15428 -14924 -14925 -14926 0
-16104 15921 0
-16104 14929 0
16104 -15921 -14929 0
-15923 15925 0
-15923 15926 0
15923 -15925 -15926 0
-16106 15927 0
-16106 14935 0
16106 -15927 -14935 0
-15929 15931 0
-15929 15932 0
15929 -15931 -15932 0
-16108 15933 0
-16108 14941 0
16108 -15933 -14941 0
-15935 15937 0
-15935 15938 0
15935 -15937 -15938 0
-16110 15939 0
-16110 14947 0
16110 -15939 -14947 0
-15941 15943 0
-15941 15944 0
15941 -15943 -15944 0
-15931 15925 0
-15931 15926 0
15931 -15925 -15926 0
-15937 15931 0
-15937 15932 0
15937 -15931 -15932 0
-15943 15937 0
-15943 15938 0
15943 -15937 -15938 0
-15305 15322 0
-15305 15325 0
15305 -15322 -15325 0
-15311 15328 0
-15311 15331 0
15311 -15328 -15331 0
-15320 15334 0
-15320 15337 0
15320 -15334 -15337 0
-16112 15301 0
-16112 15304 0
16112 -15301 -15304 0
-16114 15307 0
-16114 15310 0
16114 -15307 -15310 0
-16116 15316 0
-16116 15319 0
16116 -15316 -15319 0
-16118 15949 0
-16118 14980 0
16118 -15949 -14980 0
-15951 15953 0
-15951 15954 0
15951 -15953 -15954 0
-16120 15955 0
-16120 14986 0
16120 -15955 -14986 0
-15957 15959 0
-15957 15960 0
15957 -15959 -15960 0
-16122 15961 0
-16122 14992 0
16122 -15961 -14992 0
-15963 15965 0
-15963 15966 0
15963 -15965 -15966 0
-16124 15967 0
-16124 14998 0
16124 -15967 -14998 0
-15969 15971 0
-15969 15972 0
15969 -15971 -15972 0
-16126 15973 0
-16126 15004 0
16126 -15973 -15004 0
-15975 15977 0
-15975 15978 0
15975 -15977 -15978 0
-15959 15953 0
-15959 15954 0
15959 -15953 -15954 0
-15965 15959 0
-15965 15960 0
15965 -15959 -15960 0
-15971 15965 0
-15971 15966 0
15971 -15965 -15966 0
-15977 15971 0
-15977 15972 0
15977 -15971 -15972 0
-16128 15361 0
-16128 15364 0
16128 -15361 -15364 0
-16130 15367 0
-16130 15370 0
16130 -15367 -15370 0
-16132 15373 0
-16132 15376 0
16132 -15373 -15376 0
-16134 15379 0
-16134 15382 0
16134 -15379 -15382 0
-15032 15445 0
-15032 15448 0
15032 -15445 -15448 0
-16136 15400 0
-16136 15037 0
16136 -15400 -15037 0
-15401 15403 0
-15401 15040 0
15401 -15403 -15040 0
-15408 15433 0
-15408 15436 0
15408 -15433 -15436 0
-15953 15045 0
-15953 15986 0
15953 -15045 -15986 0
-16138 15412 0
-16138 15415 0
16138 -15412 -15415 0
-16140 15421 0
-16140 15424 0
16140 -15421 -15424 0
-15594 15481 0
-15594 15484 0
15594 -15481 -15484 0
-15604 15427 0
-15604 15430 0
15604 -15427 -15430 0
-16003 15133 0
-16003 15491 0
16003 -15133 -15491 0
-16004 15142 0
-16004 15497 0
16004 -15142 -15497 0
-16005 15354 0
-16005 15503 0
16005 -15354 -15503 0
-16006 15251 0
-16006 15500 0
16006 -15251 -15500 0
-15314 15072 0
-15314 15653 0
15314 -15072 -15653 0
-15419 15075 0
-15419 15653 0
15419 -15075 -15653 0
-16142 15078 0
-16142 15079 0
16142 -15078 -15079 0
-16144 15083 0
-16144 15082 0
16144 -15083 -15082 0
-15083 15487 0
-15083 15490 0
15083 -15487 -15490 0
-16146 15089 0
-16146 15088 0
16146 -15089 -15088 0
-15089 15493 0
-15089 15496 0
15089 -15493 -15496 0
-16148 15095 0
-16148 15094 0
16148 -15095 -15094 0
-15095 15499 0
-15095 15502 0
15095 -15499 -15502 0
-15994 15508 0
-15994 15100 0
15994 -15508 -15100 0
-15997 15514 0
-15997 15517 0
15997 -15514 -15517 0
-16000 15523 0
-16000 15526 0
16000 -15523 -15526 0
-16156 15589 0
-16156 15109 0
16156 -15589 -15109 0
-16158 16007 0
-16158 15112 0
16158 -16007 -15112 0
-16008 16011 0
-16008 15500 0
16008 -16011 -15500 0
-16160 15987 0
-16160 15118 0
16160 -15987 -15118 0
15549 -15728 0
15549 -15552 0
-15549 15728 15552 0
15555 -15557 0
15555 -15558 0
-15555 15557 15558 0
15561 -15563 0
15561 -15564 0
-15561 15563 15564 0
15567 -15569 0
15567 -15570 0
-15567 15569 15570 0
15563 -15524 0
15563 -15133 0
-15563 15524 15133 0
15134 -15570 0
15134 -15524 0
-15134 15570 15524 0
15137 -15266 0
15137 -15139 0
-15137 15266 15139 0
15859 -15524 0
15859 -15142 0
-15859 15524 15142 0
15275 -15524 0
15275 -15145 0
-15275 15524 15145 0
15573 -15575 0
15573 -15576 0
-15573 15575 15576 0
15579 -15859 0
15579 -15582 0
-15579 15859 15582 0
15585 -15587 0
15585 -15588 0
-15585 15587 15588 0
15591 -15604 0
15591 -15599 0
-15591 15604 15599 0
15158 -15629 0
15158 -15796 0
-15158 15629 15796 0
15161 -15632 0
15161 -15802 0
-15161 15632 15802 0
15164 -15826 0
15164 -15166 0
-15164 15826 15166 0
15167 -15635 0
15167 -15808 0
-15167 15635 15808 0
15170 -15824 0
15170 -15172 0
-15170 15824 15172 0
15173 -15623 0
15173 -15814 0
-15173 15623 15814 0
15176 -15823 0
15176 -15178 0
-15176 15823 15178 0
15729 -15626 0
15729 -15820 0
-15729 15626 15820 0
15730 -15822 0
15730 -15184 0
-15730 15822 15184 0
15608 -15796 0
15608 -15629 0
-15608 15796 15629 0
15611 -15802 0
15611 -15632 0
-15611 15802 15632 0
15614 -15808 0
15614 -15635 0
-15614 15808 15635 0
15617 -15814 0
15617 -15623 0
-15617 15814 15623 0
15620 -15820 0
15620 -15626 0
-15620 15820 15626 0
15233 -15643 0
15233 -15644 0
15233 -15645 0
15233 -15646 0
-15233 15643 15644 15645 15646 0
15205 -15646 0
15205 -15228 0
-15205 15646 15228 0
15208 -15209 0
15208 -15210 0
-15208 15209 15210 0
15211 -15645 0
15211 -15228 0
-15211 15645 15228 0
15214 -15646 0
15214 -15216 0
-15214 15646 15216 0
15217 -15644 0
15217 -15228 0
-15217 15644 15228 0
15220 -15645 0
15220 -15222 0
-15220 15645 15222 0
15228 -15282 0
15228 -15527 0
-15228 15282 15527 0
15226 -15643 0
15226 -15228 0
-15226 15643 15228 0
15229 -15644 0
15229 -15231 0
-15229 15644 15231 0
15648 -15233 0
15648 -15237 0
-15648 15233 15237 0
15651 -15829 0
15651 -15237 0
-15651 15829 15237 0
15238 -15239 0
15238 -15273 0
-15238 15239 15273 0
15241 -15859 0
15241 -15243 0
-15241 15859 15243 0
15244 -15784 0
15244 -15273 0
-15244 15784 15273 0
15247 -15248 0
15247 -15249 0
-15247 15248 15249 0
15250 -15251 0
15250 -15527 0
-15250 15251 15527 0
15253 -15357 0
15253 -15255 0
-15253 15357 15255 0
15256 -15908 0
15256 -15527 0
-15256 15908 15527 0
15259 -15890 0
15259 -15261 0
-15259 15890 15261 0
15262 -15263 0
15262 -15518 0
-15262 15263 15518 0
15265 -15266 0
15265 -15267 0
-15265 15266 15267 0
15273 -15428 0
15273 -15518 0
-15273 15428 15518 0
15271 -15272 0
15271 -15273 0
-15271 15272 15273 0
15274 -15275 0
15274 -15276 0
-15274 15275 15276 0
15277 -15531 0
15277 -15895 0
-15277 15531 15895 0
15280 -15531 0
15280 -15282 0
-15280 15531 15282 0
15283 -15531 0
15283 -15889 0
-15283 15531 15889 0
15286 -15531 0
15286 -15907 0
-15286 15531 15907 0
15925 -15290 0
15925 -15518 0
-15925 15290 15518 0
15292 -15985 0
15292 -15294 0
-15292 15985 15294 0
15295 -15919 0
15295 -15297 0
-15295 15919 15297 0
15482 -15722 0
15482 -15986 0
-15482 15722 15986 0
15301 -15946 0
15301 -15318 0
-15301 15946 15318 0
15304 -15305 0
15304 -15306 0
-15304 15305 15306 0
15307 -15947 0
15307 -15318 0
-15307 15947 15318 0
15310 -15311 0
15310 -15312 0
-15310 15311 15312 0
15318 -15314 0
15318 -15531 0
-15318 15314 15531 0
15316 -15948 0
15316 -15318 0
-15316 15948 15318 0
15319 -15320 0
15319 -15321 0
-15319 15320 15321 0
15322 -15473 0
15322 -15336 0
-15322 15473 15336 0
15325 -15455 0
15325 -15327 0
-15325 15455 15327 0
15328 -15479 0
15328 -15336 0
-15328 15479 15336 0
15331 -15461 0
15331 -15333 0
-15331 15461 15333 0
15334 -15485 0
15334 -15336 0
-15334 15485 15336 0
15337 -15467 0
15337 -15339 0
-15337 15467 15339 0
15658 -15946 0
15658 -15926 0
-15658 15946 15926 0
15661 -15947 0
15661 -15932 0
-15661 15947 15932 0
15664 -15948 0
15664 -15938 0
-15664 15948 15938 0
15667 -15945 0
15667 -15944 0
-15667 15945 15944 0
15575 -15527 0
15575 -15354 0
-15575 15527 15354 0
15841 -15527 0
15841 -15357 0
-15841 15527 15357 0
15986 -15680 0
15986 -15684 0
-15986 15680 15684 0
15361 -15980 0
15361 -15423 0
-15361 15980 15423 0
15364 -15431 0
15364 -15366 0
-15364 15431 15366 0
15367 -15981 0
15367 -15423 0
-15367 15981 15423 0
15370 -15443 0
15370 -15372 0
-15370 15443 15372 0
15373 -15982 0
15373 -15423 0
-15373 15982 15423 0
15376 -15437 0
15376 -15378 0
-15376 15437 15378 0
15379 -15983 0
15379 -15423 0
-15379 15983 15423 0
15382 -15449 0
15382 -15384 0
-15382 15449 15384 0
15689 -15980 0
15689 -15954 0
-15689 15980 15954 0
15692 -15981 0
15692 -15960 0
-15692 15981 15960 0
15695 -15982 0
15695 -15966 0
-15695 15982 15966 0
15698 -15983 0
15698 -15972 0
-15698 15983 15972 0
15701 -15979 0
15701 -15978 0
-15701 15979 15978 0
15400 -15401 0
15400 -15953 0
-15400 15401 15953 0
15403 -15722 0
15403 -15984 0
-15403 15722 15984 0
15718 -15422 0
15718 -15408 0
-15718 15422 15408 0
15719 -15410 0
15719 -15413 0
-15719 15410 15413 0
15412 -15413 0
15412 -15423 0
-15412 15413 15423 0
15415 -15525 0
15415 -15417 0
-15415 15525 15417 0
15423 -15419 0
15423 -15531 0
-15423 15419 15531 0
15421 -15422 0
15421 -15423 0
-15421 15422 15423 0
15424 -16011 0
15424 -15426 0
-15424 16011 15426 0
15427 -15428 0
15427 -15518 0
-15427 15428 15518 0
15430 -15431 0
15430 -15432 0
-15430 15431 15432 0
15433 -15434 0
15433 -15518 0
-15433 15434 15518 0
15436 -15437 0
15436 -15438 0
-15436 15437 15438 0
15439 -15653 0
15439 -15518 0
-15439 15653 15518 0
15442 -15443 0
15442 -15444 0
-15442 15443 15444 0
15445 -15653 0
15445 -15518 0
-15445 15653 15518 0
15448 -15449 0
15448 -15450 0
-15448 15449 15450 0
15451 -15532 0
15451 -15518 0
-15451 15532 15518 0
15454 -15455 0
15454 -15456 0
-15454 15455 15456 0
15457 -15535 0
15457 -15518 0
-15457 15535 15518 0
15460 -15461 0
15460 -15462 0
-15460 15461 15462 0
15463 -15538 0
15463 -15518 0
-15463 15538 15518 0
15466 -15467 0
15466 -15468 0
-15466 15467 15468 0
15469 -15541 0
15469 -15518 0
-15469 15541 15518 0
15472 -15473 0
15472 -15474 0
-15472 15473 15474 0
15475 -15544 0
15475 -15518 0
-15475 15544 15518 0
15478 -15479 0
15478 -15480 0
-15478 15479 15480 0
15481 -15482 0
15481 -15518 0
-15481 15482 15518 0
15484 -15485 0
15484 -15486 0
-15484 15485 15486 0
15487 -15497 0
15487 -16011 0
-15487 15497 16011 0
15490 -15491 0
15490 -15492 0
-15490 15491 15492 0
15493 -15503 0
15493 -16011 0
-15493 15503 16011 0
15496 -15497 0
15496 -15498 0
-15496 15497 15498 0
15499 -15500 0
15499 -16011 0
-15499 15500 16011 0
15502 -15503 0
15502 -15504 0
-15502 15503 15504 0
16150 -15993 0
16150 -15529 0
-16150 15993 15529 0
15508 -15518 0
15508 -15525 0
-15508 15518 15525 0
16152 -15996 0
16152 -15529 0
-16152 15996 15529 0
15514 -15527 0
15514 -15525 0
-15514 15527 15525 0
15517 -15518 0
15517 -15519 0
-15517 15518 15519 0
16154 -15999 0
16154 -15529 0
-16154 15999 15529 0
15523 -15524 0
15523 -15525 0
-15523 15524 15525 0
15526 -15527 0
15526 -15528 0
-15526 15527 15528 0
15529 -15991 0
15529 -15531 0
-15529 15991 15531 0
15532 15954 0
15532 15546 0
-15532 -15954 -15546 0
15535 15960 0
15535 15546 0
-15535 -15960 -15546 0
15538 15966 0
15538 15546 0
-15538 -15966 -15546 0
15541 15972 0
15541 15546 0
-15541 -15972 -15546 0
15544 15978 0
15544 15546 0
-15544 -15978 -15546 0
15547 15550 0
15547 15549 0
-15547 -15550 -15549 0
15550 15728 0
15550 15552 0
-15550 -15728 -15552 0
15553 15556 0
15553 15555 0
-15553 -15556 -15555 0
15556 15557 0
15556 15558 0
-15556 -15557 -15558 0
15559 15562 0
15559 15561 0
-15559 -15562 -15561 0
15562 15563 0
15562 15564 0
-15562 -15563 -15564 0
15565 15568 0
15565 15567 0
-15565 -15568 -15567 0
15568 15569 0
15568 15570 0
-15568 -15569 -15570 0
15571 15574 0
15571 15573 0
-15571 -15574 -15573 0
15574 15575 0
15574 15576 0
-15574 -15575 -15576 0
15577 15580 0
15577 15579 0
-15577 -15580 -15579 0
15580 15859 0
15580 15582 0
-15580 -15859 -15582 0
15583 15586 0
15583 15585 0
-15583 -15586 -15585 0
15586 15587 0
15586 15588 0
-15586 -15587 -15588 0
15589 15603 0
15589 15591 0
-15589 -15603 -15591 0
15602 15985 0
15602 15594 0
-15602 -15985 -15594 0
15601 15596 0
15601 15639 0
15601 15985 0
-15601 -15596 -15639 -15985 0
15599 15728 0
15599 15601 0
15599 15602 0
-15599 -15728 -15601 -15602 0
15603 15604 0
15603 15605 0
-15603 -15604 -15605 0
15827 15627 0
15827 15608 0
-15827 -15627 -15608 0
15826 15630 0
15826 15611 0
-15826 -15630 -15611 0
15824 15633 0
15824 15614 0
-15824 -15633 -15614 0
15823 15621 0
15823 15617 0
-15823 -15621 -15617 0
15822 15624 0
15822 15620 0
-15822 -15624 -15620 0
15621 15814 0
15621 15623 0
-15621 -15814 -15623 0
15624 15820 0
15624 15626 0
-15624 -15820 -15626 0
15627 15796 0
15627 15629 0
-15627 -15796 -15629 0
15630 15802 0
15630 15632 0
-15630 -15802 -15632 0
15633 15808 0
15633 15635 0
-15633 -15808 -15635 0
15640 15821 0
15640 15825 0
-15640 -15821 -15825 0
15639 15640 0
15639 15728 0
-15639 -15640 -15728 0
15829 15643 0
15829 15644 0
15829 15645 0
15829 15646 0
-15829 -15643 -15644 -15645 -15646 0
15652 15648 0
15652 15649 0
-15652 -15648 -15649 0
15650 15651 0
15650 15652 0
-15650 -15651 -15652 0
15653 15654 0
15653 15723 0
-15653 -15654 -15723 0
15724 15668 0
15724 15658 0
-15724 -15668 -15658 0
15725 15671 0
15725 15661 0
-15725 -15671 -15661 0
15726 15674 0
15726 15664 0
-15726 -15674 -15664 0
15727 15677 0
15727 15667 0
-15727 -15677 -15667 0
15668 15946 0
15668 15926 0
-15668 -15946 -15926 0
15671 15947 0
15671 15932 0
-15671 -15947 -15932 0
15674 15948 0
15674 15938 0
-15674 -15948 -15938 0
15677 15945 0
15677 15944 0
-15677 -15945 -15944 0
15680 15687 0
15680 15690 0
15680 15693 0
-15680 -15687 -15690 -15693 0
15684 15696 0
15684 15699 0
-15684 -15696 -15699 0
15687 15702 0
15687 15689 0
-15687 -15702 -15689 0
15690 15705 0
15690 15692 0
-15690 -15705 -15692 0
15693 15708 0
15693 15695 0
-15693 -15708 -15695 0
15696 15711 0
15696 15698 0
-15696 -15711 -15698 0
15699 15714 0
15699 15701 0
-15699 -15714 -15701 0
15702 15980 0
15702 15954 0
-15702 -15980 -15954 0
15705 15981 0
15705 15960 0
-15705 -15981 -15960 0
15708 15982 0
15708 15966 0
-15708 -15982 -15966 0
15711 15983 0
15711 15972 0
-15711 -15983 -15972 0
15714 15979 0
15714 15978 0
-15714 -15979 -15978 0
15989 15718 0
15989 15719 0
-15989 -15718 -15719 0
15988 15985 0
15988 15722 0
-15988 -15985 -15722 0
15723 15724 0
15723 15725 0
15723 15726 0
15723 15727 0
-15723 -15724 -15725 -15726 -15727 0
15728 15729 0
15728 15730 0
-15728 -15729 -15730 0
-15731 -15734 0
-15731 -15733 0
15731 15734 15733 0
-15734 -15735 0
-15734 -15736 0
15734 15735 15736 0
-15737 -15740 0
-15737 -15739 0
15737 15740 15739 0
-15740 -15741 0
-15740 -15742 0
15740 15741 15742 0
-15743 -15746 0
-15743 -15745 0
15743 15746 15745 0
-15746 -15747 0
-15746 -15748 0
15746 15747 15748 0
-15749 -15752 0
-15749 -15751 0
15749 15752 15751 0
-15752 -15753 0
-15752 -15754 0
15752 15753 15754 0
-15755 -15758 0
-15755 -15757 0
15755 15758 15757 0
-15758 -15759 0
-15758 -15760 0
15758 15759 15760 0
-15761 -15764 0
-15761 -15763 0
15761 15764 15763 0
-15764 -15765 0
-15764 -15766 0
15764 15765 15766 0
-15767 -15770 0
-15767 -15769 0
15767 15770 15769 0
-15770 -15771 0
-15770 -15772 0
15770 15771 15772 0
-15773 -15776 0
-15773 -15775 0
15773 15776 15775 0
-15776 -15777 0
-15776 -15778 0
15776 15777 15778 0
-15779 -15782 0
-15779 -15781 0
15779 15782 15781 0
-15782 -15783 0
-15782 -15784 0
15782 15783 15784 0
-15785 -15788 0
-15785 -15787 0
15785 15788 15787 0
-15788 -15789 0
-15788 -15790 0
15788 15789 15790 0
-15791 -15794 0
-15791 -15793 0
15791 15794 15793 0
-15794 -15828 0
-15794 -15796 0
15794 15828 15796 0
-15797 -15800 0
-15797 -15799 0
15797 15800 15799 0
-15800 -15801 0
-15800 -15802 0
15800 15801 15802 0
-15803 -15806 0
-15803 -15805 0
15803 15806 15805 0
-15806 -15807 0
-15806 -15808 0
15806 15807 15808 0
-15809 -15812 0
-15809 -15811 0
15809 15812 15811 0
-15812 -15813 0
-15812 -15814 0
15812 15813 15814 0
-15815 -15818 0
-15815 -15817 0
15815 15818 15817 0
-15818 -15819 0
-15818 -15820 0
15818 15819 15820 0
-15821 -15822 0
-15821 -15823 0
-15821 -15824 0
15821 15822 15823 15824 0
-15825 -15826 0
-15825 -15827 0
15825 15826 15827 0
-15828 -15829 0
-15828 -15834 0
15828 15829 15834 0
-15836 -15832 0
-15836 -15833 0
15836 15832 15833 0
-15834 -15835 0
-15834 -15836 0
15834 15835 15836 0
-15837 -15840 0
-15837 -15839 0
15837 15840 15839 0
-15840 -15841 0
-15840 -15842 0
15840 15841 15842 0
-15843 -15846 0
-15843 -15845 0
15843 15846 15845 0
-15846 -15847 0
-15846 -15848 0
15846 15847 15848 0
-15849 -15852 0
-15849 -15851 0
15849 15852 15851 0
-15852 -15853 0
-15852 -15854 0
15852 15853 15854 0
-15855 -15858 0
-15855 -15857 0
15855 15858 15857 0
-15858 -15859 0
-15858 -15860 0
15858 15859 15860 0
-15861 -15864 0
-15861 -15863 0
15861 15864 15863 0
-15864 -15865 0
-15864 -15866 0
15864 15865 15866 0
-15867 -15870 0
-15867 -15869 0
15867 15870 15869 0
-15870 -15871 0
-15870 -15872 0
15870 15871 15872 0
-15873 -15876 0
-15873 -15875 0
15873 15876 15875 0
-15876 -15877 0
-15876 -15878 0
15876 15877 15878 0
-15879 -15882 0
-15879 -15881 0
15879 15882 15881 0
-15882 -15883 0
-15882 -15884 0
15882 15883 15884 0
-15885 -15888 0
-15885 -15887 0
15885 15888 15887 0
-15888 -15889 0
-15888 -15890 0
15888 15889 15890 0
-15891 -15894 0
-15891 -15893 0
15891 15894 15893 0
-15894 -15895 0
-15894 -15896 0
15894 15895 15896 0
-15897 -15900 0
-15897 -15899 0
15897 15900 15899 0
-15900 -15901 0
-15900 -15902 0
15900 15901 15902 0
-15903 -15906 0
-15903 -15905 0
15903 15906 15905 0
-15906 -15907 0
-15906 -15908 0
15906 15907 15908 0
-15909 -15910 0
-15909 -15912 0
15909 15910 15912 0
-15912 -15919 0
-15912 -15914 0
15912 15919 15914 0
-15915 -15916 0
-15915 -15918 0
15915 15916 15918 0
-15918 -15919 0
-15918 -15920 0
15918 15919 15920 0
-15921 -15924 0
-15921 -15923 0
15921 15924 15923 0
-15924 -15925 0
-15924 -15926 0
15924 15925 15926 0
-15927 -15930 0
-15927 -15929 0
15927 15930 15929 0
-15930 -15931 0
-15930 -15932 0
15930 15931 15932 0
-15933 -15936 0
-15933 -15935 0
15933 15936 15935 0
-15936 -15937 0
-15936 -15938 0
15936 15937 15938 0
-15939 -15942 0
-15939 -15941 0
15939 15942 15941 0
-15942 -15943 0
-15942 -15944 0
15942 15943 15944 0
-15945 -15946 0
-15945 -15947 0
-15945 -15948 0
15945 15946 15947 15948 0
-15949 -15952 0
-15949 -15951 0
15949 15952 15951 0
-15952 -15953 0
-15952 -15954 0
15952 15953 15954 0
-15955 -15958 0
-15955 -15957 0
15955 15958 15957 0
-15958 -15959 0
-15958 -15960 0
15958 15959 15960 0
-15961 -15964 0
-15961 -15963 0
15961 15964 15963 0
-15964 -15965 0
-15964 -15966 0
15964 15965 15966 0
-15967 -15970 0
-15967 -15969 0
15967 15970 15969 0
-15970 -15971 0
-15970 -15972 0
15970 15971 15972 0
-15973 -15976 0
-15973 -15975 0
15973 15976 15975 0
-15976 -15977 0
-15976 -15978 0
15976 15977 15978 0
-15979 -15980 0
-15979 -15981 0
-15979 -15982 0
-15979 -15983 0
15979 15980 15981 15982 15983 0
-15984 -15985 0
-15984 -15986 0
15984 15985 15986 0
-15987 -15988 0
-15987 -15989 0
15987 15988 15989 0
-16001 -15991 0
-16001 -15992 0
16001 15991 15992 0
-15993 -15994 0
-15993 -16001 0
15993 15994 16001 0
-15996 -15997 0
-15996 -16001 0
15996 15997 16001 0
-15999 -16000 0
-15999 -16001 0
15999 16000 16001 0
-16002 -16003 0
-16002 -16004 0
-16002 -16005 0
-16002 -16006 0
16002 16003 16004 16005 16006 0
-16007 -16008 0
-16007 -16010 0
16007 16008 16010 0
-16010 -16011 0
-16010 -16012 0
16010 16011 16012 0
-16014 17606 0
16014 -17606 0
-16016 17790 0
16016 -17790 0
-16018 16172 0
16018 -16172 0
-16020 17693 0
16020 -17693 0
-16022 17699 0
16022 -17699 0
-16024 16180 0
16024 -16180 0
-16026 17705 0
16026 -17705 0
-16028 16186 0
16028 -16186 0
-16030 17711 0
16030 -17711 0
-16032 17717 0
16032 -17717 0
-16034 17723 0
16034 -17723 0
-16036 17729 0
16036 -17729 0
-16038 16587 0
16038 -16587 0
-16040 17223 0
16040 -17223 0
-16042 16210 0
16042 -16210 0
-16044 17735 0
16044 -17735 0
-16046 17741 0
16046 -17741 0
-16048 16220 0
16048 -16220 0
-16050 16224 0
16050 -16224 0
-16052 17747 0
16052 -17747 0
-16054 17753 0
16054 -17753 0
-16056 17759 0
16056 -17759 0
-16058 17765 0
16058 -17765 0
-16060 17771 0
16060 -17771 0
-16062 17777 0
16062 -17777 0
-16064 17603 0
16064 -17603 0
-16066 17602 0
16066 -17602 0
-16068 17601 0
16068 -17601 0
-16070 17600 0
16070 -17600 0
-16072 17799 0
16072 -17799 0
-16074 17805 0
16074 -17805 0
-16076 17811 0
16076 -17811 0
-16078 17817 0
16078 -17817 0
-16080 17823 0
16080 -17823 0
-16082 17829 0
16082 -17829 0
-16084 17835 0
16084 -17835 0
-16086 17841 0
16086 -17841 0
-16088 17847 0
16088 -17847 0
-16090 17853 0
16090 -17853 0
-16092 17859 0
16092 -17859 0
-16094 17865 0
16094 -17865 0
-16096 17251 0
16096 -17251 0
-16098 17871 0
16098 -17871 0
-16100 17254 0
16100 -17254 0
-16102 17877 0
16102 -17877 0
-16104 17883 0
16104 -17883 0
-16106 17889 0
16106 -17889 0
-16108 17895 0
16108 -17895 0
-16110 17901 0
16110 -17901 0
-16112 17903 0
16112 -17903 0
-16114 17904 0
16114 -17904 0
-16116 17905 0
16116 -17905 0
-16118 17911 0
16118 -17911 0
-16120 17917 0
16120 -17917 0
-16122 17923 0
16122 -17923 0
-16124 17929 0
16124 -17929 0
-16126 17935 0
16126 -17935 0
-16128 17937 0
16128 -17937 0
-16130 17938 0
16130 -17938 0
-16132 17939 0
16132 -17939 0
-16134 17940 0
16134 -17940 0
-16136 17679 0
16136 -17679 0
-16138 17370 0
16138 -17370 0
-16140 17379 0
16140 -17379 0
-16142 17949 0
16142 -17949 0
-16144 17454 0
16144 -17454 0
-16146 17460 0
16146 -17460 0
-16148 17457 0
16148 -17457 0
-16150 17029 0
16150 -17029 0
-16152 17032 0
16152 -17032 0
-16154 16206 0
16154 -16206 0
-16156 16482 0
16156 -16482 0
-16158 17969 0
16158 -17969 0
-16160 16488 0
16160 -16488 0
16164 17607 0
-16164 -17607 0
17971 16164 0
-17971 -16164 0
16168 17791 0
-16168 -17791 0
17973 16168 0
-17973 -16168 0
16506 17488 0
-16506 -17488 0
17509 16172 0
-17509 -16172 0
16509 17488 0
-16509 -17488 0
16515 17488 0
-16515 -17488 0
16521 17488 0
-16521 -17488 0
17515 16180 0
-17515 -16180 0
16524 17488 0
-16524 -17488 0
16542 17488 0
-16542 -17488 0
17521 16186 0
-17521 -16186 0
16545 17488 0
-16545 -17488 0
16551 17488 0
-16551 -17488 0
16557 17488 0
-16557 -17488 0
16563 17488 0
-16563 -17488 0
16569 17488 0
-16569 -17488 0
16590 17488 0
-16590 -17488 0
16589 17223 0
-16589 -17223 0
17527 16587 0
-17527 -16587 0
17096 17481 0
-17096 -17481 0
17481 16206 0
-17481 -16206 0
16596 17488 0
-16596 -17488 0
17533 16210 0
-17533 -16210 0
16599 17488 0
-16599 -17488 0
16605 17488 0
-16605 -17488 0
16637 17741 0
-16637 -17741 0
16617 17488 0
-16617 -17488 0
17539 16220 0
-17539 -16220 0
16620 17488 0
-16620 -17488 0
17545 16224 0
-17545 -16224 0
16623 17488 0
-16623 -17488 0
16653 16675 0
-16653 -16675 0
16659 16675 0
-16659 -16675 0
16665 16675 0
-16665 -16675 0
16671 16675 0
-16671 -16675 0
16680 16675 0
-16680 -16675 0
17553 17597 0
-17553 -17597 0
16710 17488 0
-16710 -17488 0
17167 17185 0
-17167 -17185 0
16716 17488 0
-16716 -17488 0
17173 17185 0
-17173 -17185 0
16722 17488 0
-16722 -17488 0
17179 17185 0
-17179 -17185 0
16728 17488 0
-16728 -17488 0
17188 17185 0
-17188 -17185 0
17200 17230 0
-17200 -17230 0
17206 17230 0
-17206 -17230 0
17212 17484 0
-17212 -17484 0
17218 17484 0
-17218 -17484 0
17484 17032 0
-17484 -17032 0
17224 17475 0
-17224 -17475 0
17233 17230 0
-17233 -17230 0
16752 17234 0
-16752 -17234 0
16758 17234 0
-16758 -17234 0
16764 17234 0
-16764 -17234 0
16780 17237 0
-16780 -17237 0
16786 17237 0
-16786 -17237 0
16792 17237 0
-16792 -17237 0
16804 17240 0
-16804 -17240 0
16810 17240 0
-16810 -17240 0
16816 17488 0
-16816 -17488 0
16831 17243 0
-16831 -17243 0
16837 17243 0
-16837 -17243 0
16843 17488 0
-16843 -17488 0
16864 17488 0
-16864 -17488 0
16867 17488 0
-16867 -17488 0
16879 17254 0
-16879 -17254 0
16873 17488 0
-16873 -17488 0
16882 17877 0
-16882 -17877 0
16876 17488 0
-16876 -17488 0
16881 17439 0
-16881 -17439 0
16886 17610 0
-16886 -17610 0
16892 17610 0
-16892 -17610 0
16898 17610 0
-16898 -17610 0
16904 17610 0
-16904 -17610 0
17611 17488 0
-17611 -17488 0
17263 17275 0
-17263 -17275 0
17269 17275 0
-17269 -17275 0
17278 17275 0
-17278 -17275 0
17284 17293 0
-17284 -17293 0
17290 17293 0
-17290 -17293 0
17296 17293 0
-17296 -17293 0
17293 17251 0
-17293 -17251 0
16937 16989 0
-16937 -16989 0
16943 16989 0
-16943 -16989 0
16949 16989 0
-16949 -16989 0
16955 16989 0
-16955 -16989 0
16961 16989 0
-16961 -16989 0
17323 17380 0
-17323 -17380 0
17329 17380 0
-17329 -17380 0
17335 17380 0
-17335 -17380 0
17341 17380 0
-17341 -17380 0
16994 16989 0
-16994 -16989 0
16997 17941 0
-16997 -17941 0
17503 17946 0
-17503 -17946 0
17367 17365 0
-17367 -17365 0
17374 17380 0
-17374 -17380 0
17383 17380 0
-17383 -17380 0
17391 17871 0
-17391 -17871 0
17876 17680 0
-17876 -17680 0
17389 17475 0
-17389 -17475 0
17395 17475 0
-17395 -17475 0
17401 17475 0
-17401 -17475 0
17407 17475 0
-17407 -17475 0
17413 17475 0
-17413 -17475 0
17419 17475 0
-17419 -17475 0
17425 17475 0
-17425 -17475 0
17431 17475 0
-17431 -17475 0
17437 17475 0
-17437 -17475 0
17443 17475 0
-17443 -17475 0
17475 17029 0
-17475 -17029 0
17036 17488 0
-17036 -17488 0
17948 17035 0
-17948 -17035 0
16394 16392 0
-16394 -16392 0
17035 16394 0
-17035 -16394 0
17448 17969 0
-17448 -17969 0
17039 17488 0
-17039 -17488 0
17449 17968 0
-17449 -17968 0
17045 17488 0
-17045 -17488 0
17455 17968 0
-17455 -17968 0
17051 17488 0
-17051 -17488 0
17461 17968 0
-17461 -17968 0
16412 16410 0
-16412 -16410 0
17968 16412 0
-17968 -16412 0
17057 17482 0
-17057 -17482 0
17476 17482 0
-17476 -17482 0
17485 17482 0
-17485 -17482 0
16422 16420 0
-16422 -16420 0
17482 16422 0
-17482 -16422 0
16436 16424 0
-16436 -16424 0
16425 16436 0
-16425 -16436 0
17066 17488 0
-17066 -17488 0
17069 17488 0
-17069 -17488 0
17075 17488 0
-17075 -17488 0
17488 16434 0
-17488 -16434 0
17194 16436 0
-17194 -16436 0
16440 16438 0
-16440 -16438 0
17388 16440 0
-17388 -16440 0
16444 16442 0
-16444 -16442 0
17400 16444 0
-17400 -16444 0
16448 16446 0
-16448 -16446 0
17394 16448 0
-17394 -16448 0
16452 16450 0
-16452 -16450 0
17406 16452 0
-17406 -16452 0
16456 16454 0
-16456 -16454 0
17166 16456 0
-17166 -16456 0
16460 16458 0
-16460 -16458 0
17412 16460 0
-17412 -16460 0
16464 16462 0
-16464 -16462 0
17418 16464 0
-17418 -16464 0
16468 16466 0
-16468 -16466 0
17424 16468 0
-17424 -16468 0
16472 16470 0
-16472 -16470 0
17430 16472 0
-17430 -16472 0
16476 16474 0
-16476 -16474 0
17436 16476 0
-17436 -16476 0
16480 16478 0
-16480 -16478 0
17442 16480 0
-17442 -16480 0
16481 16482 0
-16481 -16482 0
16486 16484 0
-16486 -16484 0
16883 16486 0
-16883 -16486 0
16487 16488 0
-16487 -16488 0
-17586 17408 0
-17586 17411 0
17586 -17408 -17411 0
-17589 17414 0
-17589 17417 0
17589 -17414 -17417 0
-17592 17420 0
-17592 17423 0
17592 -17420 -17423 0
-17580 17426 0
-17580 17429 0
17580 -17426 -17429 0
-17583 17432 0
-17583 17435 0
17583 -17432 -17435 0
-17975 17504 0
-17975 16506 0
17975 -17504 -16506 0
-17977 17688 0
-17977 16509 0
17977 -17688 -16509 0
-17690 17692 0
-17690 17693 0
17690 -17692 -17693 0
-17979 17694 0
-17979 16515 0
17979 -17694 -16515 0
-17696 17698 0
-17696 17699 0
17696 -17698 -17699 0
-17981 17510 0
-17981 16521 0
17981 -17510 -16521 0
-17983 17700 0
-17983 16524 0
17983 -17700 -16524 0
-17702 17704 0
-17702 17705 0
17702 -17704 -17705 0
-17692 17685 0
-17692 17509 0
17692 -17685 -17509 0
-17698 17692 0
-17698 17693 0
17698 -17692 -17693 0
-17514 17698 0
-17514 17699 0
17514 -17698 -17699 0
-17704 17514 0
-17704 17515 0
17704 -17514 -17515 0
-17985 17516 0
-17985 16542 0
17985 -17516 -16542 0
-17987 17706 0
-17987 16545 0
17987 -17706 -16545 0
-17708 17710 0
-17708 17711 0
17708 -17710 -17711 0
-17989 17712 0
-17989 16551 0
17989 -17712 -16551 0
-17714 17716 0
-17714 17717 0
17714 -17716 -17717 0
-17991 17718 0
-17991 16557 0
17991 -17718 -16557 0
-17720 17722 0
-17720 17723 0
17720 -17722 -17723 0
-17993 17724 0
-17993 16563 0
17993 -17724 -16563 0
-17726 17728 0
-17726 17729 0
17726 -17728 -17729 0
-17995 17522 0
-17995 16569 0
17995 -17522 -16569 0
-17710 17520 0
-17710 17521 0
17710 -17520 -17521 0
-17716 17710 0
-17716 17711 0
17716 -17710 -17711 0
-17722 17716 0
-17722 17717 0
17722 -17716 -17717 0
-17728 17722 0
-17728 17723 0
17728 -17722 -17723 0
-17526 17728 0
-17526 17729 0
17526 -17728 -17729 0
-17102 17526 0
-17102 16587 0
17102 -17526 -16587 0
-17997 16589 0
-17997 16590 0
17997 -16589 -16590 0
-17205 17091 0
-17205 17094 0
17205 -17091 -17094 0
-17999 17528 0
-17999 16596 0
17999 -17528 -16596 0
-18001 17730 0
-18001 16599 0
18001 -17730 -16599 0
-17732 17734 0
-17732 17735 0
17732 -17734 -17735 0
-18003 17736 0
-18003 16605 0
18003 -17736 -16605 0
-17738 17740 0
-17738 17741 0
17738 -17740 -17741 0
-17734 17532 0
-17734 17533 0
17734 -17532 -17533 0
-17740 17734 0
-17740 17735 0
17740 -17734 -17735 0
-18005 17534 0
-18005 16617 0
18005 -17534 -16617 0
-18007 17540 0
-18007 16620 0
18007 -17540 -16620 0
-18009 17742 0
-18009 16623 0
18009 -17742 -16623 0
-17744 17746 0
-17744 17747 0
17744 -17746 -17747 0
-17544 17816 0
-17544 17539 0
17544 -17816 -17539 0
-17746 17544 0
-17746 17545 0
17746 -17544 -17545 0
-17196 17740 0
-17196 17741 0
17196 -17740 -17741 0
-17229 16637 0
-17229 17740 0
17229 -16637 -17740 0
-17090 17704 0
-17090 17705 0
17090 -17704 -17705 0
-17099 17526 0
-17099 17527 0
17099 -17526 -17527 0
-17311 17746 0
-17311 17747 0
17311 -17746 -17747 0
-17208 17864 0
-17208 17865 0
17208 -17864 -17865 0
-18011 17748 0
-18011 16653 0
18011 -17748 -16653 0
-17750 17785 0
-17750 17753 0
17750 -17785 -17753 0
-18013 17754 0
-18013 16659 0
18013 -17754 -16659 0
-17756 17758 0
-17756 17759 0
17756 -17758 -17759 0
-18015 17760 0
-18015 16665 0
18015 -17760 -16665 0
-17762 17764 0
-17762 17765 0
17762 -17764 -17765 0
-18017 17766 0
-18017 16671 0
18017 -17766 -16671 0
-17768 17770 0
-17768 17771 0
17768 -17770 -17771 0
-16675 17396 0
-16675 17399 0
16675 -17396 -17399 0
-18019 17772 0
-18019 16680 0
18019 -17772 -16680 0
-17774 17776 0
-17774 17777 0
17774 -17776 -17777 0
-17758 17785 0
-17758 17753 0
17758 -17785 -17753 0
-17764 17758 0
-17764 17759 0
17764 -17758 -17759 0
-17770 17764 0
-17770 17765 0
17770 -17764 -17765 0
-17776 17770 0
-17776 17771 0
17776 -17770 -17771 0
-17123 17115 0
-17123 17784 0
17123 -17115 -17784 0
-17129 17118 0
-17129 17121 0
17129 -17118 -17121 0
-17135 17124 0
-17135 17127 0
17135 -17124 -17127 0
-17141 17130 0
-17141 17133 0
17141 -17130 -17133 0
-18021 16711 0
-18021 16710 0
18021 -16711 -16710 0
-16711 17162 0
-16711 17165 0
16711 -17162 -17165 0
-18023 16717 0
-18023 16716 0
18023 -16717 -16716 0
-16717 17168 0
-16717 17171 0
16717 -17168 -17171 0
-18025 16723 0
-18025 16722 0
18025 -16723 -16722 0
-16723 17174 0
-16723 17177 0
16723 -17174 -17177 0
-18027 16729 0
-18027 16728 0
18027 -16729 -16728 0
-16729 17183 0
-16729 17186 0
16729 -17183 -17186 0
-17792 17609 0
-17792 17194 0
17792 -17609 -17194 0
-17789 17607 0
-17789 17194 0
17789 -17607 -17194 0
-17834 17195 0
-17834 17198 0
17834 -17195 -17198 0
-17247 17207 0
-17247 17210 0
17247 -17207 -17210 0
-17220 17213 0
-17220 17216 0
17220 -17213 -17216 0
-17852 17798 0
-17852 17811 0
17852 -17798 -17811 0
-18029 17794 0
-18029 16752 0
18029 -17794 -16752 0
-17796 17798 0
-17796 17799 0
17796 -17798 -17799 0
-18031 17800 0
-18031 16758 0
18031 -17800 -16758 0
-17802 17804 0
-17802 17805 0
17802 -17804 -17805 0
-18033 17806 0
-18033 16764 0
18033 -17806 -16764 0
-17808 17810 0
-17808 17811 0
17808 -17810 -17811 0
-17804 17798 0
-17804 17799 0
17804 -17798 -17799 0
-17810 17804 0
-17810 17805 0
17810 -17804 -17805 0
-17239 17816 0
-17239 17817 0
-17239 17829 0
17239 -17816 -17817 -17829 0
-18035 17812 0
-18035 16780 0
18035 -17812 -16780 0
-17814 17816 0
-17814 17817 0
17814 -17816 -17817 0
-18037 17818 0
-18037 16786 0
18037 -17818 -16786 0
-17820 17822 0
-17820 17823 0
17820 -17822 -17823 0
-18039 17824 0
-18039 16792 0
18039 -17824 -16792 0
-17826 17828 0
-17826 17829 0
17826 -17828 -17829 0
-17822 17816 0
-17822 17817 0
17822 -17816 -17817 0
-17828 17822 0
-17828 17823 0
17828 -17822 -17823 0
-18041 17830 0
-18041 16804 0
18041 -17830 -16804 0
-17832 17834 0
-17832 17835 0
17832 -17834 -17835 0
-18043 17836 0
-18043 16810 0
18043 -17836 -16810 0
-17838 17840 0
-17838 17841 0
17838 -17840 -17841 0
-18045 17842 0
-18045 16816 0
18045 -17842 -16816 0
-17844 17846 0
-17844 17847 0
17844 -17846 -17847 0
-17840 17834 0
-17840 17835 0
17840 -17834 -17835 0
-17846 17834 0
-17846 17841 0
17846 -17834 -17841 0
-17314 17846 0
-17314 17847 0
17314 -17846 -17847 0
-18047 17848 0
-18047 16831 0
18047 -17848 -16831 0
-17850 17852 0
-17850 17853 0
17850 -17852 -17853 0
-18049 17854 0
-18049 16837 0
18049 -17854 -16837 0
-17856 17858 0
-17856 17859 0
17856 -17858 -17859 0
-18051 17860 0
-18051 16843 0
18051 -17860 -16843 0
-17862 17864 0
-17862 17865 0
17862 -17864 -17865 0
-17858 17852 0
-17858 17853 0
17858 -17852 -17853 0
-17864 17852 0
-17864 17859 0
17864 -17852 -17859 0
-17002 17228 0
-17002 17231 0
17002 -17228 -17231 0
-17942 17201 0
-17942 17204 0
17942 -17201 -17204 0
-17562 17219 0
-17562 17222 0
17562 -17219 -17222 0
-18053 17249 0
-18053 16864 0
18053 -17249 -16864 0
-18055 17866 0
-18055 16867 0
18055 -17866 -16867 0
-17867 17876 0
-17867 17293 0
17867 -17876 -17293 0
-18057 17252 0
-18057 16873 0
18057 -17252 -16873 0
-18059 17872 0
-18059 16876 0
18059 -17872 -16876 0
-17873 17876 0
-17873 16879 0
17873 -17876 -16879 0
-17385 16881 0
-17385 16882 0
-17385 16883 0
17385 -16881 -16882 -16883 0
-18061 17878 0
-18061 16886 0
18061 -17878 -16886 0
-17880 17882 0
-17880 17883 0
17880 -17882 -17883 0
-18063 17884 0
-18063 16892 0
18063 -17884 -16892 0
-17886 17888 0
-17886 17889 0
17886 -17888 -17889 0
-18065 17890 0
-18065 16898 0
18065 -17890 -16898 0
-17892 17894 0
-17892 17895 0
17892 -17894 -17895 0
-18067 17896 0
-18067 16904 0
18067 -17896 -16904 0
-17898 17900 0
-17898 17901 0
17898 -17900 -17901 0
-17888 17882 0
-17888 17883 0
17888 -17882 -17883 0
-17894 17888 0
-17894 17889 0
17894 -17888 -17889 0
-17900 17894 0
-17900 17895 0
17900 -17894 -17895 0
-17262 17279 0
-17262 17282 0
17262 -17279 -17282 0
-17268 17285 0
-17268 17288 0
17268 -17285 -17288 0
-17277 17291 0
-17277 17294 0
17277 -17291 -17294 0
-18069 17258 0
-18069 17261 0
18069 -17258 -17261 0
-18071 17264 0
-18071 17267 0
18071 -17264 -17267 0
-18073 17273 0
-18073 17276 0
18073 -17273 -17276 0
-18075 17906 0
-18075 16937 0
18075 -17906 -16937 0
-17908 17910 0
-17908 17911 0
17908 -17910 -17911 0
-18077 17912 0
-18077 16943 0
18077 -17912 -16943 0
-17914 17916 0
-17914 17917 0
17914 -17916 -17917 0
-18079 17918 0
-18079 16949 0
18079 -17918 -16949 0
-17920 17922 0
-17920 17923 0
17920 -17922 -17923 0
-18081 17924 0
-18081 16955 0
18081 -17924 -16955 0
-17926 17928 0
-17926 17929 0
17926 -17928 -17929 0
-18083 17930 0
-18083 16961 0
18083 -17930 -16961 0
-17932 17934 0
-17932 17935 0
17932 -17934 -17935 0
-17916 17910 0
-17916 17911 0
17916 -17910 -17911 0
-17922 17916 0
-17922 17917 0
17922 -17916 -17917 0
-17928 17922 0
-17928 17923 0
17928 -17922 -17923 0
-17934 17928 0
-17934 17929 0
17934 -17928 -17929 0
-18085 17318 0
-18085 17321 0
18085 -17318 -17321 0
-18087 17324 0
-18087 17327 0
18087 -17324 -17327 0
-18089 17330 0
-18089 17333 0
18089 -17330 -17333 0
-18091 17336 0
-18091 17339 0
18091 -17336 -17339 0
-16989 17402 0
-16989 17405 0
16989 -17402 -17405 0
-18093 17357 0
-18093 16994 0
18093 -17357 -16994 0
-17358 17360 0
-17358 16997 0
17358 -17360 -16997 0
-17365 17390 0
-17365 17393 0
17365 -17390 -17393 0
-17910 17002 0
-17910 17943 0
17910 -17002 -17943 0
-18095 17369 0
-18095 17372 0
18095 -17369 -17372 0
-18097 17378 0
-18097 17381 0
18097 -17378 -17381 0
-17551 17438 0
-17551 17441 0
17551 -17438 -17441 0
-17561 17384 0
-17561 17387 0
17561 -17384 -17387 0
-17960 17090 0
-17960 17448 0
17960 -17090 -17448 0
-17961 17099 0
-17961 17454 0
17961 -17099 -17454 0
-17962 17311 0
-17962 17460 0
17962 -17311 -17460 0
-17963 17208 0
-17963 17457 0
17963 -17208 -17457 0
-17271 17029 0
-17271 17610 0
17271 -17029 -17610 0
-17376 17032 0
-17376 17610 0
17376 -17032 -17610 0
-18099 17035 0
-18099 17036 0
18099 -17035 -17036 0
-18101 17040 0
-18101 17039 0
18101 -17040 -17039 0
-17040 17444 0
-17040 17447 0
17040 -17444 -17447 0
-18103 17046 0
-18103 17045 0
18103 -17046 -17045 0
-17046 17450 0
-17046 17453 0
17046 -17450 -17453 0
-18105 17052 0
-18105 17051 0
18105 -17052 -17051 0
-17052 17456 0
-17052 17459 0
17052 -17456 -17459 0
-17951 17465 0
-17951 17057 0
17951 -17465 -17057 0
-17954 17471 0
-17954 17474 0
17954 -17471 -17474 0
-17957 17480 0
-17957 17483 0
17957 -17480 -17483 0
-18113 17546 0
-18113 17066 0
18113 -17546 -17066 0
-18115 17964 0
-18115 17069 0
18115 -17964 -17069 0
-17965 17968 0
-17965 17457 0
17965 -17968 -17457 0
-18117 17944 0
-18117 17075 0
18117 -17944 -17075 0
17506 -17685 0
17506 -17509 0
-17506 17685 17509 0
17512 -17514 0
17512 -17515 0
-17512 17514 17515 0
17518 -17520 0
17518 -17521 0
-17518 17520 17521 0
17524 -17526 0
17524 -17527 0
-17524 17526 17527 0
17520 -17481 0
17520 -17090 0
-17520 17481 17090 0
17091 -17527 0
17091 -17481 0
-17091 17527 17481 0
17094 -17223 0
17094 -17096 0
-17094 17223 17096 0
17816 -17481 0
17816 -17099 0
-17816 17481 17099 0
17232 -17481 0
17232 -17102 0
-17232 17481 17102 0
17530 -17532 0
17530 -17533 0
-17530 17532 17533 0
17536 -17816 0
17536 -17539 0
-17536 17816 17539 0
17542 -17544 0
17542 -17545 0
-17542 17544 17545 0
17548 -17561 0
17548 -17556 0
-17548 17561 17556 0
17115 -17586 0
17115 -17753 0
-17115 17586 17753 0
17118 -17589 0
17118 -17759 0
-17118 17589 17759 0
17121 -17783 0
17121 -17123 0
-17121 17783 17123 0
17124 -17592 0
17124 -17765 0
-17124 17592 17765 0
17127 -17781 0
17127 -17129 0
-17127 17781 17129 0
17130 -17580 0
17130 -17771 0
-17130 17580 17771 0
17133 -17780 0
17133 -17135 0
-17133 17780 17135 0
17686 -17583 0
17686 -17777 0
-17686 17583 17777 0
17687 -17779 0
17687 -17141 0
-17687 17779 17141 0
17565 -17753 0
17565 -17586 0
-17565 17753 17586 0
17568 -17759 0
17568 -17589 0
-17568 17759 17589 0
17571 -17765 0
17571 -17592 0
-17571 17765 17592 0
17574 -17771 0
17574 -17580 0
-17574 17771 17580 0
17577 -17777 0
17577 -17583 0
-17577 17777 17583 0
17190 -17600 0
17190 -17601 0
17190 -17602 0
17190 -17603 0
-17190 17600 17601 17602 17603 0
17162 -17603 0
17162 -17185 0
-17162 17603 17185 0
17165 -17166 0
17165 -17167 0
-17165 17166 17167 0
17168 -17602 0
17168 -17185 0
-17168 17602 17185 0
17171 -17603 0
17171 -17173 0
-17171 17603 17173 0
17174 -17601 0
17174 -17185 0
-17174 17601 17185 0
17177 -17602 0
17177 -17179 0
-17177 17602 17179 0
17185 -17239 0
17185 -17484 0
-17185 17239 17484 0
17183 -17600 0
17183 -17185 0
-17183 17600 17185 0
17186 -17601 0
17186 -17188 0
-17186 17601 17188 0
17605 -17190 0
17605 -17194 0
-17605 17190 17194 0
17608 -17786 0
17608 -17194 0
-17608 17786 17194 0
17195 -17196 0
17195 -17230 0
-17195 17196 17230 0
17198 -17816 0
17198 -17200 0
-17198 17816 17200 0
17201 -17741 0
17201 -17230 0
-17201 17741 17230 0
17204 -17205 0
17204 -17206 0
-17204 17205 17206 0
17207 -17208 0
17207 -17484 0
-17207 17208 17484 0
17210 -17314 0
17210 -17212 0
-17210 17314 17212 0
17213 -17865 0
17213 -17484 0
-17213 17865 17484 0
17216 -17847 0
17216 -17218 0
-17216 17847 17218 0
17219 -17220 0
17219 -17475 0
-17219 17220 17475 0
17222 -17223 0
17222 -17224 0
-17222 17223 17224 0
17230 -17385 0
17230 -17475 0
-17230 17385 17475 0
17228 -17229 0
17228 -17230 0
-17228 17229 17230 0
17231 -17232 0
17231 -17233 0
-17231 17232 17233 0
17234 -17488 0
17234 -17852 0
-17234 17488 17852 0
17237 -17488 0
17237 -17239 0
-17237 17488 17239 0
17240 -17488 0
17240 -17846 0
-17240 17488 17846 0
17243 -17488 0
17243 -17864 0
-17243 17488 17864 0
17882 -17247 0
17882 -17475 0
-17882 17247 17475 0
17249 -17942 0
17249 -17251 0
-17249 17942 17251 0
17252 -17876 0
17252 -17254 0
-17252 17876 17254 0
17439 -17679 0
17439 -17943 0
-17439 17679 17943 0
17258 -17903 0
17258 -17275 0
-17258 17903 17275 0
17261 -17262 0
17261 -17263 0
-17261 17262 17263 0
17264 -17904 0
17264 -17275 0
-17264 17904 17275 0
17267 -17268 0
17267 -17269 0
-17267 17268 17269 0
17275 -17271 0
17275 -17488 0
-17275 17271 17488 0
17273 -17905 0
17273 -17275 0
-17273 17905 17275 0
17276 -17277 0
17276 -17278 0
-17276 17277 17278 0
17279 -17430 0
17279 -17293 0
-17279 17430 17293 0
17282 -17412 0
17282 -17284 0
-17282 17412 17284 0
17285 -17436 0
17285 -17293 0
-17285 17436 17293 0
17288 -17418 0
17288 -17290 0
-17288 17418 17290 0
17291 -17442 0
17291 -17293 0
-17291 17442 17293 0
17294 -17424 0
17294 -17296 0
-17294 17424 17296 0
17615 -17903 0
17615 -17883 0
-17615 17903 17883 0
17618 -17904 0
17618 -17889 0
-17618 17904 17889 0
17621 -17905 0
17621 -17895 0
-17621 17905 17895 0
17624 -17902 0
17624 -17901 0
-17624 17902 17901 0
17532 -17484 0
17532 -17311 0
-17532 17484 17311 0
17798 -17484 0
17798 -17314 0
-17798 17484 17314 0
17943 -17637 0
17943 -17641 0
-17943 17637 17641 0
17318 -17937 0
17318 -17380 0
-17318 17937 17380 0
17321 -17388 0
17321 -17323 0
-17321 17388 17323 0
17324 -17938 0
17324 -17380 0
-17324 17938 17380 0
17327 -17400 0
17327 -17329 0
-17327 17400 17329 0
17330 -17939 0
17330 -17380 0
-17330 17939 17380 0
17333 -17394 0
17333 -17335 0
-17333 17394 17335 0
17336 -17940 0
17336 -17380 0
-17336 17940 17380 0
17339 -17406 0
17339 -17341 0
-17339 17406 17341 0
17646 -17937 0
17646 -17911 0
-17646 17937 17911 0
17649 -17938 0
17649 -17917 0
-17649 17938 17917 0
17652 -17939 0
17652 -17923 0
-17652 17939 17923 0
17655 -17940 0
17655 -17929 0
-17655 17940 17929 0
17658 -17936 0
17658 -17935 0
-17658 17936 17935 0
17357 -17358 0
17357 -17910 0
-17357 17358 17910 0
17360 -17679 0
17360 -17941 0
-17360 17679 17941 0
17675 -17379 0
17675 -17365 0
-17675 17379 17365 0
17676 -17367 0
17676 -17370 0
-17676 17367 17370 0
17369 -17370 0
17369 -17380 0
-17369 17370 17380 0
17372 -17482 0
17372 -17374 0
-17372 17482 17374 0
17380 -17376 0
17380 -17488 0
-17380 17376 17488 0
17378 -17379 0
17378 -17380 0
-17378 17379 17380 0
17381 -17968 0
17381 -17383 0
-17381 17968 17383 0
17384 -17385 0
17384 -17475 0
-17384 17385 17475 0
17387 -17388 0
17387 -17389 0
-17387 17388 17389 0
17390 -17391 0
17390 -17475 0
-17390 17391 17475 0
17393 -17394 0
17393 -17395 0
-17393 17394 17395 0
17396 -17610 0
17396 -17475 0
-17396 17610 17475 0
17399 -17400 0
17399 -17401 0
-17399 17400 17401 0
17402 -17610 0
17402 -17475 0
-17402 17610 17475 0
17405 -17406 0
17405 -17407 0
-17405 17406 17407 0
17408 -17489 0
17408 -17475 0
-17408 17489 17475 0
17411 -17412 0
17411 -17413 0
-17411 17412 17413 0
17414 -17492 0
17414 -17475 0
-17414 17492 17475 0
17417 -17418 0
17417 -17419 0
-17417 17418 17419 0
17420 -17495 0
17420 -17475 0
-17420 17495 17475 0
17423 -17424 0
17423 -17425 0
-17423 17424 17425 0
17426 -17498 0
17426 -17475 0
-17426 17498 17475 0
17429 -17430 0
17429 -17431 0
-17429 17430 17431 0
17432 -17501 0
17432 -17475 0
-17432 17501 17475 0
17435 -17436 0
17435 -17437 0
-17435 17436 17437 0
17438 -17439 0
17438 -17475 0
-17438 17439 17475 0
17441 -17442 0
17441 -17443 0
-17441 17442 17443 0
17444 -17454 0
17444 -17968 0
-17444 17454 17968 0
17447 -17448 0
17447 -17449 0
-17447 17448 17449 0
17450 -17460 0
17450 -17968 0
-17450 17460 17968 0
17453 -17454 0
17453 -17455 0
-17453 17454 17455 0
17456 -17457 0
17456 -17968 0
-17456 17457 17968 0
17459 -17460 0
17459 -17461 0
-17459 17460 17461 0
18107 -17950 0
18107 -17486 0
-18107 17950 17486 0
17465 -17475 0
17465 -17482 0
-17465 17475 17482 0
18109 -17953 0
18109 -17486 0
-18109 17953 17486 0
17471 -17484 0
17471 -17482 0
-17471 17484 17482 0
17474 -17475 0
17474 -17476 0
-17474 17475 17476 0
18111 -17956 0
18111 -17486 0
-18111 17956 17486 0
17480 -17481 0
17480 -17482 0
-17480 17481 17482 0
17483 -17484 0
17483 -17485 0
-17483 17484 17485 0
17486 -17948 0
17486 -17488 0
-17486 17948 17488 0
17489 17911 0
17489 17503 0
-17489 -17911 -17503 0
17492 17917 0
17492 17503 0
-17492 -17917 -17503 0
17495 17923 0
17495 17503 0
-17495 -17923 -17503 0
17498 17929 0
17498 17503 0
-17498 -17929 -17503 0
17501 17935 0
17501 17503 0
-17501 -17935 -17503 0
17504 17507 0
17504 17506 0
-17504 -17507 -17506 0
17507 17685 0
17507 17509 0
-17507 -17685 -17509 0
17510 17513 0
17510 17512 0
-17510 -17513 -17512 0
17513 17514 0
17513 17515 0
-17513 -17514 -17515 0
17516 17519 0
17516 17518 0
-17516 -17519 -17518 0
17519 17520 0
17519 17521 0
-17519 -17520 -17521 0
17522 17525 0
17522 17524 0
-17522 -17525 -17524 0
17525 17526 0
17525 17527 0
-17525 -17526 -17527 0
17528 17531 0
17528 17530 0
-17528 -17531 -17530 0
17531 17532 0
17531 17533 0
-17531 -17532 -17533 0
17534 17537 0
17534 17536 0
-17534 -17537 -17536 0
17537 17816 0
17537 17539 0
-17537 -17816 -17539 0
17540 17543 0
17540 17542 0
-17540 -17543 -17542 0
17543 17544 0
17543 17545 0
-17543 -17544 -17545 0
17546 17560 0
17546 17548 0
-17546 -17560 -17548 0
17559 17942 0
17559 17551 0
-17559 -17942 -17551 0
17558 17553 0
17558 17596 0
17558 17942 0
-17558 -17553 -17596 -17942 0
17556 17685 0
17556 17558 0
17556 17559 0
-17556 -17685 -17558 -17559 0
17560 17561 0
17560 17562 0
-17560 -17561 -17562 0
17784 17584 0
17784 17565 0
-17784 -17584 -17565 0
17783 17587 0
17783 17568 0
-17783 -17587 -17568 0
17781 17590 0
17781 17571 0
-17781 -17590 -17571 0
17780 17578 0
17780 17574 0
-17780 -17578 -17574 0
17779 17581 0
17779 17577 0
-17779 -17581 -17577 0
17578 17771 0
17578 17580 0
-17578 -17771 -17580 0
17581 17777 0
17581 17583 0
-17581 -17777 -17583 0
17584 17753 0
17584 17586 0
-17584 -17753 -17586 0
17587 17759 0
17587 17589 0
-17587 -17759 -17589 0
17590 17765 0
17590 17592 0
-17590 -17765 -17592 0
17597 17778 0
17597 17782 0
-17597 -17778 -17782 0
17596 17597 0
17596 17685 0
-17596 -17597 -17685 0
17786 17600 0
17786 17601 0
17786 17602 0
17786 17603 0
-17786 -17600 -17601 -17602 -17603 0
17609 17605 0
17609 17606 0
-17609 -17605 -17606 0
17607 17608 0
17607 17609 0
-17607 -17608 -17609 0
17610 17611 0
17610 17680 0
-17610 -17611 -17680 0
17681 17625 0
17681 17615 0
-17681 -17625 -17615 0
17682 17628 0
17682 17618 0
-17682 -17628 -17618 0
17683 17631 0
17683 17621 0
-17683 -17631 -17621 0
17684 17634 0
17684 17624 0
-17684 -17634 -17624 0
17625 17903 0
17625 17883 0
-17625 -17903 -17883 0
17628 17904 0
17628 17889 0
-17628 -17904 -17889 0
17631 17905 0
17631 17895 0
-17631 -17905 -17895 0
17634 17902 0
17634 17901 0
-17634 -17902 -17901 0
17637 17644 0
17637 17647 0
17637 17650 0
-17637 -17644 -17647 -17650 0
17641 17653 0
17641 17656 0
-17641 -17653 -17656 0
17644 17659 0
17644 17646 0
-17644 -17659 -17646 0
17647 17662 0
17647 17649 0
-17647 -17662 -17649 0
17650 17665 0
17650 17652 0
-17650 -17665 -17652 0
17653 17668 0
17653 17655 0
-17653 -17668 -17655 0
17656 17671 0
17656 17658 0
-17656 -17671 -17658 0
17659 17937 0
17659 17911 0
-17659 -17937 -17911 0
17662 17938 0
17662 17917 0
-17662 -17938 -17917 0
17665 17939 0
17665 17923 0
-17665 -17939 -17923 0
17668 17940 0
17668 17929 0
-17668 -17940 -17929 0
17671 17936 0
17671 17935 0
-17671 -17936 -17935 0
17946 17675 0
17946 17676 0
-17946 -17675 -17676 0
17945 17942 0
17945 17679 0
-17945 -17942 -17679 0
17680 17681 0
17680 17682 0
17680 17683 0
17680 17684 0
-17680 -17681 -17682 -17683 -17684 0
17685 17686 0
17685 17687 0
-17685 -17686 -17687 0
-17688 -17691 0
-17688 -17690 0
17688 17691 17690 0
-17691 -17692 0
-17691 -17693 0
17691 17692 17693 0
-17694 -17697 0
-17694 -17696 0
17694 17697 17696 0
-17697 -17698 0
-17697 -17699 0
17697 17698 17699 0
-17700 -17703 0
-17700 -17702 0
17700 17703 17702 0
-17703 -17704 0
-17703 -17705 0
17703 17704 17705 0
-17706 -17709 0
-17706 -17708 0
17706 17709 17708 0
-17709 -17710 0
-17709 -17711 0
17709 17710 17711 0
-17712 -17715 0
-17712 -17714 0
17712 17715 17714 0
-17715 -17716 0
-17715 -17717 0
17715 17716 17717 0
-17718 -17721 0
-17718 -17720 0
17718 17721 17720 0
-17721 -17722 0
-17721 -17723 0
17721 17722 17723 0
-17724 -17727 0
-17724 -17726 0
17724 17727 17726 0
-17727 -17728 0
-17727 -17729 0
17727 17728 17729 0
-17730 -17733 0
-17730 -17732 0
17730 17733 17732 0
-17733 -17734 0
-17733 -17735 0
17733 17734 17735 0
-17736 -17739 0
-17736 -17738 0
17736 17739 17738 0
-17739 -17740 0
-17739 -17741 0
17739 17740 17741 0
-17742 -17745 0
-17742 -17744 0
17742 17745 17744 0
-17745 -17746 0
-17745 -17747 0
17745 17746 17747 0
-17748 -17751 0
-17748 -17750 0
17748 17751 17750 0
-17751 -17785 0
-17751 -17753 0
17751 17785 17753 0
-17754 -17757 0
-17754 -17756 0
17754 17757 17756 0
-17757 -17758 0
-17757 -17759 0
17757 17758 17759 0
-17760 -17763 0
-17760 -17762 0
17760 17763 17762 0
-17763 -17764 0
-17763 -17765 0
17763 17764 17765 0
-17766 -17769 0
-17766 -17768 0
17766 17769 17768 0
-17769 -17770 0
-17769 -17771 0
17769 17770 17771 0
-17772 -17775 0
-17772 -17774 0
17772 17775 17774 0
-17775 -17776 0
-17775 -17777 0
17775 17776 17777 0
-17778 -17779 0
-17778 -17780 0
-17778 -17781 0
17778 17779 17780 17781 0
-17782 -17783 0
-17782 -17784 0
17782 17783 17784 0
-17785 -17786 0
-17785 -17791 0
17785 17786 17791 0
-17793 -17789 0
-17793 -17790 0
17793 17789 17790 0
-17791 -17792 0
-17791 -17793 0
17791 17792 17793 0
-17794 -17797 0
-17794 -17796 0
17794 17797 17796 0
-17797 -17798 0
-17797 -17799 0
17797 17798 17799 0
-17800 -17803 0
-17800 -17802 0
17800 17803 17802 0
-17803 -17804 0
-17803 -17805 0
17803 17804 17805 0
-17806 -17809 0
-17806 -17808 0
17806 17809 17808 0
-17809 -17810 0
-17809 -17811 0
17809 17810 17811 0
-17812 -17815 0
-17812 -17814 0
17812 17815 17814 0
-17815 -17816 0
-17815 -17817 0
17815 17816 17817 0
-17818 -17821 0
-17818 -17820 0
17818 17821 17820 0
-17821 -17822 0
-17821 -17823 0
17821 17822 17823 0
-17824 -17827 0
-17824 -17826 0
17824 17827 17826 0
-17827 -17828 0
-17827 -17829 0
17827 17828 17829 0
-17830 -17833 0
-17830 -17832 0
17830 17833 17832 0
-17833 -17834 0
-17833 -17835 0
17833 17834 17835 0
-17836 -17839 0
-17836 -17838 0
17836 17839 17838 0
-17839 -17840 0
-17839 -17841 0
17839 17840 17841 0
-17842 -17845 0
-17842 -17844 0
17842 17845 17844 0
-17845 -17846 0
-17845 -17847 0
17845 17846 17847 0
-17848 -17851 0
-17848 -17850 0
17848 17851 17850 0
-17851 -17852 0
-17851 -17853 0
17851 17852 17853 0
-17854 -17857 0
-17854 -17856 0
17854 17857 17856 0
-17857 -17858 0
-17857 -17859 0
17857 17858 17859 0
-17860 -17863 0
-17860 -17862 0
17860 17863 17862 0
-17863 -17864 0
-17863 -17865 0
17863 17864 17865 0
-17866 -17867 0
-17866 -17869 0
17866 17867 17869 0
-17869 -17876 0
-17869 -17871 0
17869 17876 17871 0
-17872 -17873 0
-17872 -17875 0
17872 17873 17875 0
-17875 -17876 0
-17875 -17877 0
17875 17876 17877 0
-17878 -17881 0
-17878 -17880 0
17878 17881 17880 0
-17881 -17882 0
-17881 -17883 0
17881 17882 17883 0
-17884 -17887 0
-17884 -17886 0
17884 17887 17886 0
-17887 -17888 0
-17887 -17889 0
17887 17888 17889 0
-17890 -17893 0
-17890 -17892 0
17890 17893 17892 0
-17893 -17894 0
-17893 -17895 0
17893 17894 17895 0
-17896 -17899 0
-17896 -17898 0
17896 17899 17898 0
-17899 -17900 0
-17899 -17901 0
17899 17900 17901 0
-17902 -17903 0
-17902 -17904 0
-17902 -17905 0
17902 17903 17904 17905 0
-17906 -17909 0
-17906 -17908 0
17906 17909 17908 0
-17909 -17910 0
-17909 -17911 0
17909 17910 17911 0
-17912 -17915 0
-17912 -17914 0
17912 17915 17914 0
-17915 -17916 0
-17915 -17917 0
17915 17916 17917 0
-17918 -17921 0
-17918 -17920 0
17918 17921 17920 0
-17921 -17922 0
-17921 -17923 0
17921 17922 17923 0
-17924 -17927 0
-17924 -17926 0
17924 17927 17926 0
-17927 -17928 0
-17927 -17929 0
17927 17928 17929 0
-17930 -17933 0
-17930 -17932 0
17930 17933 17932 0
-17933 -17934 0
-17933 -17935 0
17933 17934 17935 0
-17936 -17937 0
-17936 -17938 0
-17936 -17939 0
-17936 -17940 0
17936 17937 17938 17939 17940 0
-17941 -17942 0
-17941 -17943 0
17941 17942 17943 0
-17944 -17945 0
-17944 -17946 0
17944 17945 17946 0
-17958 -17948 0
-17958 -17949 0
17958 17948 17949 0
-17950 -17951 0
-17950 -17958 0
17950 17951 17958 0
-17953 -17954 0
-17953 -17958 0
17953 17954 17958 0
-17956 -17957 0
-17956 -17958 0
17956 17957 17958 0
-17959 -17960 0
-17959 -17961 0
-17959 -17962 0
-17959 -17963 0
17959 17960 17961 17962 17963 0
-17964 -17965 0
-17964 -17967 0
17964 17965 17967 0
-17967 -17968 0
-17967 -17969 0
17967 17968 17969 0
-17971 19563 0
17971 -19563 0
-17973 19747 0
17973 -19747 0
-17975 18129 0
17975 -18129 0
-17977 19650 0
17977 -19650 0
-17979 19656 0
17979 -19656 0
-17981 18137 0
17981 -18137 0
-17983 19662 0
17983 -19662 0
-17985 18143 0
17985 -18143 0
-17987 19668 0
17987 -19668 0
-17989 19674 0
17989 -19674 0
-17991 19680 0
17991 -19680 0
-17993 19686 0
17993 -19686 0
-17995 18544 0
17995 -18544 0
-17997 19180 0
17997 -19180 0
-17999 18167 0
17999 -18167 0
-18001 19692 0
18001 -19692 0
-18003 19698 0
18003 -19698 0
-18005 18177 0
18005 -18177 0
-18007 18181 0
18007 -18181 0
-18009 19704 0
18009 -19704 0
-18011 19710 0
18011 -19710 0
-18013 19716 0
18013 -19716 0
-18015 19722 0
18015 -19722 0
-18017 19728 0
18017 -19728 0
-18019 19734 0
18019 -19734 0
-18021 19560 0
18021 -19560 0
-18023 19559 0
18023 -19559 0
-18025 19558 0
18025 -19558 0
-18027 19557 0
18027 -19557 0
-18029 19756 0
18029 -19756 0
-18031 19762 0
18031 -19762 0
-18033 19768 0
18033 -19768 0
-18035 19774 0
18035 -19774 0
-18037 19780 0
18037 -19780 0
-18039 19786 0
18039 -19786 0
-18041 19792 0
18041 -19792 0
-18043 19798 0
18043 -19798 0
-18045 19804 0
18045 -19804 0
-18047 19810 0
18047 -19810 0
-18049 19816 0
18049 -19816 0
-18051 19822 0
18051 -19822 0
-18053 19208 0
18053 -19208 0
-18055 19828 0
18055 -19828 0
-18057 19211 0
18057 -19211 0
-18059 19834 0
18059 -19834 0
-18061 19840 0
18061 -19840 0
-18063 19846 0
18063 -19846 0
-18065 19852 0
18065 -19852 0
-18067 19858 0
18067 -19858 0
-18069 19860 0
18069 -19860 0
-18071 19861 0
18071 -19861 0
-18073 19862 0
18073 -19862 0
-18075 19868 0
18075 -19868 0
-18077 19874 0
18077 -19874 0
-18079 19880 0
18079 -19880 0
-18081 19886 0
18081 -19886 0
-18083 19892 0
18083 -19892 0
-18085 19894 0
18085 -19894 0
-18087 19895 0
18087 -19895 0
-18089 19896 0
18089 -19896 0
-18091 19897 0
18091 -19897 0
-18093 19636 0
18093 -19636 0
-18095 19327 0
18095 -19327 0
-18097 19336 0
18097 -19336 0
-18099 19906 0
18099 -19906 0
-18101 19411 0
18101 -19411 0
-18103 19417 0
18103 -19417 0
-18105 19414 0
18105 -19414 0
-18107 18986 0
18107 -18986 0
-18109 18989 0
18109 -18989 0
-18111 18163 0
18111 -18163 0
-18113 18439 0
18113 -18439 0
-18115 19926 0
18115 -19926 0
-18117 18445 0
18117 -18445 0
18121 19564 0
-18121 -19564 0
19928 18121 0
-19928 -18121 0
18125 19748 0
-18125 -19748 0
19930 18125 0
-19930 -18125 0
18463 19445 0
-18463 -19445 0
19466 18129 0
-19466 -18129 0
18466 19445 0
-18466 -19445 0
18472 19445 0
-18472 -19445 0
18478 19445 0
-18478 -19445 0
19472 18137 0
-19472 -18137 0
18481 19445 0
-18481 -19445 0
18499 19445 0
-18499 -19445 0
19478 18143 0
-19478 -18143 0
18502 19445 0
-18502 -19445 0
18508 19445 0
-18508 -19445 0
18514 19445 0
-18514 -19445 0
18520 19445 0
-18520 -19445 0
18526 19445 0
-18526 -19445 0
18547 19445 0
-18547 -19445 0
18546 19180 0
-18546 -19180 0
19484 18544 0
-19484 -18544 0
19053 19438 0
-19053 -19438 0
19438 18163 0
-19438 -18163 0
18553 19445 0
-18553 -19445 0
19490 18167 0
-19490 -18167 0
18556 19445 0
-18556 -19445 0
18562 19445 0
-18562 -19445 0
18594 19698 0
-18594 -19698 0
18574 19445 0
-18574 -19445 0
19496 18177 0
-19496 -18177 0
18577 19445 0
-18577 -19445 0
19502 18181 0
-19502 -18181 0
18580 19445 0
-18580 -19445 0
18610 18632 0
-18610 -18632 0
18616 18632 0
-18616 -18632 0
18622 18632 0
-18622 -18632 0
18628 18632 0
-18628 -18632 0
18637 18632 0
-18637 -18632 0
19510 19554 0
-19510 -19554 0
18667 19445 0
-18667 -19445 0
19124 19142 0
-19124 -19142 0
18673 19445 0
-18673 -19445 0
19130 19142 0
-19130 -19142 0
18679 19445 0
-18679 -19445 0
19136 19142 0
-19136 -19142 0
18685 19445 0
-18685 -19445 0
19145 19142 0
-19145 -19142 0
19157 19187 0
-19157 -19187 0
19163 19187 0
-19163 -19187 0
19169 19441 0
-19169 -19441 0
19175 19441 0
-19175 -19441 0
19441 18989 0
-19441 -18989 0
19181 19432 0
-19181 -19432 0
19190 19187 0
-19190 -19187 0
18709 19191 0
-18709 -19191 0
18715 19191 0
-18715 -19191 0
18721 19191 0
-18721 -19191 0
18737 19194 0
-18737 -19194 0
18743 19194 0
-18743 -19194 0
18749 19194 0
-18749 -19194 0
18761 19197 0
-18761 -19197 0
18767 19197 0
-18767 -19197 0
18773 19445 0
-18773 -19445 0
18788 19200 0
-18788 -19200 0
18794 19200 0
-18794 -19200 0
18800 19445 0
-18800 -19445 0
18821 19445 0
-18821 -19445 0
18824 19445 0
-18824 -19445 0
18836 19211 0
-18836 -19211 0
18830 19445 0
-18830 -19445 0
18839 19834 0
-18839 -19834 0
18833 19445 0
-18833 -19445 0
18838 19396 0
-18838 -19396 0
18843 19567 0
-18843 -19567 0
18849 19567 0
-18849 -19567 0
18855 19567 0
-18855 -19567 0
18861 19567 0
-18861 -19567 0
19568 19445 0
-19568 -19445 0
19220 19232 0
-19220 -19232 0
19226 19232 0
-19226 -19232 0
19235 19232 0
-19235 -19232 0
19241 19250 0
-19241 -19250 0
19247 19250 0
-19247 -19250 0
19253 19250 0
-19253 -19250 0
19250 19208 0
-19250 -19208 0
18894 18946 0
-18894 -18946 0
18900 18946 0
-18900 -18946 0
18906 18946 0
-18906 -18946 0
18912 18946 0
-18912 -18946 0
18918 18946 0
-18918 -18946 0
19280 19337 0
-19280 -19337 0
19286 19337 0
-19286 -19337 0
19292 19337 0
-19292 -19337 0
19298 19337 0
-19298 -19337 0
18951 18946 0
-18951 -18946 0
18954 19898 0
-18954 -19898 0
19460 19903 0
-19460 -19903 0
19324 19322 0
-19324 -19322 0
19331 19337 0
-19331 -19337 0
19340 19337 0
-19340 -19337 0
19348 19828 0
-19348 -19828 0
19833 19637 0
-19833 -19637 0
19346 19432 0
-19346 -19432 0
19352 19432 0
-19352 -19432 0
19358 19432 0
-19358 -19432 0
19364 19432 0
-19364 -19432 0
19370 19432 0
-19370 -19432 0
19376 19432 0
-19376 -19432 0
19382 19432 0
-19382 -19432 0
19388 19432 0
-19388 -19432 0
19394 19432 0
-19394 -19432 0
19400 19432 0
-19400 -19432 0
19432 18986 0
-19432 -18986 0
18993 19445 0
-18993 -19445 0
19905 18992 0
-19905 -18992 0
18351 18349 0
-18351 -18349 0
18992 18351 0
-18992 -18351 0
19405 19926 0
-19405 -19926 0
18996 19445 0
-18996 -19445 0
19406 19925 0
-19406 -19925 0
19002 19445 0
-19002 -19445 0
19412 19925 0
-19412 -19925 0
19008 19445 0
-19008 -19445 0
19418 19925 0
-19418 -19925 0
18369 18367 0
-18369 -18367 0
19925 18369 0
-19925 -18369 0
19014 19439 0
-19014 -19439 0
19433 19439 0
-19433 -19439 0
19442 19439 0
-19442 -19439 0
18379 18377 0
-18379 -18377 0
19439 18379 0
-19439 -18379 0
18393 18381 0
-18393 -18381 0
18382 18393 0
-18382 -18393 0
19023 19445 0
-19023 -19445 0
19026 19445 0
-19026 -19445 0
19032 19445 0
-19032 -19445 0
19445 18391 0
-19445 -18391 0
19151 18393 0
-19151 -18393 0
18397 18395 0
-18397 -18395 0
19345 18397 0
-19345 -18397 0
18401 18399 0
-18401 -18399 0
19357 18401 0
-19357 -18401 0
18405 18403 0
-18405 -18403 0
19351 18405 0
-19351 -18405 0
18409 18407 0
-18409 -18407 0
19363 18409 0
-19363 -18409 0
18413 18411 0
-18413 -18411 0
19123 18413 0
-19123 -18413 0
18417 18415 0
-18417 -18415 0
19369 18417 0
-19369 -18417 0
18421 18419 0
-18421 -18419 0
19375 18421 0
-19375 -18421 0
18425 18423 0
-18425 -18423 0
19381 18425 0
-19381 -18425 0
18429 18427 0
-18429 -18427 0
19387 18429 0
-19387 -18429 0
18433 18431 0
-18433 -18431 0
19393 18433 0
-19393 -18433 0
18437 18435 0
-18437 -18435 0
19399 18437 0
-19399 -18437 0
18438 18439 0
-18438 -18439 0
18443 18441 0
-18443 -18441 0
18840 18443 0
-18840 -18443 0
18444 18445 0
-18444 -18445 0
-19543 19365 0
-19543 19368 0
19543 -19365 -19368 0
-19546 19371 0
-19546 19374 0
19546 -19371 -19374 0
-19549 19377 0
-19549 19380 0
19549 -19377 -19380 0
-19537 19383 0
-19537 19386 0
19537 -19383 -19386 0
-19540 19389 0
-19540 19392 0
19540 -19389 -19392 0
-19932 19461 0
-19932 18463 0
19932 -19461 -18463 0
-19934 19645 0
-19934 18466 0
19934 -19645 -18466 0
-19647 19649 0
-19647 19650 0
19647 -19649 -19650 0
-19936 19651 0
-19936 18472 0
19936 -19651 -18472 0
-19653 19655 0
-19653 19656 0
19653 -19655 -19656 0
-19938 19467 0
-19938 18478 0
19938 -19467 -18478 0
-19940 19657 0
-19940 18481 0
19940 -19657 -18481 0
-19659 19661 0
-19659 19662 0
19659 -19661 -19662 0
-19649 19642 0
-19649 19466 0
19649 -19642 -19466 0
-19655 19649 0
-19655 19650 0
19655 -19649 -19650 0
-19471 19655 0
-19471 19656 0
19471 -19655 -19656 0
-19661 19471 0
-19661 19472 0
19661 -19471 -19472 0
-19942 19473 0
-19942 18499 0
19942 -19473 -18499 0
-19944 19663 0
-19944 18502 0
19944 -19663 -18502 0
-19665 19667 0
-19665 19668 0
19665 -19667 -19668 0
-19946 19669 0
-19946 18508 0
19946 -19669 -18508 0
-19671 19673 0
-19671 19674 0
19671 -19673 -19674 0
-19948 19675 0
-19948 18514 0
19948 -19675 -18514 0
-19677 19679 0
-19677 19680 0
19677 -19679 -19680 0
-19950 19681 0
-19950 18520 0
19950 -19681 -18520 0
-19683 19685 0
-19683 19686 0
19683 -19685 -19686 0
-19952 19479 0
-19952 18526 0
19952 -19479 -18526 0
-19667 19477 0
-19667 19478 0
19667 -19477 -19478 0
-19673 19667 0
-19673 19668 0
19673 -19667 -19668 0
-19679 19673 0
-19679 19674 0
19679 -19673 -19674 0
-19685 19679 0
-19685 19680 0
19685 -19679 -19680 0
-19483 19685 0
-19483 19686 0
19483 -19685 -19686 0
-19059 19483 0
-19059 18544 0
19059 -19483 -18544 0
-19954 18546 0
-19954 18547 0
19954 -18546 -18547 0
-19162 19048 0
-19162 19051 0
19162 -19048 -19051 0
-19956 19485 0
-19956 18553 0
19956 -19485 -18553 0
-19958 19687 0
-19958 18556 0
19958 -19687 -18556 0
-19689 19691 0
-19689 19692 0
19689 -19691 -19692 0
-19960 19693 0
-19960 18562 0
19960 -19693 -18562 0
-19695 19697 0
-19695 19698 0
19695 -19697 -19698 0
-19691 19489 0
-19691 19490 0
19691 -19489 -19490 0
-19697 19691 0
-19697 19692 0
19697 -19691 -19692 0
-19962 19491 0
-19962 18574 0
19962 -19491 -18574 0
-19964 19497 0
-19964 18577 0
19964 -19497 -18577 0
-19966 19699 0
-19966 18580 0
19966 -19699 -18580 0
-19701 19703 0
-19701 19704 0
19701 -19703 -19704 0
-19501 19773 0
-19501 19496 0
19501 -19773 -19496 0
-19703 19501 0
-19703 19502 0
19703 -19501 -19502 0
-19153 19697 0
-19153 19698 0
19153 -19697 -19698 0
-19186 18594 0
-19186 19697 0
19186 -18594 -19697 0
-19047 19661 0
-19047 19662 0
19047 -19661 -19662 0
-19056 19483 0
-19056 19484 0
19056 -19483 -19484 0
-19268 19703 0
-19268 19704 0
19268 -19703 -19704 0
-19165 19821 0
-19165 19822 0
19165 -19821 -19822 0
-19968 19705 0
-19968 18610 0
19968 -19705 -18610 0
-19707 19742 0
-19707 19710 0
19707 -19742 -19710 0
-19970 19711 0
-19970 18616 0
19970 -19711 -18616 0
-19713 19715 0
-19713 19716 0
19713 -19715 -19716 0
-19972 19717 0
-19972 18622 0
19972 -19717 -18622 0
-19719 19721 0
-19719 19722 0
19719 -19721 -19722 0
-19974 19723 0
-19974 18628 0
19974 -19723 -18628 0
-19725 19727 0
-19725 19728 0
19725 -19727 -19728 0
-18632 19353 0
-18632 19356 0
18632 -19353 -19356 0
-19976 19729 0
-19976 18637 0
19976 -19729 -18637 0
-19731 19733 0
-19731 19734 0
19731 -19733 -19734 0
-19715 19742 0
-19715 19710 0
19715 -19742 -19710 0
-19721 19715 0
-19721 19716 0
19721 -19715 -19716 0
-19727 19721 0
-19727 19722 0
19727 -19721 -19722 0
-19733 19727 0
-19733 19728 0
19733 -19727 -19728 0
-19080 19072 0
-19080 19741 0
19080 -19072 -19741 0
-19086 19075 0
-19086 19078 0
19086 -19075 -19078 0
-19092 19081 0
-19092 19084 0
19092 -19081 -19084 0
-19098 19087 0
-19098 19090 0
19098 -19087 -19090 0
-19978 18668 0
-19978 18667 0
19978 -18668 -18667 0
-18668 19119 0
-18668 19122 0
18668 -19119 -19122 0
-19980 18674 0
-19980 18673 0
19980 -18674 -18673 0
-18674 19125 0
-18674 19128 0
18674 -19125 -19128 0
-19982 18680 0
-19982 18679 0
19982 -18680 -18679 0
-18680 19131 0
-18680 19134 0
18680 -19131 -19134 0
-19984 18686 0
-19984 18685 0
19984 -18686 -18685 0
-18686 19140 0
-18686 19143 0
18686 -19140 -19143 0
-19749 19566 0
-19749 19151 0
19749 -19566 -19151 0
-19746 19564 0
-19746 19151 0
19746 -19564 -19151 0
-19791 19152 0
-19791 19155 0
19791 -19152 -19155 0
-19204 19164 0
-19204 19167 0
19204 -19164 -19167 0
-19177 19170 0
-19177 19173 0
19177 -19170 -19173 0
-19809 19755 0
-19809 19768 0
19809 -19755 -19768 0
-19986 19751 0
-19986 18709 0
19986 -19751 -18709 0
-19753 19755 0
-19753 19756 0
19753 -19755 -19756 0
-19988 19757 0
-19988 18715 0
19988 -19757 -18715 0
-19759 19761 0
-19759 19762 0
19759 -19761 -19762 0
-19990 19763 0
-19990 18721 0
19990 -19763 -18721 0
-19765 19767 0
-19765 19768 0
19765 -19767 -19768 0
-19761 19755 0
-19761 19756 0
19761 -19755 -19756 0
-19767 19761 0
-19767 19762 0
19767 -19761 -19762 0
-19196 19773 0
-19196 19774 0
-19196 19786 0
19196 -19773 -19774 -19786 0
-19992 19769 0
-19992 18737 0
19992 -19769 -18737 0
-19771 19773 0
-19771 19774 0
19771 -19773 -19774 0
-19994 19775 0
-19994 18743 0
19994 -19775 -18743 0
-19777 19779 0
-19777 19780 0
19777 -19779 -19780 0
-19996 19781 0
-19996 18749 0
19996 -19781 -18749 0
-19783 19785 0
-19783 19786 0
19783 -19785 -19786 0
-19779 19773 0
-19779 19774 0
19779 -19773 -19774 0
-19785 19779 0
-19785 19780 0
19785 -19779 -19780 0
-19998 19787 0
-19998 18761 0
19998 -19787 -18761 0
-19789 19791 0
-19789 19792 0
19789 -19791 -19792 0
-20000 19793 0
-20000 18767 0
20000 -19793 -18767 0
-19795 19797 0
-19795 19798 0
19795 -19797 -19798 0
-20002 19799 0
-20002 18773 0
20002 -19799 -18773 0
-19801 19803 0
-19801 19804 0
19801 -19803 -19804 0
-19797 19791 0
-19797 19792 0
19797 -19791 -19792 0
-19803 19791 0
-19803 19798 0
19803 -19791 -19798 0
-19271 19803 0
-19271 19804 0
19271 -19803 -19804 0
-20004 19805 0
-20004 18788 0
20004 -19805 -18788 0
-19807 19809 0
-19807 19810 0
19807 -19809 -19810 0
-20006 19811 0
-20006 18794 0
20006 -19811 -18794 0
-19813 19815 0
-19813 19816 0
19813 -19815 -19816 0
-20008 19817 0
-20008 18800 0
20008 -19817 -18800 0
-19819 19821 0
-19819 19822 0
19819 -19821 -19822 0
-19815 19809 0
-19815 19810 0
19815 -19809 -19810 0
-19821 19809 0
-19821 19816 0
19821 -19809 -19816 0
-18959 19185 0
-18959 19188 0
18959 -19185 -19188 0
-19899 19158 0
-19899 19161 0
19899 -19158 -19161 0
-19519 19176 0
-19519 19179 0
19519 -19176 -19179 0
-20010 19206 0
-20010 18821 0
20010 -19206 -18821 0
-20012 19823 0
-20012 18824 0
20012 -19823 -18824 0
-19824 19833 0
-19824 19250 0
19824 -19833 -19250 0
-20014 19209 0
-20014 18830 0
20014 -19209 -18830 0
-20016 19829 0
-20016 18833 0
20016 -19829 -18833 0
-19830 19833 0
-19830 18836 0
19830 -19833 -18836 0
-19342 18838 0
-19342 18839 0
-19342 18840 0
19342 -18838 -18839 -18840 0
-20018 19835 0
-20018 18843 0
20018 -19835 -18843 0
-19837 19839 0
-19837 19840 0
19837 -19839 -19840 0
-20020 19841 0
-20020 18849 0
20020 -19841 -18849 0
-19843 19845 0
-19843 19846 0
19843 -19845 -19846 0
-20022 19847 0
-20022 18855 0
20022 -19847 -18855 0
-19849 19851 0
-19849 19852 0
19849 -19851 -19852 0
-20024 19853 0
-20024 18861 0
20024 -19853 -18861 0
-19855 19857 0
-19855 19858 0
19855 -19857 -19858 0
-19845 19839 0
-19845 19840 0
19845 -19839 -19840 0
-19851 19845 0
-19851 19846 0
19851 -19845 -19846 0
-19857 19851 0
-19857 19852 0
19857 -19851 -19852 0
-19219 19236 0
-19219 19239 0
19219 -19236 -19239 0
-19225 19242 0
-19225 19245 0
19225 -19242 -19245 0
-19234 19248 0
-19234 19251 0
19234 -19248 -19251 0
-20026 19215 0
-20026 19218 0
20026 -19215 -19218 0
-20028 19221 0
-20028 19224 0
20028 -19221 -19224 0
-20030 19230 0
-20030 19233 0
20030 -19230 -19233 0
-20032 19863 0
-20032 18894 0
20032 -19863 -18894 0
-19865 19867 0
-19865 19868 0
19865 -19867 -19868 0
-20034 19869 0
-20034 18900 0
20034 -19869 -18900 0
-19871 19873 0
-19871 19874 0
19871 -19873 -19874 0
-20036 19875 0
-20036 18906 0
20036 -19875 -18906 0
-19877 19879 0
-19877 19880 0
19877 -19879 -19880 0
-20038 19881 0
-20038 18912 0
20038 -19881 -18912 0
-19883 19885 0
-19883 19886 0
19883 -19885 -19886 0
-20040 19887 0
-20040 18918 0
20040 -19887 -18918 0
-19889 19891 0
-19889 19892 0
19889 -19891 -19892 0
-19873 19867 0
-19873 19868 0
19873 -19867 -19868 0
-19879 19873 0
-19879 19874 0
19879 -19873 -19874 0
-19885 19879 0
-19885 19880 0
19885 -19879 -19880 0
-19891 19885 0
-19891 19886 0
19891 -19885 -19886 0
-20042 19275 0
-20042 19278 0
20042 -19275 -19278 0
-20044 19281 0
-20044 19284 0
20044 -19281 -19284 0
-20046 19287 0
-20046 19290 0
20046 -19287 -19290 0
-20048 19293 0
-20048 19296 0
20048 -19293 -19296 0
-18946 19359 0
-18946 19362 0
18946 -19359 -19362 0
-20050 19314 0
-20050 18951 0
20050 -19314 -18951 0
-19315 19317 0
-19315 18954 0
19315 -19317 -18954 0
-19322 19347 0
-19322 19350 0
19322 -19347 -19350 0
-19867 18959 0
-19867 19900 0
19867 -18959 -19900 0
-20052 19326 0
-20052 19329 0
20052 -19326 -19329 0
-20054 19335 0
-20054 19338 0
20054 -19335 -19338 0
-19508 19395 0
-19508 19398 0
19508 -19395 -19398 0
-19518 19341 0
-19518 19344 0
19518 -19341 -19344 0
-19917 19047 0
-19917 19405 0
19917 -19047 -19405 0
-19918 19056 0
-19918 19411 0
19918 -19056 -19411 0
-19919 19268 0
-19919 19417 0
19919 -19268 -19417 0
-19920 19165 0
-19920 19414 0
19920 -19165 -19414 0
-19228 18986 0
-19228 19567 0
19228 -18986 -19567 0
-19333 18989 0
-19333 19567 0
19333 -18989 -19567 0
-20056 18992 0
-20056 18993 0
20056 -18992 -18993 0
-20058 18997 0
-20058 18996 0
20058 -18997 -18996 0
-18997 19401 0
-18997 19404 0
18997 -19401 -19404 0
-20060 19003 0
-20060 19002 0
20060 -19003 -19002 0
-19003 19407 0
-19003 19410 0
19003 -19407 -19410 0
-20062 19009 0
-20062 19008 0
20062 -19009 -19008 0
-19009 19413 0
-19009 19416 0
19009 -19413 -19416 0
-19908 19422 0
-19908 19014 0
19908 -19422 -19014 0
-19911 19428 0
-19911 19431 0
19911 -19428 -19431 0
-19914 19437 0
-19914 19440 0
19914 -19437 -19440 0
-20070 19503 0
-20070 19023 0
20070 -19503 -19023 0
-20072 19921 0
-20072 19026 0
20072 -19921 -19026 0
-19922 19925 0
-19922 19414 0
19922 -19925 -19414 0
-20074 19901 0
-20074 19032 0
20074 -19901 -19032 0
19463 -19642 0
19463 -19466 0
-19463 19642 19466 0
19469 -19471 0
19469 -19472 0
-19469 19471 19472 0
19475 -19477 0
19475 -19478 0
-19475 19477 19478 0
19481 -19483 0
19481 -19484 0
-19481 19483 19484 0
19477 -19438 0
19477 -19047 0
-19477 19438 19047 0
19048 -19484 0
19048 -19438 0
-19048 19484 19438 0
19051 -19180 0
19051 -19053 0
-19051 19180 19053 0
19773 -19438 0
19773 -19056 0
-19773 19438 19056 0
19189 -19438 0
19189 -19059 0
-19189 19438 19059 0
19487 -19489 0
19487 -19490 0
-19487 19489 19490 0
19493 -19773 0
19493 -19496 0
-19493 19773 19496 0
19499 -19501 0
19499 -19502 0
-19499 19501 19502 0
19505 -19518 0
19505 -19513 0
-19505 19518 19513 0
19072 -19543 0
19072 -19710 0
-19072 19543 19710 0
19075 -19546 0
19075 -19716 0
-19075 19546 19716 0
19078 -19740 0
19078 -19080 0
-19078 19740 19080 0
19081 -19549 0
19081 -19722 0
-19081 19549 19722 0
19084 -19738 0
19084 -19086 0
-19084 19738 19086 0
19087 -19537 0
19087 -19728 0
-19087 19537 19728 0
19090 -19737 0
19090 -19092 0
-19090 19737 19092 0
19643 -19540 0
19643 -19734 0
-19643 19540 19734 0
19644 -19736 0
19644 -19098 0
-19644 19736 19098 0
19522 -19710 0
19522 -19543 0
-19522 19710 19543 0
19525 -19716 0
19525 -19546 0
-19525 19716 19546 0
19528 -19722 0
19528 -19549 0
-19528 19722 19549 0
19531 -19728 0
19531 -19537 0
-19531 19728 19537 0
19534 -19734 0
19534 -19540 0
-19534 19734 19540 0
19147 -19557 0
19147 -19558 0
19147 -19559 0
19147 -19560 0
-19147 19557 19558 19559 19560 0
19119 -19560 0
19119 -19142 0
-19119 19560 19142 0
19122 -19123 0
19122 -19124 0
-19122 19123 19124 0
19125 -19559 0
19125 -19142 0
-19125 19559 19142 0
19128 -19560 0
19128 -19130 0
-19128 19560 19130 0
19131 -19558 0
19131 -19142 0
-19131 19558 19142 0
19134 -19559 0
19134 -19136 0
-19134 19559 19136 0
19142 -19196 0
19142 -19441 0
-19142 19196 19441 0
19140 -19557 0
19140 -19142 0
-19140 19557 19142 0
19143 -19558 0
19143 -19145 0
-19143 19558 19145 0
19562 -19147 0
19562 -19151 0
-19562 19147 19151 0
19565 -19743 0
19565 -19151 0
-19565 19743 19151 0
19152 -19153 0
19152 -19187 0
-19152 19153 19187 0
19155 -19773 0
19155 -19157 0
-19155 19773 19157 0
19158 -19698 0
19158 -19187 0
-19158 19698 19187 0
19161 -19162 0
19161 -19163 0
-19161 19162 19163 0
19164 -19165 0
19164 -19441 0
-19164 19165 19441 0
19167 -19271 0
19167 -19169 0
-19167 19271 19169 0
19170 -19822 0
19170 -19441 0
-19170 19822 19441 0
19173 -19804 0
19173 -19175 0
-19173 19804 19175 0
19176 -19177 0
19176 -19432 0
-19176 19177 19432 0
19179 -19180 0
19179 -19181 0
-19179 19180 19181 0
19187 -19342 0
19187 -19432 0
-19187 19342 19432 0
19185 -19186 0
19185 -19187 0
-19185 19186 19187 0
19188 -19189 0
19188 -19190 0
-19188 19189 19190 0
19191 -19445 0
19191 -19809 0
-19191 19445 19809 0
19194 -19445 0
19194 -19196 0
-19194 19445 19196 0
19197 -19445 0
19197 -19803 0
-19197 19445 19803 0
19200 -19445 0
19200 -19821 0
-19200 19445 19821 0
19839 -19204 0
19839 -19432 0
-19839 19204 19432 0
19206 -19899 0
19206 -19208 0
-19206 19899 19208 0
19209 -19833 0
19209 -19211 0
-19209 19833 19211 0
19396 -19636 0
19396 -19900 0
-19396 19636 19900 0
19215 -19860 0
19215 -19232 0
-19215 19860 19232 0
19218 -19219 0
19218 -19220 0
-19218 19219 19220 0
19221 -19861 0
19221 -19232 0
-19221 19861 19232 0
19224 -19225 0
19224 -19226 0
-19224 19225 19226 0
19232 -19228 0
19232 -19445 0
-19232 19228 19445 0
19230 -19862 0
19230 -19232 0
-19230 19862 19232 0
19233 -19234 0
19233 -19235 0
-19233 19234 19235 0
19236 -19387 0
19236 -19250 0
-19236 19387 19250 0
19239 -19369 0
19239 -19241 0
-19239 19369 19241 0
19242 -19393 0
19242 -19250 0
-19242 19393 19250 0
19245 -19375 0
19245 -19247 0
-19245 19375 19247 0
19248 -19399 0
19248 -19250 0
-19248 19399 19250 0
19251 -19381 0
19251 -19253 0
-19251 19381 19253 0
19572 -19860 0
19572 -19840 0
-19572 19860 19840 0
19575 -19861 0
19575 -19846 0
-19575 19861 19846 0
19578 -19862 0
19578 -19852 0
-19578 19862 19852 0
19581 -19859 0
19581 -19858 0
-19581 19859 19858 0
19489 -19441 0
19489 -19268 0
-19489 19441 19268 0
19755 -19441 0
19755 -19271 0
-19755 19441 19271 0
19900 -19594 0
19900 -19598 0
-19900 19594 19598 0
19275 -19894 0
19275 -19337 0
-19275 19894 19337 0
19278 -19345 0
19278 -19280 0
-19278 19345 19280 0
19281 -19895 0
19281 -19337 0
-19281 19895 19337 0
19284 -19357 0
19284 -19286 0
-19284 19357 19286 0
19287 -19896 0
19287 -19337 0
-19287 19896 19337 0
19290 -19351 0
19290 -19292 0
-19290 19351 19292 0
19293 -19897 0
19293 -19337 0
-19293 19897 19337 0
19296 -19363 0
19296 -19298 0
-19296 19363 19298 0
19603 -19894 0
19603 -19868 0
-19603 19894 19868 0
19606 -19895 0
19606 -19874 0
-19606 19895 19874 0
19609 -19896 0
19609 -19880 0
-19609 19896 19880 0
19612 -19897 0
19612 -19886 0
-19612 19897 19886 0
19615 -19893 0
19615 -19892 0
-19615 19893 19892 0
19314 -19315 0
19314 -19867 0
-19314 19315 19867 0
19317 -19636 0
19317 -19898 0
-19317 19636 19898 0
19632 -19336 0
19632 -19322 0
-19632 19336 19322 0
19633 -19324 0
19633 -19327 0
-19633 19324 19327 0
19326 -19327 0
19326 -19337 0
-19326 19327 19337 0
19329 -19439 0
19329 -19331 0
-19329 19439 19331 0
19337 -19333 0
19337 -19445 0
-19337 19333 19445 0
19335 -19336 0
19335 -19337 0
-19335 19336 19337 0
19338 -19925 0
19338 -19340 0
-19338 19925 19340 0
19341 -19342 0
19341 -19432 0
-19341 19342 19432 0
19344 -19345 0
19344 -19346 0
-19344 19345 19346 0
19347 -19348 0
19347 -19432 0
-19347 19348 19432 0
19350 -19351 0
19350 -19352 0
-19350 19351 19352 0
19353 -19567 0
19353 -19432 0
-19353 19567 19432 0
19356 -19357 0
19356 -19358 0
-19356 19357 19358 0
19359 -19567 0
19359 -19432 0
-19359 19567 19432 0
19362 -19363 0
19362 -19364 0
-19362 19363 19364 0
19365 -19446 0
19365 -19432 0
-19365 19446 19432 0
19368 -19369 0
19368 -19370 0
-19368 19369 19370 0
19371 -19449 0
19371 -19432 0
-19371 19449 19432 0
19374 -19375 0
19374 -19376 0
-19374 19375 19376 0
19377 -19452 0
19377 -19432 0
-19377 19452 19432 0
19380 -19381 0
19380 -19382 0
-19380 19381 19382 0
19383 -19455 0
19383 -19432 0
-19383 19455 19432 0
19386 -19387 0
19386 -19388 0
-19386 19387 19388 0
19389 -19458 0
19389 -19432 0
-19389 19458 19432 0
19392 -19393 0
19392 -19394 0
-19392 19393 19394 0
19395 -19396 0
19395 -19432 0
-19395 19396 19432 0
19398 -19399 0
19398 -19400 0
-19398 19399 19400 0
19401 -19411 0
19401 -19925 0
-19401 19411 19925 0
19404 -19405 0
19404 -19406 0
-19404 19405 19406 0
19407 -19417 0
19407 -19925 0
-19407 19417 19925 0
19410 -19411 0
19410 -19412 0
-19410 19411 19412 0
19413 -19414 0
19413 -19925 0
-19413 19414 19925 0
19416 -19417 0
19416 -19418 0
-19416 19417 19418 0
20064 -19907 0
20064 -19443 0
-20064 19907 19443 0
19422 -19432 0
19422 -19439 0
-19422 19432 19439 0
20066 -19910 0
20066 -19443 0
-20066 19910 19443 0
19428 -19441 0
19428 -19439 0
-19428 19441 19439 0
19431 -19432 0
19431 -19433 0
-19431 19432 19433 0
20068 -19913 0
20068 -19443 0
-20068 19913 19443 0
19437 -19438 0
19437 -19439 0
-19437 19438 19439 0
19440 -19441 0
19440 -19442 0
-19440 19441 19442 0
19443 -19905 0
19443 -19445 0
-19443 19905 19445 0
19446 19868 0
19446 19460 0
-19446 -19868 -19460 0
19449 19874 0
19449 19460 0
-19449 -19874 -19460 0
19452 19880 0
19452 19460 0
-19452 -19880 -19460 0
19455 19886 0
19455 19460 0
-19455 -19886 -19460 0
19458 19892 0
19458 19460 0
-19458 -19892 -19460 0
19461 19464 0
19461 19463 0
-19461 -19464 -19463 0
19464 19642 0
19464 19466 0
-19464 -19642 -19466 0
19467 19470 0
19467 19469 0
-19467 -19470 -19469 0
19470 19471 0
19470 19472 0
-19470 -19471 -19472 0
19473 19476 0
19473 19475 0
-19473 -19476 -19475 0
19476 19477 0
19476 19478 0
-19476 -19477 -19478 0
19479 19482 0
19479 19481 0
-19479 -19482 -19481 0
19482 19483 0
19482 19484 0
-19482 -19483 -19484 0
19485 19488 0
19485 19487 0
-19485 -19488 -19487 0
19488 19489 0
19488 19490 0
-19488 -19489 -19490 0
19491 19494 0
19491 19493 0
-19491 -19494 -19493 0
19494 19773 0
19494 19496 0
-19494 -19773 -19496 0
19497 19500 0
19497 19499 0
-19497 -19500 -19499 0
19500 19501 0
19500 19502 0
-19500 -19501 -19502 0
19503 19517 0
19503 19505 0
-19503 -19517 -19505 0
19516 19899 0
19516 19508 0
-19516 -19899 -19508 0
19515 19510 0
19515 19553 0
19515 19899 0
-19515 -19510 -19553 -19899 0
19513 19642 0
19513 19515 0
19513 19516 0
-19513 -19642 -19515 -19516 0
19517 19518 0
19517 19519 0
-19517 -19518 -19519 0
19741 19541 0
19741 19522 0
-19741 -19541 -19522 0
19740 19544 0
19740 19525 0
-19740 -19544 -19525 0
19738 19547 0
19738 19528 0
-19738 -19547 -19528 0
19737 19535 0
19737 19531 0
-19737 -19535 -19531 0
19736 19538 0
19736 19534 0
-19736 -19538 -19534 0
19535 19728 0
19535 19537 0
-19535 -19728 -19537 0
19538 19734 0
19538 19540 0
-19538 -19734 -19540 0
19541 19710 0
19541 19543 0
-19541 -19710 -19543 0
19544 19716 0
19544 19546 0
-19544 -19716 -19546 0
19547 19722 0
19547 19549 0
-19547 -19722 -19549 0
19554 19735 0
19554 19739 0
-19554 -19735 -19739 0
19553 19554 0
19553 19642 0
-19553 -19554 -19642 0
19743 19557 0
19743 19558 0
19743 19559 0
19743 19560 0
-19743 -19557 -19558 -19559 -19560 0
19566 19562 0
19566 19563 0
-19566 -19562 -19563 0
19564 19565 0
19564 19566 0
-19564 -19565 -19566 0
19567 19568 0
19567 19637 0
-19567 -19568 -19637 0
19638 19582 0
19638 19572 0
-19638 -19582 -19572 0
19639 19585 0
19639 19575 0
-19639 -19585 -19575 0
19640 19588 0
19640 19578 0
-19640 -19588 -19578 0
19641 19591 0
19641 19581 0
-19641 -19591 -19581 0
19582 19860 0
19582 19840 0
-19582 -19860 -19840 0
19585 19861 0
19585 19846 0
-19585 -19861 -19846 0
19588 19862 0
19588 19852 0
-19588 -19862 -19852 0
19591 19859 0
19591 19858 0
-19591 -19859 -19858 0
19594 19601 0
19594 19604 0
19594 19607 0
-19594 -19601 -19604 -19607 0
19598 19610 0
19598 19613 0
-19598 -19610 -19613 0
19601 19616 0
19601 19603 0
-19601 -19616 -19603 0
19604 19619 0
19604 19606 0
-19604 -19619 -19606 0
19607 19622 0
19607 19609 0
-19607 -19622 -19609 0
19610 19625 0
19610 19612 0
-19610 -19625 -19612 0
19613 19628 0
19613 19615 0
-19613 -19628 -19615 0
19616 19894 0
19616 19868 0
-19616 -19894 -19868 0
19619 19895 0
19619 19874 0
-19619 -19895 -19874 0
19622 19896 0
19622 19880 0
-19622 -19896 -19880 0
19625 19897 0
19625 19886 0
-19625 -19897 -19886 0
19628 19893 0
19628 19892 0
-19628 -19893 -19892 0
19903 19632 0
19903 19633 0
-19903 -19632 -19633 0
19902 19899 0
19902 19636 0
-19902 -19899 -19636 0
19637 19638 0
19637 19639 0
19637 19640 0
19637 19641 0
-19637 -19638 -19639 -19640 -19641 0
19642 19643 0
19642 19644 0
-19642 -19643 -19644 0
-19645 -19648 0
-19645 -19647 0
19645 19648 19647 0
-19648 -19649 0
-19648 -19650 0
19648 19649 19650 0
-19651 -19654 0
-19651 -19653 0
19651 19654 19653 0
-19654 -19655 0
-19654 -19656 0
19654 19655 19656 0
-19657 -19660 0
-19657 -19659 0
19657 19660 19659 0
-19660 -19661 0
-19660 -19662 0
19660 19661 19662 0
-19663 -19666 0
-19663 -19665 0
19663 19666 19665 0
-19666 -19667 0
-19666 -19668 0
19666 19667 19668 0
-19669 -19672 0
-19669 -19671 0
19669 19672 19671 0
-19672 -19673 0
-19672 -19674 0
19672 19673 19674 0
-19675 -19678 0
-19675 -19677 0
19675 19678 19677 0
-19678 -19679 0
-19678 -19680 0
19678 19679 19680 0
-19681 -19684 0
-19681 -19683 0
19681 19684 19683 0
-19684 -19685 0
-19684 -19686 0
19684 19685 19686 0
-19687 -19690 0
-19687 -19689 0
19687 19690 19689 0
-19690 -19691 0
-19690 -19692 0
19690 19691 19692 0
-19693 -19696 0
-19693 -19695 0
19693 19696 19695 0
-19696 -19697 0
-19696 -19698 0
19696 19697 19698 0
-19699 -19702 0
-19699 -19701 0
19699 19702 19701 0
-19702 -19703 0
-19702 -19704 0
19702 19703 19704 0
-19705 -19708 0
-19705 -19707 0
19705 19708 19707 0
-19708 -19742 0
-19708 -19710 0
19708 19742 19710 0
-19711 -19714 0
-19711 -19713 0
19711 19714 19713 0
-19714 -19715 0
-19714 -19716 0
19714 19715 19716 0
-19717 -19720 0
-19717 -19719 0
19717 19720 19719 0
-19720 -19721 0
-19720 -19722 0
19720 19721 19722 0
-19723 -19726 0
-19723 -19725 0
19723 19726 19725 0
-19726 -19727 0
-19726 -19728 0
19726 19727 19728 0
-19729 -19732 0
-19729 -19731 0
19729 19732 19731 0
-19732 -19733 0
-19732 -19734 0
19732 19733 19734 0
-19735 -19736 0
-19735 -19737 0
-19735 -19738 0
19735 19736 19737 19738 0
-19739 -19740 0
-19739 -19741 0
19739 19740 19741 0
-19742 -19743 0
-19742 -19748 0
19742 19743 19748 0
-19750 -19746 0
-19750 -19747 0
19750 19746 19747 0
-19748 -19749 0
-19748 -19750 0
19748 19749 19750 0
-19751 -19754 0
-19751 -19753 0
19751 19754 19753 0
-19754 -19755 0
-19754 -19756 0
19754 19755 19756 0
-19757 -19760 0
-19757 -19759 0
19757 19760 19759 0
-19760 -19761 0
-19760 -19762 0
19760 19761 19762 0
-19763 -19766 0
-19763 -19765 0
19763 19766 19765 0
-19766 -19767 0
-19766 -19768 0
19766 19767 19768 0
-19769 -19772 0
-19769 -19771 0
19769 19772 19771 0
-19772 -19773 0
-19772 -19774 0
19772 19773 19774 0
-19775 -19778 0
-19775 -19777 0
19775 19778 19777 0
-19778 -19779 0
-19778 -19780 0
19778 19779 19780 0
-19781 -19784 0
-19781 -19783 0
19781 19784 19783 0
-19784 -19785 0
-19784 -19786 0
19784 19785 19786 0
-19787 -19790 0
-19787 -19789 0
19787 19790 19789 0
-19790 -19791 0
-19790 -19792 0
19790 19791 19792 0
-19793 -19796 0
-19793 -19795 0
19793 19796 19795 0
-19796 -19797 0
-19796 -19798 0
19796 19797 19798 0
-19799 -19802 0
-19799 -19801 0
19799 19802 19801 0
-19802 -19803 0
-19802 -19804 0
19802 19803 19804 0
-19805 -19808 0
-19805 -19807 0
19805 19808 19807 0
-19808 -19809 0
-19808 -19810 0
19808 19809 19810 0
-19811 -19814 0
-19811 -19813 0
19811 19814 19813 0
-19814 -19815 0
-19814 -19816 0
19814 19815 19816 0
-19817 -19820 0
-19817 -19819 0
19817 19820 19819 0
-19820 -19821 0
-19820 -19822 0
19820 19821 19822 0
-19823 -19824 0
-19823 -19826 0
19823 19824 19826 0
-19826 -19833 0
-19826 -19828 0
19826 19833 19828 0
-19829 -19830 0
-19829 -19832 0
19829 19830 19832 0
-19832 -19833 0
-19832 -19834 0
19832 19833 19834 0
-19835 -19838 0
-19835 -19837 0
19835 19838 19837 0
-19838 -19839 0
-19838 -19840 0
19838 19839 19840 0
-19841 -19844 0
-19841 -19843 0
19841 19844 19843 0
-19844 -19845 0
-19844 -19846 0
19844 19845 19846 0
-19847 -19850 0
-19847 -19849 0
19847 19850 19849 0
-19850 -19851 0
-19850 -19852 0
19850 19851 19852 0
-19853 -19856 0
-19853 -19855 0
19853 19856 19855 0
-19856 -19857 0
-19856 -19858 0
19856 19857 19858 0
-19859 -19860 0
-19859 -19861 0
-19859 -19862 0
19859 19860 19861 19862 0
-19863 -19866 0
-19863 -19865 0
19863 19866 19865 0
-19866 -19867 0
-19866 -19868 0
19866 19867 19868 0
-19869 -19872 0
-19869 -19871 0
19869 19872 19871 0
-19872 -19873 0
-19872 -19874 0
19872 19873 19874 0
-19875 -19878 0
-19875 -19877 0
19875 19878 19877 0
-19878 -19879 0
-19878 -19880 0
19878 19879 19880 0
-19881 -19884 0
-19881 -19883 0
19881 19884 19883 0
-19884 -19885 0
-19884 -19886 0
19884 19885 19886 0
-19887 -19890 0
-19887 -19889 0
19887 19890 19889 0
-19890 -19891 0
-19890 -19892 0
19890 19891 19892 0
-19893 -19894 0
-19893 -19895 0
-19893 -19896 0
-19893 -19897 0
19893 19894 19895 19896 19897 0
-19898 -19899 0
-19898 -19900 0
19898 19899 19900 0
-19901 -19902 0
-19901 -19903 0
19901 19902 19903 0
-19915 -19905 0
-19915 -19906 0
19915 19905 19906 0
-19907 -19908 0
-19907 -19915 0
19907 19908 19915 0
-19910 -19911 0
-19910 -19915 0
19910 19911 19915 0
-19913 -19914 0
-19913 -19915 0
19913 19914 19915 0
-19916 -19917 0
-19916 -19918 0
-19916 -19919 0
-19916 -19920 0
19916 19917 19918 19919 19920 0
-19921 -19922 0
-19921 -19924 0
19921 19922 19924 0
-19924 -19925 0
-19924 -19926 0
19924 19925 19926 0
-19928 21520 0
19928 -21520 0
-19930 21704 0
19930 -21704 0
-19932 20086 0
19932 -20086 0
-19934 21607 0
19934 -21607 0
-19936 21613 0
19936 -21613 0
-19938 20094 0
19938 -20094 0
-19940 21619 0
19940 -21619 0
-19942 20100 0
19942 -20100 0
-19944 21625 0
19944 -21625 0
-19946 21631 0
19946 -21631 0
-19948 21637 0
19948 -21637 0
-19950 21643 0
19950 -21643 0
-19952 20501 0
19952 -20501 0
-19954 21137 0
19954 -21137 0
-19956 20124 0
19956 -20124 0
-19958 21649 0
19958 -21649 0
-19960 21655 0
19960 -21655 0
-19962 20134 0
19962 -20134 0
-19964 20138 0
19964 -20138 0
-19966 21661 0
19966 -21661 0
-19968 21667 0
19968 -21667 0
-19970 21673 0
19970 -21673 0
-19972 21679 0
19972 -21679 0
-19974 21685 0
19974 -21685 0
-19976 21691 0
19976 -21691 0
-19978 21517 0
19978 -21517 0
-19980 21516 0
19980 -21516 0
-19982 21515 0
19982 -21515 0
-19984 21514 0
19984 -21514 0
-19986 21713 0
19986 -21713 0
-19988 21719 0
19988 -21719 0
-19990 21725 0
19990 -21725 0
-19992 21731 0
19992 -21731 0
-19994 21737 0
19994 -21737 0
-19996 21743 0
19996 -21743 0
-19998 21749 0
19998 -21749 0
-20000 21755 0
20000 -21755 0
-20002 21761 0
20002 -21761 0
-20004 21767 0
20004 -21767 0
-20006 21773 0
20006 -21773 0
-20008 21779 0
20008 -21779 0
-20010 21165 0
20010 -21165 0
-20012 21785 0
20012 -21785 0
-20014 21168 0
20014 -21168 0
-20016 21791 0
20016 -21791 0
-20018 21797 0
20018 -21797 0
-20020 21803 0
20020 -21803 0
-20022 21809 0
20022 -21809 0
-20024 21815 0
20024 -21815 0
-20026 21817 0
20026 -21817 0
-20028 21818 0
20028 -21818 0
-20030 21819 0
20030 -21819 0
-20032 21825 0
20032 -21825 0
-20034 21831 0
20034 -21831 0
-20036 21837 0
20036 -21837 0
-20038 21843 0
20038 -21843 0
-20040 21849 0
20040 -21849 0
-20042 21851 0
20042 -21851 0
-20044 21852 0
20044 -21852 0
-20046 21853 0
20046 -21853 0
-20048 21854 0
20048 -21854 0
-20050 21593 0
20050 -21593 0
-20052 21284 0
20052 -21284 0
-20054 21293 0
20054 -21293 0
-20056 21863 0
20056 -21863 0
-20058 21368 0
20058 -21368 0
-20060 21374 0
20060 -21374 0
-20062 21371 0
20062 -21371 0
-20064 20943 0
20064 -20943 0
-20066 20946 0
20066 -20946 0
-20068 20120 0
20068 -20120 0
-20070 20396 0
20070 -20396 0
-20072 21883 0
20072 -21883 0
-20074 20402 0
20074 -20402 0
20078 21521 0
-20078 -21521 0
21885 20078 0
-21885 -20078 0
20082 21705 0
-20082 -21705 0
21887 20082 0
-21887 -20082 0
20420 21402 0
-20420 -21402 0
21423 20086 0
-21423 -20086 0
20423 21402 0
-20423 -21402 0
20429 21402 0
-20429 -21402 0
20435 21402 0
-20435 -21402 0
21429 20094 0
-21429 -20094 0
20438 21402 0
-20438 -21402 0
20456 21402 0
-20456 -21402 0
21435 20100 0
-21435 -20100 0
20459 21402 0
-20459 -21402 0
20465 21402 0
-20465 -21402 0
20471 21402 0
-20471 -21402 0
20477 21402 0
-20477 -21402 0
20483 21402 0
-20483 -21402 0
20504 21402 0
-20504 -21402 0
20503 21137 0
-20503 -21137 0
21441 20501 0
-21441 -20501 0
21010 21395 0
-21010 -21395 0
21395 20120 0
-21395 -20120 0
20510 21402 0
-20510 -21402 0
21447 20124 0
-21447 -20124 0
20513 21402 0
-20513 -21402 0
20519 21402 0
-20519 -21402 0
20551 21655 0
-20551 -21655 0
20531 21402 0
-20531 -21402 0
21453 20134 0
-21453 -20134 0
20534 21402 0
-20534 -21402 0
21459 20138 0
-21459 -20138 0
20537 21402 0
-20537 -21402 0
20567 20589 0
-20567 -20589 0
20573 20589 0
-20573 -20589 0
20579 20589 0
-20579 -20589 0
20585 20589 0
-20585 -20589 0
20594 20589 0
-20594 -20589 0
21467 21511 0
-21467 -21511 0
20624 21402 0
-20624 -21402 0
21081 21099 0
-21081 -21099 0
20630 21402 0
-20630 -21402 0
21087 21099 0
-21087 -21099 0
20636 21402 0
-20636 -21402 0
21093 21099 0
-21093 -21099 0
20642 21402 0
-20642 -21402 0
21102 21099 0
-21102 -21099 0
21114 21144 0
-21114 -21144 0
21120 21144 0
-21120 -21144 0
21126 21398 0
-21126 -21398 0
21132 21398 0
-21132 -21398 0
21398 20946 0
-21398 -20946 0
21138 21389 0
-21138 -21389 0
21147 21144 0
-21147 -21144 0
20666 21148 0
-20666 -21148 0
20672 21148 0
-20672 -21148 0
20678 21148 0
-20678 -21148 0
20694 21151 0
-20694 -21151 0
20700 21151 0
-20700 -21151 0
20706 21151 0
-20706 -21151 0
20718 21154 0
-20718 -21154 0
20724 21154 0
-20724 -21154 0
20730 21402 0
-20730 -21402 0
20745 21157 0
-20745 -21157 0
20751 21157 0
-20751 -21157 0
20757 21402 0
-20757 -21402 0
20778 21402 0
-20778 -21402 0
20781 21402 0
-20781 -21402 0
20793 21168 0
-20793 -21168 0
20787 21402 0
-20787 -21402 0
20796 21791 0
-20796 -21791 0
20790 21402 0
-20790 -21402 0
20795 21353 0
-20795 -21353 0
20800 21524 0
-20800 -21524 0
20806 21524 0
-20806 -21524 0
20812 21524 0
-20812 -21524 0
20818 21524 0
-20818 -21524 0
21525 21402 0
-21525 -21402 0
21177 21189 0
-21177 -21189 0
21183 21189 0
-21183 -21189 0
21192 21189 0
-21192 -21189 0
21198 21207 0
-21198 -21207 0
21204 21207 0
-21204 -21207 0
21210 21207 0
-21210 -21207 0
21207 21165 0
-21207 -21165 0
20851 20903 0
-20851 -20903 0
20857 20903 0
-20857 -20903 0
20863 20903 0
-20863 -20903 0
20869 20903 0
-20869 -20903 0
20875 20903 0
-20875 -20903 0
21237 21294 0
-21237 -21294 0
21243 21294 0
-21243 -21294 0
21249 21294 0
-21249 -21294 0
21255 21294 0
-21255 -21294 0
20908 20903 0
-20908 -20903 0
20911 21855 0
-20911 -21855 0
21417 21860 0
-21417 -21860 0
21281 21279 0
-21281 -21279 0
21288 21294 0
-21288 -21294 0
21297 21294 0
-21297 -21294 0
21305 21785 0
-21305 -21785 0
21790 21594 0
-21790 -21594 0
21303 21389 0
-21303 -21389 0
21309 21389 0
-21309 -21389 0
21315 21389 0
-21315 -21389 0
21321 21389 0
-21321 -21389 0
21327 21389 0
-21327 -21389 0
21333 21389 0
-21333 -21389 0
21339 21389 0
-21339 -21389 0
21345 21389 0
-21345 -21389 0
21351 21389 0
-21351 -21389 0
21357 21389 0
-21357 -21389 0
21389 20943 0
-21389 -20943 0
20950 21402 0
-20950 -21402 0
21862 20949 0
-21862 -20949 0
20308 20306 0
-20308 -20306 0
20949 20308 0
-20949 -20308 0
21362 21883 0
-21362 -21883 0
20953 21402 0
-20953 -21402 0
21363 21882 0
-21363 -21882 0
20959 21402 0
-20959 -21402 0
21369 21882 0
-21369 -21882 0
20965 21402 0
-20965 -21402 0
21375 21882 0
-21375 -21882 0
20326 20324 0
-20326 -20324 0
21882 20326 0
-21882 -20326 0
20971 21396 0
-20971 -21396 0
21390 21396 0
-21390 -21396 0
21399 21396 0
-21399 -21396 0
20336 20334 0
-20336 -20334 0
21396 20336 0
-21396 -20336 0
20350 20338 0
-20350 -20338 0
20339 20350 0
-20339 -20350 0
20980 21402 0
-20980 -21402 0
20983 21402 0
-20983 -21402 0
20989 21402 0
-20989 -21402 0
21402 20348 0
-21402 -20348 0
21108 20350 0
-21108 -20350 0
20354 20352 0
-20354 -20352 0
21302 20354 0
-21302 -20354 0
20358 20356 0
-20358 -20356 0
21314 20358 0
-21314 -20358 0
20362 20360 0
-20362 -20360 0
21308 20362 0
-21308 -20362 0
20366 20364 0
-20366 -20364 0
21320 20366 0
-21320 -20366 0
20370 20368 0
-20370 -20368 0
21080 20370 0
-21080 -20370 0
20374 20372 0
-20374 -20372 0
21326 20374 0
-21326 -20374 0
20378 20376 0
-20378 -20376 0
21332 20378 0
-21332 -20378 0
20382 20380 0
-20382 -20380 0
21338 20382 0
-21338 -20382 0
20386 20384 0
-20386 -20384 0
21344 20386 0
-21344 -20386 0
20390 20388 0
-20390 -20388 0
21350 20390 0
-21350 -20390 0
20394 20392 0
-20394 -20392 0
21356 20394 0
-21356 -20394 0
20395 20396 0
-20395 -20396 0
20400 20398 0
-20400 -20398 0
20797 20400 0
-20797 -20400 0
20401 20402 0
-20401 -20402 0
-21500 21322 0
-21500 21325 0
21500 -21322 -21325 0
-21503 21328 0
-21503 21331 0
21503 -21328 -21331 0
-21506 21334 0
-21506 21337 0
21506 -21334 -21337 0
-21494 21340 0
-21494 21343 0
21494 -21340 -21343 0
-21497 21346 0
-21497 21349 0
21497 -21346 -21349 0
-21889 21418 0
-21889 20420 0
21889 -21418 -20420 0
-21891 21602 0
-21891 20423 0
21891 -21602 -20423 0
-21604 21606 0
-21604 21607 0
21604 -21606 -21607 0
-21893 21608 0
-21893 20429 0
21893 -21608 -20429 0
-21610 21612 0
-21610 21613 0
21610 -21612 -21613 0
-21895 21424 0
-21895 20435 0
21895 -21424 -20435 0
-21897 21614 0
-21897 20438 0
21897 -21614 -20438 0
-21616 21618 0
-21616 21619 0
21616 -21618 -21619 0
-21606 21599 0
-21606 21423 0
21606 -21599 -21423 0
-21612 21606 0
-21612 21607 0
21612 -21606 -21607 0
-21428 21612 0
-21428 21613 0
21428 -21612 -21613 0
-21618 21428 0
-21618 21429 0
21618 -21428 -21429 0
-21899 21430 0
-21899 20456 0
21899 -21430 -20456 0
-21901 21620 0
-21901 20459 0
21901 -21620 -20459 0
-21622 21624 0
-21622 21625 0
21622 -21624 -21625 0
-21903 21626 0
-21903 20465 0
21903 -21626 -20465 0
-21628 21630 0
-21628 21631 0
21628 -21630 -21631 0
-21905 21632 0
-21905 20471 0
21905 -21632 -20471 0
-21634 21636 0
-21634 21637 0
21634 -21636 -21637 0
-21907 21638 0
-21907 20477 0
21907 -21638 -20477 0
-21640 21642 0
-21640 21643 0
21640 -21642 -21643 0
-21909 21436 0
-21909 20483 0
21909 -21436 -20483 0
-21624 21434 0
-21624 21435 0
21624 -21434 -21435 0
-21630 21624 0
-21630 21625 0
21630 -21624 -21625 0
-21636 21630 0
-21636 21631 0
21636 -21630 -21631 0
-21642 21636 0
-21642 21637 0
21642 -21636 -21637 0
-21440 21642 0
-21440 21643 0
21440 -21642 -21643 0
-21016 21440 0
-21016 20501 0
21016 -21440 -20501 0
-21911 20503 0
-21911 20504 0
21911 -20503 -20504 0
-21119 21005 0
-21119 21008 0
21119 -21005 -21008 0
-21913 21442 0
-21913 20510 0
21913 -21442 -20510 0
-21915 21644 0
-21915 20513 0
21915 -21644 -20513 0
-21646 21648 0
-21646 21649 0
21646 -21648 -21649 0
-21917 21650 0
-21917 20519 0
21917 -21650 -20519 0
-21652 21654 0
-21652 21655 0
21652 -21654 -21655 0
-21648 21446 0
-21648 21447 0
21648 -21446 -21447 0
-21654 21648 0
-21654 21649 0
21654 -21648 -21649 0
-21919 21448 0
-21919 20531 0
21919 -21448 -20531 0
-21921 21454 0
-21921 20534 0
21921 -21454 -20534 0
-21923 21656 0
-21923 20537 0
21923 -21656 -20537 0
-21658 21660 0
-21658 21661 0
21658 -21660 -21661 0
-21458 21730 0
-21458 21453 0
21458 -21730 -21453 0
-21660 21458 0
-21660 21459 0
21660 -21458 -21459 0
-21110 21654 0
-21110 21655 0
21110 -21654 -21655 0
-21143 20551 0
-21143 21654 0
21143 -20551 -21654 0
-21004 21618 0
-21004 21619 0
21004 -21618 -21619 0
-21013 21440 0
-21013 21441 0
21013 -21440 -21441 0
-21225 21660 0
-21225 21661 0
21225 -21660 -21661 0
-21122 21778 0
-21122 21779 0
21122 -21778 -21779 0
-21925 21662 0
-21925 20567 0
21925 -21662 -20567 0
-21664 21699 0
-21664 21667 0
21664 -21699 -21667 0
-21927 21668 0
-21927 20573 0
21927 -21668 -20573 0
-21670 21672 0
-21670 21673 0
21670 -21672 -21673 0
-21929 21674 0
-21929 20579 0
21929 -21674 -20579 0
-21676 21678 0
-21676 21679 0
21676 -21678 -21679 0
-21931 21680 0
-21931 20585 0
21931 -21680 -20585 0
-21682 21684 0
-21682 21685 0
21682 -21684 -21685 0
-20589 21310 0
-20589 21313 0
20589 -21310 -21313 0
-21933 21686 0
-21933 20594 0
21933 -21686 -20594 0
-21688 21690 0
-21688 21691 0
21688 -21690 -21691 0
-21672 21699 0
-21672 21667 0
21672 -21699 -21667 0
-21678 21672 0
-21678 21673 0
21678 -21672 -21673 0
-21684 21678 0
-21684 21679 0
21684 -21678 -21679 0
-21690 21684 0
-21690 21685 0
21690 -21684 -21685 0
-21037 21029 0
-21037 21698 0
21037 -21029 -21698 0
-21043 21032 0
-21043 21035 0
21043 -21032 -21035 0
-21049 21038 0
-21049 21041 0
21049 -21038 -21041 0
-21055 21044 0
-21055 21047 0
21055 -21044 -21047 0
-21935 20625 0
-21935 20624 0
21935 -20625 -20624 0
-20625 21076 0
-20625 21079 0
20625 -21076 -21079 0
-21937 20631 0
-21937 20630 0
21937 -20631 -20630 0
-20631 21082 0
-20631 21085 0
20631 -21082 -21085 0
-21939 20637 0
-21939 20636 0
21939 -20637 -20636 0
-20637 21088 0
-20637 21091 0
20637 -21088 -21091 0
-21941 20643 0
-21941 20642 0
21941 -20643 -20642 0
-20643 21097 0
-20643 21100 0
20643 -21097 -21100 0
-21706 21523 0
-21706 21108 0
21706 -21523 -21108 0
-21703 21521 0
-21703 21108 0
21703 -21521 -21108 0
-21748 21109 0
-21748 21112 0
21748 -21109 -21112 0
-21161 21121 0
-21161 21124 0
21161 -21121 -21124 0
-21134 21127 0
-21134 21130 0
21134 -21127 -21130 0
-21766 21712 0
-21766 21725 0
21766 -21712 -21725 0
-21943 21708 0
-21943 20666 0
21943 -21708 -20666 0
-21710 21712 0
-21710 21713 0
21710 -21712 -21713 0
-21945 21714 0
-21945 20672 0
21945 -21714 -20672 0
-21716 21718 0
-21716 21719 0
21716 -21718 -21719 0
-21947 21720 0
-21947 20678 0
21947 -21720 -20678 0
-21722 21724 0
-21722 21725 0
21722 -21724 -21725 0
-21718 21712 0
-21718 21713 0
21718 -21712 -21713 0
-21724 21718 0
-21724 21719 0
21724 -21718 -21719 0
-21153 21730 0
-21153 21731 0
-21153 21743 0
21153 -21730 -21731 -21743 0
-21949 21726 0
-21949 20694 0
21949 -21726 -20694 0
-21728 21730 0
-21728 21731 0
21728 -21730 -21731 0
-21951 21732 0
-21951 20700 0
21951 -21732 -20700 0
-21734 21736 0
-21734 21737 0
21734 -21736 -21737 0
-21953 21738 0
-21953 20706 0
21953 -21738 -20706 0
-21740 21742 0
-21740 21743 0
21740 -21742 -21743 0
-21736 21730 0
-21736 21731 0
21736 -21730 -21731 0
-21742 21736 0
-21742 21737 0
21742 -21736 -21737 0
-21955 21744 0
-21955 20718 0
21955 -21744 -20718 0
-21746 21748 0
-21746 21749 0
21746 -21748 -21749 0
-21957 21750 0
-21957 20724 0
21957 -21750 -20724 0
-21752 21754 0
-21752 21755 0
21752 -21754 -21755 0
-21959 21756 0
-21959 20730 0
21959 -21756 -20730 0
-21758 21760 0
-21758 21761 0
21758 -21760 -21761 0
-21754 21748 0
-21754 21749 0
21754 -21748 -21749 0
-21760 21748 0
-21760 21755 0
21760 -21748 -21755 0
-21228 21760 0
-21228 21761 0
21228 -21760 -21761 0
-21961 21762 0
-21961 20745 0
21961 -21762 -20745 0
-21764 21766 0
-21764 21767 0
21764 -21766 -21767 0
-21963 21768 0
-21963 20751 0
21963 -21768 -20751 0
-21770 21772 0
-21770 21773 0
21770 -21772 -21773 0
-21965 21774 0
-21965 20757 0
21965 -21774 -20757 0
-21776 21778 0
-21776 21779 0
21776 -21778 -21779 0
-21772 21766 0
-21772 21767 0
21772 -21766 -21767 0
-21778 21766 0
-21778 21773 0
21778 -21766 -21773 0
-20916 21142 0
-20916 21145 0
20916 -21142 -21145 0
-21856 21115 0
-21856 21118 0
21856 -21115 -21118 0
-21476 21133 0
-21476 21136 0
21476 -21133 -21136 0
-21967 21163 0
-21967 20778 0
21967 -21163 -20778 0
-21969 21780 0
-21969 20781 0
21969 -21780 -20781 0
-21781 21790 0
-21781 21207 0
21781 -21790 -21207 0
-21971 21166 0
-21971 20787 0
21971 -21166 -20787 0
-21973 21786 0
-21973 20790 0
21973 -21786 -20790 0
-21787 21790 0
-21787 20793 0
21787 -21790 -20793 0
-21299 20795 0
-21299 20796 0
-21299 20797 0
21299 -20795 -20796 -20797 0
-21975 21792 0
-21975 20800 0
21975 -21792 -20800 0
-21794 21796 0
-21794 21797 0
21794 -21796 -21797 0
-21977 21798 0
-21977 20806 0
21977 -21798 -20806 0
-21800 21802 0
-21800 21803 0
21800 -21802 -21803 0
-21979 21804 0
-21979 20812 0
21979 -21804 -20812 0
-21806 21808 0
-21806 21809 0
21806 -21808 -21809 0
-21981 21810 0
-21981 20818 0
21981 -21810 -20818 0
-21812 21814 0
-21812 21815 0
21812 -21814 -21815 0
-21802 21796 0
-21802 21797 0
21802 -21796 -21797 0
-21808 21802 0
-21808 21803 0
21808 -21802 -21803 0
-21814 21808 0
-21814 21809 0
21814 -21808 -21809 0
-21176 21193 0
-21176 21196 0
21176 -21193 -21196 0
-21182 21199 0
-21182 21202 0
21182 -21199 -21202 0
-21191 21205 0
-21191 21208 0
21191 -21205 -21208 0
-21983 21172 0
-21983 21175 0
21983 -21172 -21175 0
-21985 21178 0
-21985 21181 0
21985 -21178 -21181 0
-21987 21187 0
-21987 21190 0
21987 -21187 -21190 0
-21989 21820 0
-21989 20851 0
21989 -21820 -20851 0
-21822 21824 0
-21822 21825 0
21822 -21824 -21825 0
-21991 21826 0
-21991 20857 0
21991 -21826 -20857 0
-21828 21830 0
-21828 21831 0
21828 -21830 -21831 0
-21993 21832 0
-21993 20863 0
21993 -21832 -20863 0
-21834 21836 0
-21834 21837 0
21834 -21836 -21837 0
-21995 21838 0
-21995 20869 0
21995 -21838 -20869 0
-21840 21842 0
-21840 21843 0
21840 -21842 -21843 0
-21997 21844 0
-21997 20875 0
21997 -21844 -20875 0
-21846 21848 0
-21846 21849 0
21846 -21848 -21849 0
-21830 21824 0
-21830 21825 0
21830 -21824 -21825 0
-21836 21830 0
-21836 21831 0
21836 -21830 -21831 0
-21842 21836 0
-21842 21837 0
21842 -21836 -21837 0
-21848 21842 0
-21848 21843 0
21848 -21842 -21843 0
-21999 21232 0
-21999 21235 0
21999 -21232 -21235 0
-22001 21238 0
-22001 21241 0
22001 -21238 -21241 0
-22003 21244 0
-22003 21247 0
22003 -21244 -21247 0
-22005 21250 0
-22005 21253 0
22005 -21250 -21253 0
-20903 21316 0
-20903 21319 0
20903 -21316 -21319 0
-22007 21271 0
-22007 20908 0
22007 -21271 -20908 0
-21272 21274 0
-21272 20911 0
21272 -21274 -20911 0
-21279 21304 0
-21279 21307 0
21279 -21304 -21307 0
-21824 20916 0
-21824 21857 0
21824 -20916 -21857 0
-22009 21283 0
-22009 21286 0
22009 -21283 -21286 0
-22011 21292 0
-22011 21295 0
22011 -21292 -21295 0
-21465 21352 0
-21465 21355 0
21465 -21352 -21355 0
-21475 21298 0
-21475 21301 0
21475 -21298 -21301 0
-21874 21004 0
-21874 21362 0
21874 -21004 -21362 0
-21875 21013 0
-21875 21368 0
21875 -21013 -21368 0
-21876 21225 0
-21876 21374 0
21876 -21225 -21374 0
-21877 21122 0
-21877 21371 0
21877 -21122 -21371 0
-21185 20943 0
-21185 21524 0
21185 -20943 -21524 0
-21290 20946 0
-21290 21524 0
21290 -20946 -21524 0
-22013 20949 0
-22013 20950 0
22013 -20949 -20950 0
-22015 20954 0
-22015 20953 0
22015 -20954 -20953 0
-20954 21358 0
-20954 21361 0
20954 -21358 -21361 0
-22017 20960 0
-22017 20959 0
22017 -20960 -20959 0
-20960 21364 0
-20960 21367 0
20960 -21364 -21367 0
-22019 20966 0
-22019 20965 0
22019 -20966 -20965 0
-20966 21370 0
-20966 21373 0
20966 -21370 -21373 0
-21865 21379 0
-21865 20971 0
21865 -21379 -20971 0
-21868 21385 0
-21868 21388 0
21868 -21385 -21388 0
-21871 21394 0
-21871 21397 0
21871 -21394 -21397 0
-22027 21460 0
-22027 20980 0
22027 -21460 -20980 0
-22029 21878 0
-22029 20983 0
22029 -21878 -20983 0
-21879 21882 0
-21879 21371 0
21879 -21882 -21371 0
-22031 21858 0
-22031 20989 0
22031 -21858 -20989 0
21420 -21599 0
21420 -21423 0
-21420 21599 21423 0
21426 -21428 0
21426 -21429 0
-21426 21428 21429 0
21432 -21434 0
21432 -21435 0
-21432 21434 21435 0
21438 -21440 0
21438 -21441 0
-21438 21440 21441 0
21434 -21395 0
21434 -21004 0
-21434 21395 21004 0
21005 -21441 0
21005 -21395 0
-21005 21441 21395 0
21008 -21137 0
21008 -21010 0
-21008 21137 21010 0
21730 -21395 0
21730 -21013 0
-21730 21395 21013 0
21146 -21395 0
21146 -21016 0
-21146 21395 21016 0
21444 -21446 0
21444 -21447 0
-21444 21446 21447 0
21450 -21730 0
21450 -21453 0
-21450 21730 21453 0
21456 -21458 0
21456 -21459 0
-21456 21458 21459 0
21462 -21475 0
21462 -21470 0
-21462 21475 21470 0
21029 -21500 0
21029 -21667 0
-21029 21500 21667 0
21032 -21503 0
21032 -21673 0
-21032 21503 21673 0
21035 -21697 0
21035 -21037 0
-21035 21697 21037 0
21038 -21506 0
21038 -21679 0
-21038 21506 21679 0
21041 -21695 0
21041 -21043 0
-21041 21695 21043 0
21044 -21494 0
21044 -21685 0
-21044 21494 21685 0
21047 -21694 0
21047 -21049 0
-21047 21694 21049 0
21600 -21497 0
21600 -21691 0
-21600 21497 21691 0
21601 -21693 0
21601 -21055 0
-21601 21693 21055 0
21479 -21667 0
21479 -21500 0
-21479 21667 21500 0
21482 -21673 0
21482 -21503 0
-21482 21673 21503 0
21485 -21679 0
21485 -21506 0
-21485 21679 21506 0
21488 -21685 0
21488 -21494 0
-21488 21685 21494 0
21491 -21691 0
21491 -21497 0
-21491 21691 21497 0
21104 -21514 0
21104 -21515 0
21104 -21516 0
21104 -21517 0
-21104 21514 21515 21516 21517 0
21076 -21517 0
21076 -21099 0
-21076 21517 21099 0
21079 -21080 0
21079 -21081 0
-21079 21080 21081 0
21082 -21516 0
21082 -21099 0
-21082 21516 21099 0
21085 -21517 0
21085 -21087 0
-21085 21517 21087 0
21088 -21515 0
21088 -21099 0
-21088 21515 21099 0
21091 -21516 0
21091 -21093 0
-21091 21516 21093 0
21099 -21153 0
21099 -21398 0
-21099 21153 21398 0
21097 -21514 0
21097 -21099 0
-21097 21514 21099 0
21100 -21515 0
21100 -21102 0
-21100 21515 21102 0
21519 -21104 0
21519 -21108 0
-21519 21104 21108 0
21522 -21700 0
21522 -21108 0
-21522 21700 21108 0
21109 -21110 0
21109 -21144 0
-21109 21110 21144 0
21112 -21730 0
21112 -21114 0
-21112 21730 21114 0
21115 -21655 0
21115 -21144 0
-21115 21655 21144 0
21118 -21119 0
21118 -21120 0
-21118 21119 21120 0
21121 -21122 0
21121 -21398 0
-21121 21122 21398 0
21124 -21228 0
21124 -21126 0
-21124 21228 21126 0
21127 -21779 0
21127 -21398 0
-21127 21779 21398 0
21130 -21761 0
21130 -21132 0
-21130 21761 21132 0
21133 -21134 0
21133 -21389 0
-21133 21134 21389 0
21136 -21137 0
21136 -21138 0
-21136 21137 21138 0
21144 -21299 0
21144 -21389 0
-21144 21299 21389 0
21142 -21143 0
21142 -21144 0
-21142 21143 21144 0
21145 -21146 0
21145 -21147 0
-21145 21146 21147 0
21148 -21402 0
21148 -21766 0
-21148 21402 21766 0
21151 -21402 0
21151 -21153 0
-21151 21402 21153 0
21154 -21402 0
21154 -21760 0
-21154 21402 21760 0
21157 -21402 0
21157 -21778 0
-21157 21402 21778 0
21796 -21161 0
21796 -21389 0
-21796 21161 21389 0
21163 -21856 0
21163 -21165 0
-21163 21856 21165 0
21166 -21790 0
21166 -21168 0
-21166 21790 21168 0
21353 -21593 0
21353 -21857 0
-21353 21593 21857 0
21172 -21817 0
21172 -21189 0
-21172 21817 21189 0
21175 -21176 0
21175 -21177 0
-21175 21176 21177 0
21178 -21818 0
21178 -21189 0
-21178 21818 21189 0
21181 -21182 0
21181 -21183 0
-21181 21182 21183 0
21189 -21185 0
21189 -21402 0
-21189 21185 21402 0
21187 -21819 0
21187 -21189 0
-21187 21819 21189 0
21190 -21191 0
21190 -21192 0
-21190 21191 21192 0
21193 -21344 0
21193 -21207 0
-21193 21344 21207 0
21196 -21326 0
21196 -21198 0
-21196 21326 21198 0
21199 -21350 0
21199 -21207 0
-21199 21350 21207 0
21202 -21332 0
21202 -21204 0
-21202 21332 21204 0
21205 -21356 0
21205 -21207 0
-21205 21356 21207 0
21208 -21338 0
21208 -21210 0
-21208 21338 21210 0
21529 -21817 0
21529 -21797 0
-21529 21817 21797 0
21532 -21818 0
21532 -21803 0
-21532 21818 21803 0
21535 -21819 0
21535 -21809 0
-21535 21819 21809 0
21538 -21816 0
21538 -21815 0
-21538 21816 21815 0
21446 -21398 0
21446 -21225 0
-21446 21398 21225 0
21712 -21398 0
21712 -21228 0
-21712 21398 21228 0
21857 -21551 0
21857 -21555 0
-21857 21551 21555 0
21232 -21851 0
21232 -21294 0
-21232 21851 21294 0
21235 -21302 0
21235 -21237 0
-21235 21302 21237 0
21238 -21852 0
21238 -21294 0
-21238 21852 21294 0
21241 -21314 0
21241 -21243 0
-21241 21314 21243 0
21244 -21853 0
21244 -21294 0
-21244 21853 21294 0
21247 -21308 0
21247 -21249 0
-21247 21308 21249 0
21250 -21854 0
21250 -21294 0
-21250 21854 21294 0
21253 -21320 0
21253 -21255 0
-21253 21320 21255 0
21560 -21851 0
21560 -21825 0
-21560 21851 21825 0
21563 -21852 0
21563 -21831 0
-21563 21852 21831 0
21566 -21853 0
21566 -21837 0
-21566 21853 21837 0
21569 -21854 0
21569 -21843 0
-21569 21854 21843 0
21572 -21850 0
21572 -21849 0
-21572 21850 21849 0
21271 -21272 0
21271 -21824 0
-21271 21272 21824 0
21274 -21593 0
21274 -21855 0
-21274 21593 21855 0
21589 -21293 0
21589 -21279 0
-21589 21293 21279 0
21590 -21281 0
21590 -21284 0
-21590 21281 21284 0
21283 -21284 0
21283 -21294 0
-21283 21284 21294 0
21286 -21396 0
21286 -21288 0
-21286 21396 21288 0
21294 -21290 0
21294 -21402 0
-21294 21290 21402 0
21292 -21293 0
21292 -21294 0
-21292 21293 21294 0
21295 -21882 0
21295 -21297 0
-21295 21882 21297 0
21298 -21299 0
21298 -21389 0
-21298 21299 21389 0
21301 -21302 0
21301 -21303 0
-21301 21302 21303 0
21304 -21305 0
21304 -21389 0
-21304 21305 21389 0
21307 -21308 0
21307 -21309 0
-21307 21308 21309 0
21310 -21524 0
21310 -21389 0
-21310 21524 21389 0
21313 -21314 0
21313 -21315 0
-21313 21314 21315 0
21316 -21524 0
21316 -21389 0
-21316 21524 21389 0
21319 -21320 0
21319 -21321 0
-21319 21320 21321 0
21322 -21403 0
21322 -21389 0
-21322 21403 21389 0
21325 -21326 0
21325 -21327 0
-21325 21326 21327 0
21328 -21406 0
21328 -21389 0
-21328 21406 21389 0
21331 -21332 0
21331 -21333 0
-21331 21332 21333 0
21334 -21409 0
21334 -21389 0
-21334 21409 21389 0
21337 -21338 0
21337 -21339 0
-21337 21338 21339 0
21340 -21412 0
21340 -21389 0
-21340 21412 21389 0
21343 -21344 0
21343 -21345 0
-21343 21344 21345 0
21346 -21415 0
21346 -21389 0
-21346 21415 21389 0
21349 -21350 0
21349 -21351 0
-21349 21350 21351 0
21352 -21353 0
21352 -21389 0
-21352 21353 21389 0
21355 -21356 0
21355 -21357 0
-21355 21356 21357 0
21358 -21368 0
21358 -21882 0
-21358 21368 21882 0
21361 -21362 0
21361 -21363 0
-21361 21362 21363 0
21364 -21374 0
21364 -21882 0
-21364 21374 21882 0
21367 -21368 0
21367 -21369 0
-21367 21368 21369 0
21370 -21371 0
21370 -21882 0
-21370 21371 21882 0
21373 -21374 0
21373 -21375 0
-21373 21374 21375 0
22021 -21864 0
22021 -21400 0
-22021 21864 21400 0
21379 -21389 0
21379 -21396 0
-21379 21389 21396 0
22023 -21867 0
22023 -21400 0
-22023 21867 21400 0
21385 -21398 0
21385 -21396 0
-21385 21398 21396 0
21388 -21389 0
21388 -21390 0
-21388 21389 21390 0
22025 -21870 0
22025 -21400 0
-22025 21870 21400 0
21394 -21395 0
21394 -21396 0
-21394 21395 21396 0
21397 -21398 0
21397 -21399 0
-21397 21398 21399 0
21400 -21862 0
21400 -21402 0
-21400 21862 21402 0
21403 21825 0
21403 21417 0
-21403 -21825 -21417 0
21406 21831 0
21406 21417 0
-21406 -21831 -21417 0
21409 21837 0
21409 21417 0
-21409 -21837 -21417 0
21412 21843 0
21412 21417 0
-21412 -21843 -21417 0
21415 21849 0
21415 21417 0
-21415 -21849 -21417 0
21418 21421 0
21418 21420 0
-21418 -21421 -21420 0
21421 21599 0
21421 21423 0
-21421 -21599 -21423 0
21424 21427 0
21424 21426 0
-21424 -21427 -21426 0
21427 21428 0
21427 21429 0
-21427 -21428 -21429 0
21430 21433 0
21430 21432 0
-21430 -21433 -21432 0
21433 21434 0
21433 21435 0
-21433 -21434 -21435 0
21436 21439 0
21436 21438 0
-21436 -21439 -21438 0
21439 21440 0
21439 21441 0
-21439 -21440 -21441 0
21442 21445 0
21442 21444 0
-21442 -21445 -21444 0
21445 21446 0
21445 21447 0
-21445 -21446 -21447 0
21448 21451 0
21448 21450 0
-21448 -21451 -21450 0
21451 21730 0
21451 21453 0
-21451 -21730 -21453 0
21454 21457 0
21454 21456 0
-21454 -21457 -21456 0
21457 21458 0
21457 21459 0
-21457 -21458 -21459 0
21460 21474 0
21460 21462 0
-21460 -21474 -21462 0
21473 21856 0
21473 21465 0
-21473 -21856 -21465 0
21472 21467 0
21472 21510 0
21472 21856 0
-21472 -21467 -21510 -21856 0
21470 21599 0
21470 21472 0
21470 21473 0
-21470 -21599 -21472 -21473 0
21474 21475 0
21474 21476 0
-21474 -21475 -21476 0
21698 21498 0
21698 21479 0
-21698 -21498 -21479 0
21697 21501 0
21697 21482 0
-21697 -21501 -21482 0
21695 21504 0
21695 21485 0
-21695 -21504 -21485 0
21694 21492 0
21694 21488 0
-21694 -21492 -21488 0
21693 21495 0
21693 21491 0
-21693 -21495 -21491 0
21492 21685 0
21492 21494 0
-21492 -21685 -21494 0
21495 21691 0
21495 21497 0
-21495 -21691 -21497 0
21498 21667 0
21498 21500 0
-21498 -21667 -21500 0
21501 21673 0
21501 21503 0
-21501 -21673 -21503 0
21504 21679 0
21504 21506 0
-21504 -21679 -21506 0
21511 21692 0
21511 21696 0
-21511 -21692 -21696 0
21510 21511 0
21510 21599 0
-21510 -21511 -21599 0
21700 21514 0
21700 21515 0
21700 21516 0
21700 21517 0
-21700 -21514 -21515 -21516 -21517 0
21523 21519 0
21523 21520 0
-21523 -21519 -21520 0
21521 21522 0
21521 21523 0
-21521 -21522 -21523 0
21524 21525 0
21524 21594 0
-21524 -21525 -21594 0
21595 21539 0
21595 21529 0
-21595 -21539 -21529 0
21596 21542 0
21596 21532 0
-21596 -21542 -21532 0
21597 21545 0
21597 21535 0
-21597 -21545 -21535 0
21598 21548 0
21598 21538 0
-21598 -21548 -21538 0
21539 21817 0
21539 21797 0
-21539 -21817 -21797 0
21542 21818 0
21542 21803 0
-21542 -21818 -21803 0
21545 21819 0
21545 21809 0
-21545 -21819 -21809 0
21548 21816 0
21548 21815 0
-21548 -21816 -21815 0
21551 21558 0
21551 21561 0
21551 21564 0
-21551 -21558 -21561 -21564 0
21555 21567 0
21555 21570 0
-21555 -21567 -21570 0
21558 21573 0
21558 21560 0
-21558 -21573 -21560 0
21561 21576 0
21561 21563 0
-21561 -21576 -21563 0
21564 21579 0
21564 21566 0
-21564 -21579 -21566 0
21567 21582 0
21567 21569 0
-21567 -21582 -21569 0
21570 21585 0
21570 21572 0
-21570 -21585 -21572 0
21573 21851 0
21573 21825 0
-21573 -21851 -21825 0
21576 21852 0
21576 21831 0
-21576 -21852 -21831 0
21579 21853 0
21579 21837 0
-21579 -21853 -21837 0
21582 21854 0
21582 21843 0
-21582 -21854 -21843 0
21585 21850 0
21585 21849 0
-21585 -21850 -21849 0
21860 21589 0
21860 21590 0
-21860 -21589 -21590 0
21859 21856 0
21859 21593 0
-21859 -21856 -21593 0
21594 21595 0
21594 21596 0
21594 21597 0
21594 21598 0
-21594 -21595 -21596 -21597 -21598 0
21599 21600 0
21599 21601 0
-21599 -21600 -21601 0
-21602 -21605 0
-21602 -21604 0
21602 21605 21604 0
-21605 -21606 0
-21605 -21607 0
21605 21606 21607 0
-21608 -21611 0
-21608 -21610 0
21608 21611 21610 0
-21611 -21612 0
-21611 -21613 0
21611 21612 21613 0
-21614 -21617 0
-21614 -21616 0
21614 21617 21616 0
-21617 -21618 0
-21617 -21619 0
21617 21618 21619 0
-21620 -21623 0
-21620 -21622 0
21620 21623 21622 0
-21623 -21624 0
-21623 -21625 0
21623 21624 21625 0
-21626 -21629 0
-21626 -21628 0
21626 21629 21628 0
-21629 -21630 0
-21629 -21631 0
21629 21630 21631 0
-21632 -21635 0
-21632 -21634 0
21632 21635 21634 0
-21635 -21636 0
-21635 -21637 0
21635 21636 21637 0
-21638 -21641 0
-21638 -21640 0
21638 21641 21640 0
-21641 -21642 0
-21641 -21643 0
21641 21642 21643 0
-21644 -21647 0
-21644 -21646 0
21644 21647 21646 0
-21647 -21648 0
-21647 -21649 0
21647 21648 21649 0
-21650 -21653 0
-21650 -21652 0
21650 21653 21652 0
-21653 -21654 0
-21653 -21655 0
21653 21654 21655 0
-21656 -21659 0
-21656 -21658 0
21656 21659 21658 0
-21659 -21660 0
-21659 -21661 0
21659 21660 21661 0
-21662 -21665 0
-21662 -21664 0
21662 21665 21664 0
-21665 -21699 0
-21665 -21667 0
21665 21699 21667 0
-21668 -21671 0
-21668 -21670 0
21668 21671 21670 0
-21671 -21672 0
-21671 -21673 0
21671 21672 21673 0
-21674 -21677 0
-21674 -21676 0
21674 21677 21676 0
-21677 -21678 0
-21677 -21679 0
21677 21678 21679 0
-21680 -21683 0
-21680 -21682 0
21680 21683 21682 0
-21683 -21684 0
-21683 -21685 0
21683 21684 21685 0
-21686 -21689 0
-21686 -21688 0
21686 21689 21688 0
-21689 -21690 0
-21689 -21691 0
21689 21690 21691 0
-21692 -21693 0
-21692 -21694 0
-21692 -21695 0
21692 21693 21694 21695 0
-21696 -21697 0
-21696 -21698 0
21696 21697 21698 0
-21699 -21700 0
-21699 -21705 0
21699 21700 21705 0
-21707 -21703 0
-21707 -21704 0
21707 21703 21704 0
-21705 -21706 0
-21705 -21707 0
21705 21706 21707 0
-21708 -21711 0
-21708 -21710 0
21708 21711 21710 0
-21711 -21712 0
-21711 -21713 0
21711 21712 21713 0
-21714 -21717 0
-21714 -21716 0
21714 21717 21716 0
-21717 -21718 0
-21717 -21719 0
21717 21718 21719 0
-21720 -21723 0
-21720 -21722 0
21720 21723 21722 0
-21723 -21724 0
-21723 -21725 0
21723 21724 21725 0
-21726 -21729 0
-21726 -21728 0
21726 21729 21728 0
-21729 -21730 0
-21729 -21731 0
21729 21730 21731 0
-21732 -21735 0
-21732 -21734 0
21732 21735 21734 0
-21735 -21736 0
-21735 -21737 0
21735 21736 21737 0
-21738 -21741 0
-21738 -21740 0
21738 21741 21740 0
-21741 -21742 0
-21741 -21743 0
21741 21742 21743 0
-21744 -21747 0
-21744 -21746 0
21744 21747 21746 0
-21747 -21748 0
-21747 -21749 0
21747 21748 21749 0
-21750 -21753 0
-21750 -21752 0
21750 21753 21752 0
-21753 -21754 0
-21753 -21755 0
21753 21754 21755 0
-21756 -21759 0
-21756 -21758 0
21756 21759 21758 0
-21759 -21760 0
-21759 -21761 0
21759 21760 21761 0
-21762 -21765 0
-21762 -21764 0
21762 21765 21764 0
-21765 -21766 0
-21765 -21767 0
21765 21766 21767 0
-21768 -21771 0
-21768 -21770 0
21768 21771 21770 0
-21771 -21772 0
-21771 -21773 0
21771 21772 21773 0
-21774 -21777 0
-21774 -21776 0
21774 21777 21776 0
-21777 -21778 0
-21777 -21779 0
21777 21778 21779 0
-21780 -21781 0
-21780 -21783 0
21780 21781 21783 0
-21783 -21790 0
-21783 -21785 0
21783 21790 21785 0
-21786 -21787 0
-21786 -21789 0
21786 21787 21789 0
-21789 -21790 0
-21789 -21791 0
21789 21790 21791 0
-21792 -21795 0
-21792 -21794 0
21792 21795 21794 0
-21795 -21796 0
-21795 -21797 0
21795 21796 21797 0
-21798 -21801 0
-21798 -21800 0
21798 21801 21800 0
-21801 -21802 0
-21801 -21803 0
21801 21802 21803 0
-21804 -21807 0
-21804 -21806 0
21804 21807 21806 0
-21807 -21808 0
-21807 -21809 0
21807 21808 21809 0
-21810 -21813 0
-21810 -21812 0
21810 21813 21812 0
-21813 -21814 0
-21813 -21815 0
21813 21814 21815 0
-21816 -21817 0
-21816 -21818 0
-21816 -21819 0
21816 21817 21818 21819 0
-21820 -21823 0
-21820 -21822 0
21820 21823 21822 0
-21823 -21824 0
-21823 -21825 0
21823 21824 21825 0
-21826 -21829 0
-21826 -21828 0
21826 21829 21828 0
-21829 -21830 0
-21829 -21831 0
21829 21830 21831 0
-21832 -21835 0
-21832 -21834 0
21832 21835 21834 0
-21835 -21836 0
-21835 -21837 0
21835 21836 21837 0
-21838 -21841 0
-21838 -21840 0
21838 21841 21840 0
-21841 -21842 0
-21841 -21843 0
21841 21842 21843 0
-21844 -21847 0
-21844 -21846 0
21844 21847 21846 0
-21847 -21848 0
-21847 -21849 0
21847 21848 21849 0
-21850 -21851 0
-21850 -21852 0
-21850 -21853 0
-21850 -21854 0
21850 21851 21852 21853 21854 0
-21855 -21856 0
-21855 -21857 0
21855 21856 21857 0
-21858 -21859 0
-21858 -21860 0
21858 21859 21860 0
-21872 -21862 0
-21872 -21863 0
21872 21862 21863 0
-21864 -21865 0
-21864 -21872 0
21864 21865 21872 0
-21867 -21868 0
-21867 -21872 0
21867 21868 21872 0
-21870 -21871 0
-21870 -21872 0
21870 21871 21872 0
-21873 -21874 0
-21873 -21875 0
-21873 -21876 0
-21873 -21877 0
21873 21874 21875 21876 21877 0
-21878 -21879 0
-21878 -21881 0
21878 21879 21881 0
-21881 -21882 0
-21881 -21883 0
21881 21882 21883 0
-21885 23477 0
21885 -23477 0
-21887 23661 0
21887 -23661 0
-21889 22043 0
21889 -22043 0
-21891 23564 0
21891 -23564 0
-21893 23570 0
21893 -23570 0
-21895 22051 0
21895 -22051 0
-21897 23576 0
21897 -23576 0
-21899 22057 0
21899 -22057 0
-21901 23582 0
21901 -23582 0
-21903 23588 0
21903 -23588 0
-21905 23594 0
21905 -23594 0
-21907 23600 0
21907 -23600 0
-21909 22458 0
21909 -22458 0
-21911 23094 0
21911 -23094 0
-21913 22081 0
21913 -22081 0
-21915 23606 0
21915 -23606 0
-21917 23612 0
21917 -23612 0
-21919 22091 0
21919 -22091 0
-21921 22095 0
21921 -22095 0
-21923 23618 0
21923 -23618 0
-21925 23624 0
21925 -23624 0
-21927 23630 0
21927 -23630 0
-21929 23636 0
21929 -23636 0
-21931 23642 0
21931 -23642 0
-21933 23648 0
21933 -23648 0
-21935 23474 0
21935 -23474 0
-21937 23473 0
21937 -23473 0
-21939 23472 0
21939 -23472 0
-21941 23471 0
21941 -23471 0
-21943 23670 0
21943 -23670 0
-21945 23676 0
21945 -23676 0
-21947 23682 0
21947 -23682 0
-21949 23688 0
21949 -23688 0
-21951 23694 0
21951 -23694 0
-21953 23700 0
21953 -23700 0
-21955 23706 0
21955 -23706 0
-21957 23712 0
21957 -23712 0
-21959 23718 0
21959 -23718 0
-21961 23724 0
21961 -23724 0
-21963 23730 0
21963 -23730 0
-21965 23736 0
21965 -23736 0
-21967 23122 0
21967 -23122 0
-21969 23742 0
21969 -23742 0
-21971 23125 0
21971 -23125 0
-21973 23748 0
21973 -23748 0
-21975 23754 0
21975 -23754 0
-21977 23760 0
21977 -23760 0
-21979 23766 0
21979 -23766 0
-21981 23772 0
21981 -23772 0
-21983 23774 0
21983 -23774 0
-21985 23775 0
21985 -23775 0
-21987 23776 0
21987 -23776 0
-21989 23782 0
21989 -23782 0
-21991 23788 0
21991 -23788 0
-21993 23794 0
21993 -23794 0
-21995 23800 0
21995 -23800 0
-21997 23806 0
21997 -23806 0
-21999 23808 0
21999 -23808 0
-22001 23809 0
22001 -23809 0
-22003 23810 0
22003 -23810 0
-22005 23811 0
22005 -23811 0
-22007 23550 0
22007 -23550 0
-22009 23241 0
22009 -23241 0
-22011 23250 0
22011 -23250 0
-22013 23820 0
22013 -23820 0
-22015 23325 0
22015 -23325 0
-22017 23331 0
22017 -23331 0
-22019 23328 0
22019 -23328 0
-22021 22900 0
22021 -22900 0
-22023 22903 0
22023 -22903 0
-22025 22077 0
22025 -22077 0
-22027 22353 0
22027 -22353 0
-22029 23840 0
22029 -23840 0
-22031 22359 0
22031 -22359 0
22035 23478 0
-22035 -23478 0
23842 22035 0
-23842 -22035 0
22039 23662 0
-22039 -23662 0
23844 22039 0
-23844 -22039 0
22377 23359 0
-22377 -23359 0
23380 22043 0
-23380 -22043 0
22380 23359 0
-22380 -23359 0
22386 23359 0
-22386 -23359 0
22392 23359 0
-22392 -23359 0
23386 22051 0
-23386 -22051 0
22395 23359 0
-22395 -23359 0
22413 23359 0
-22413 -23359 0
23392 22057 0
-23392 -22057 0
22416 23359 0
-22416 -23359 0
22422 23359 0
-22422 -23359 0
22428 23359 0
-22428 -23359 0
22434 23359 0
-22434 -23359 0
22440 23359 0
-22440 -23359 0
22461 23359 0
-22461 -23359 0
22460 23094 0
-22460 -23094 0
23398 22458 0
-23398 -22458 0
22967 23352 0
-22967 -23352 0
23352 22077 0
-23352 -22077 0
22467 23359 0
-22467 -23359 0
23404 22081 0
-23404 -22081 0
22470 23359 0
-22470 -23359 0
22476 23359 0
-22476 -23359 0
22508 23612 0
-22508 -23612 0
22488 23359 0
-22488 -23359 0
23410 22091 0
-23410 -22091 0
22491 23359 0
-22491 -23359 0
23416 22095 0
-23416 -22095 0
22494 23359 0
-22494 -23359 0
22524 22546 0
-22524 -22546 0
22530 22546 0
-22530 -22546 0
22536 22546 0
-22536 -22546 0
22542 22546 0
-22542 -22546 0
22551 22546 0
-22551 -22546 0
23424 23468 0
-23424 -23468 0
22581 23359 0
-22581 -23359 0
23038 23056 0
-23038 -23056 0
22587 23359 0
-22587 -23359 0
23044 23056 0
-23044 -23056 0
22593 23359 0
-22593 -23359 0
23050 23056 0
-23050 -23056 0
22599 23359 0
-22599 -23359 0
23059 23056 0
-23059 -23056 0
23071 23101 0
-23071 -23101 0
23077 23101 0
-23077 -23101 0
23083 23355 0
-23083 -23355 0
23089 23355 0
-23089 -23355 0
23355 22903 0
-23355 -22903 0
23095 23346 0
-23095 -23346 0
23104 23101 0
-23104 -23101 0
22623 23105 0
-22623 -23105 0
22629 23105 0
-22629 -23105 0
22635 23105 0
-22635 -23105 0
22651 23108 0
-22651 -23108 0
22657 23108 0
-22657 -23108 0
22663 23108 0
-22663 -23108 0
22675 23111 0
-22675 -23111 0
22681 23111 0
-22681 -23111 0
22687 23359 0
-22687 -23359 0
22702 23114 0
-22702 -23114 0
22708 23114 0
-22708 -23114 0
22714 23359 0
-22714 -23359 0
22735 23359 0
-22735 -23359 0
22738 23359 0
-22738 -23359 0
22750 23125 0
-22750 -23125 0
22744 23359 0
-22744 -23359 0
22753 23748 0
-22753 -23748 0
22747 23359 0
-22747 -23359 0
22752 23310 0
-22752 -23310 0
22757 23481 0
-22757 -23481 0
22763 23481 0
-22763 -23481 0
22769 23481 0
-22769 -23481 0
22775 23481 0
-22775 -23481 0
23482 23359 0
-23482 -23359 0
23134 23146 0
-23134 -23146 0
23140 23146 0
-23140 -23146 0
23149 23146 0
-23149 -23146 0
23155 23164 0
-23155 -23164 0
23161 23164 0
-23161 -23164 0
23167 23164 0
-23167 -23164 0
23164 23122 0
-23164 -23122 0
22808 22860 0
-22808 -22860 0
22814 22860 0
-22814 -22860 0
22820 22860 0
-22820 -22860 0
22826 22860 0
-22826 -22860 0
22832 22860 0
-22832 -22860 0
23194 23251 0
-23194 -23251 0
23200 23251 0
-23200 -23251 0
23206 23251 0
-23206 -23251 0
23212 23251 0
-23212 -23251 0
22865 22860 0
-22865 -22860 0
22868 23812 0
-22868 -23812 0
23374 23817 0
-23374 -23817 0
23238 23236 0
-23238 -23236 0
23245 23251 0
-23245 -23251 0
23254 23251 0
-23254 -23251 0
23262 23742 0
-23262 -23742 0
23747 23551 0
-23747 -23551 0
23260 23346 0
-23260 -23346 0
23266 23346 0
-23266 -23346 0
23272 23346 0
-23272 -23346 0
23278 23346 0
-23278 -23346 0
23284 23346 0
-23284 -23346 0
23290 23346 0
-23290 -23346 0
23296 23346 0
-23296 -23346 0
23302 23346 0
-23302 -23346 0
23308 23346 0
-23308 -23346 0
23314 23346 0
-23314 -23346 0
23346 22900 0
-23346 -22900 0
22907 23359 0
-22907 -23359 0
23819 22906 0
-23819 -22906 0
22265 22263 0
-22265 -22263 0
22906 22265 0
-22906 -22265 0
23319 23840 0
-23319 -23840 0
22910 23359 0
-22910 -23359 0
23320 23839 0
-23320 -23839 0
22916 23359 0
-22916 -23359 0
23326 23839 0
-23326 -23839 0
22922 23359 0
-22922 -23359 0
23332 23839 0
-23332 -23839 0
22283 22281 0
-22283 -22281 0
23839 22283 0
-23839 -22283 0
22928 23353 0
-22928 -23353 0
23347 23353 0
-23347 -23353 0
23356 23353 0
-23356 -23353 0
22293 22291 0
-22293 -22291 0
23353 22293 0
-23353 -22293 0
22307 22295 0
-22307 -22295 0
22296 22307 0
-22296 -22307 0
22937 23359 0
-22937 -23359 0
22940 23359 0
-22940 -23359 0
22946 23359 0
-22946 -23359 0
23359 22305 0
-23359 -22305 0
23065 22307 0
-23065 -22307 0
22311 22309 0
-22311 -22309 0
23259 22311 0
-23259 -22311 0
22315 22313 0
-22315 -22313 0
23271 22315 0
-23271 -22315 0
22319 22317 0
-22319 -22317 0
23265 22319 0
-23265 -22319 0
22323 22321 0
-22323 -22321 0
23277 22323 0
-23277 -22323 0
22327 22325 0
-22327 -22325 0
23037 22327 0
-23037 -22327 0
22331 22329 0
-22331 -22329 0
23283 22331 0
-23283 -22331 0
22335 22333 0
-22335 -22333 0
23289 22335 0
-23289 -22335 0
22339 22337 0
-22339 -22337 0
23295 22339 0
-23295 -22339 0
22343 22341 0
-22343 -22341 0
23301 22343 0
-23301 -22343 0
22347 22345 0
-22347 -22345 0
23307 22347 0
-23307 -22347 0
22351 22349 0
-22351 -22349 0
23313 22351 0
-23313 -22351 0
22352 22353 0
-22352 -22353 0
22357 22355 0
-22357 -22355 0
22754 22357 0
-22754 -22357 0
22358 22359 0
-22358 -22359 0
-23457 23279 0
-23457 23282 0
23457 -23279 -23282 0
-23460 23285 0
-23460 23288 0
23460 -23285 -23288 0
-23463 23291 0
-23463 23294 0
23463 -23291 -23294 0
-23451 23297 0
-23451 23300 0
23451 -23297 -23300 0
-23454 23303 0
-23454 23306 0
23454 -23303 -23306 0
-23846 23375 0
-23846 22377 0
23846 -23375 -22377 0
-23848 23559 0
-23848 22380 0
23848 -23559 -22380 0
-23561 23563 0
-23561 23564 0
23561 -23563 -23564 0
-23850 23565 0
-23850 22386 0
23850 -23565 -22386 0
-23567 23569 0
-23567 23570 0
23567 -23569 -23570 0
-23852 23381 0
-23852 22392 0
23852 -23381 -22392 0
-23854 23571 0
-23854 22395 0
23854 -23571 -22395 0
-23573 23575 0
-23573 23576 0
23573 -23575 -23576 0
-23563 23556 0
-23563 23380 0
23563 -23556 -23380 0
-23569 23563 0
-23569 23564 0
23569 -23563 -23564 0
-23385 23569 0
-23385 23570 0
23385 -23569 -23570 0
-23575 23385 0
-23575 23386 0
23575 -23385 -23386 0
-23856 23387 0
-23856 22413 0
23856 -23387 -22413 0
-23858 23577 0
-23858 22416 0
23858 -23577 -22416 0
-23579 23581 0
-23579 23582 0
23579 -23581 -23582 0
-23860 23583 0
-23860 22422 0
23860 -23583 -22422 0
-23585 23587 0
-23585 23588 0
23585 -23587 -23588 0
-23862 23589 0
-23862 22428 0
23862 -23589 -22428 0
-23591 23593 0
-23591 23594 0
23591 -23593 -23594 0
-23864 23595 0
-23864 22434 0
23864 -23595 -22434 0
-23597 23599 0
-23597 23600 0
23597 -23599 -23600 0
-23866 23393 0
-23866 22440 0
23866 -23393 -22440 0
-23581 23391 0
-23581 23392 0
23581 -23391 -23392 0
-23587 23581 0
-23587 23582 0
23587 -23581 -23582 0
-23593 23587 0
-23593 23588 0
23593 -23587 -23588 0
-23599 23593 0
-23599 23594 0
23599 -23593 -23594 0
-23397 23599 0
-23397 23600 0
23397 -23599 -23600 0
-22973 23397 0
-22973 22458 0
22973 -23397 -22458 0
-23868 22460 0
-23868 22461 0
23868 -22460 -22461 0
-23076 22962 0
-23076 22965 0
23076 -22962 -22965 0
-23870 23399 0
-23870 22467 0
23870 -23399 -22467 0
-23872 23601 0
-23872 22470 0
23872 -23601 -22470 0
-23603 23605 0
-23603 23606 0
23603 -23605 -23606 0
-23874 23607 0
-23874 22476 0
23874 -23607 -22476 0
-23609 23611 0
-23609 23612 0
23609 -23611 -23612 0
-23605 23403 0
-23605 23404 0
23605 -23403 -23404 0
-23611 23605 0
-23611 23606 0
23611 -23605 -23606 0
-23876 23405 0
-23876 22488 0
23876 -23405 -22488 0
-23878 23411 0
-23878 22491 0
23878 -23411 -22491 0
-23880 23613 0
-23880 22494 0
23880 -23613 -22494 0
-23615 23617 0
-23615 23618 0
23615 -23617 -23618 0
-23415 23687 0
-23415 23410 0
23415 -23687 -23410 0
-23617 23415 0
-23617 23416 0
23617 -23415 -23416 0
-23067 23611 0
-23067 23612 0
23067 -23611 -23612 0
-23100 22508 0
-23100 23611 0
23100 -22508 -23611 0
-22961 23575 0
-22961 23576 0
22961 -23575 -23576 0
-22970 23397 0
-22970 23398 0
22970 -23397 -23398 0
-23182 23617 0
-23182 23618 0
23182 -23617 -23618 0
-23079 23735 0
-23079 23736 0
23079 -23735 -23736 0
-23882 23619 0
-23882 22524 0
23882 -23619 -22524 0
-23621 23656 0
-23621 23624 0
23621 -23656 -23624 0
-23884 23625 0
-23884 22530 0
23884 -23625 -22530 0
-23627 23629 0
-23627 23630 0
23627 -23629 -23630 0
-23886 23631 0
-23886 22536 0
23886 -23631 -22536 0
-23633 23635 0
-23633 23636 0
23633 -23635 -23636 0
-23888 23637 0
-23888 22542 0
23888 -23637 -22542 0
-23639 23641 0
-23639 23642 0
23639 -23641 -23642 0
-22546 23267 0
-22546 23270 0
22546 -23267 -23270 0
-23890 23643 0
-23890 22551 0
23890 -23643 -22551 0
-23645 23647 0
-23645 23648 0
23645 -23647 -23648 0
-23629 23656 0
-23629 23624 0
23629 -23656 -23624 0
-23635 23629 0
-23635 23630 0
23635 -23629 -23630 0
-23641 23635 0
-23641 23636 0
23641 -23635 -23636 0
-23647 23641 0
-23647 23642 0
23647 -23641 -23642 0
-22994 22986 0
-22994 23655 0
22994 -22986 -23655 0
-23000 22989 0
-23000 22992 0
23000 -22989 -22992 0
-23006 22995 0
-23006 22998 0
23006 -22995 -22998 0
-23012 23001 0
-23012 23004 0
23012 -23001 -23004 0
-23892 22582 0
-23892 22581 0
23892 -22582 -22581 0
-22582 23033 0
-22582 23036 0
22582 -23033 -23036 0
-23894 22588 0
-23894 22587 0
23894 -22588 -22587 0
-22588 23039 0
-22588 23042 0
22588 -23039 -23042 0
-23896 22594 0
-23896 22593 0
23896 -22594 -22593 0
-22594 23045 0
-22594 23048 0
22594 -23045 -23048 0
-23898 22600 0
-23898 22599 0
23898 -22600 -22599 0
-22600 23054 0
-22600 23057 0
22600 -23054 -23057 0
-23663 23480 0
-23663 23065 0
23663 -23480 -23065 0
-23660 23478 0
-23660 23065 0
23660 -23478 -23065 0
-23705 23066 0
-23705 23069 0
23705 -23066 -23069 0
-23118 23078 0
-23118 23081 0
23118 -23078 -23081 0
-23091 23084 0
-23091 23087 0
23091 -23084 -23087 0
-23723 23669 0
-23723 23682 0
23723 -23669 -23682 0
-23900 23665 0
-23900 22623 0
23900 -23665 -22623 0
-23667 23669 0
-23667 23670 0
23667 -23669 -23670 0
-23902 23671 0
-23902 22629 0
23902 -23671 -22629 0
-23673 23675 0
-23673 23676 0
23673 -23675 -23676 0
-23904 23677 0
-23904 22635 0
23904 -23677 -22635 0
-23679 23681 0
-23679 23682 0
23679 -23681 -23682 0
-23675 23669 0
-23675 23670 0
23675 -23669 -23670 0
-23681 23675 0
-23681 23676 0
23681 -23675 -23676 0
-23110 23687 0
-23110 23688 0
-23110 23700 0
23110 -23687 -23688 -23700 0
-23906 23683 0
-23906 22651 0
23906 -23683 -22651 0
-23685 23687 0
-23685 23688 0
23685 -23687 -23688 0
-23908 23689 0
-23908 22657 0
23908 -23689 -22657 0
-23691 23693 0
-23691 23694 0
23691 -23693 -23694 0
-23910 23695 0
-23910 22663 0
23910 -23695 -22663 0
-23697 23699 0
-23697 23700 0
23697 -23699 -23700 0
-23693 23687 0
-23693 23688 0
23693 -23687 -23688 0
-23699 23693 0
-23699 23694 0
23699 -23693 -23694 0
-23912 23701 0
-23912 22675 0
23912 -23701 -22675 0
-23703 23705 0
-23703 23706 0
23703 -23705 -23706 0
-23914 23707 0
-23914 22681 0
23914 -23707 -22681 0
-23709 23711 0
-23709 23712 0
23709 -23711 -23712 0
-23916 23713 0
-23916 22687 0
23916 -23713 -22687 0
-23715 23717 0
-23715 23718 0
23715 -23717 -23718 0
-23711 23705 0
-23711 23706 0
23711 -23705 -23706 0
-23717 23705 0
-23717 23712 0
23717 -23705 -23712 0
-23185 23717 0
-23185 23718 0
23185 -23717 -23718 0
-23918 23719 0
-23918 22702 0
23918 -23719 -22702 0
-23721 23723 0
-23721 23724 0
23721 -23723 -23724 0
-23920 23725 0
-23920 22708 0
23920 -23725 -22708 0
-23727 23729 0
-23727 23730 0
23727 -23729 -23730 0
-23922 23731 0
-23922 22714 0
23922 -23731 -22714 0
-23733 23735 0
-23733 23736 0
23733 -23735 -23736 0
-23729 23723 0
-23729 23724 0
23729 -23723 -23724 0
-23735 23723 0
-23735 23730 0
23735 -23723 -23730 0
-22873 23099 0
-22873 23102 0
22873 -23099 -23102 0
-23813 23072 0
-23813 23075 0
23813 -23072 -23075 0
-23433 23090 0
-23433 23093 0
23433 -23090 -23093 0
-23924 23120 0
-23924 22735 0
23924 -23120 -22735 0
-23926 23737 0
-23926 22738 0
23926 -23737 -22738 0
-23738 23747 0
-23738 23164 0
23738 -23747 -23164 0
-23928 23123 0
-23928 22744 0
23928 -23123 -22744 0
-23930 23743 0
-23930 22747 0
23930 -23743 -22747 0
-23744 23747 0
-23744 22750 0
23744 -23747 -22750 0
-23256 22752 0
-23256 22753 0
-23256 22754 0
23256 -22752 -22753 -22754 0
-23932 23749 0
-23932 22757 0
23932 -23749 -22757 0
-23751 23753 0
-23751 23754 0
23751 -23753 -23754 0
-23934 23755 0
-23934 22763 0
23934 -23755 -22763 0
-23757 23759 0
-23757 23760 0
23757 -23759 -23760 0
-23936 23761 0
-23936 22769 0
23936 -23761 -22769 0
-23763 23765 0
-23763 23766 0
23763 -23765 -23766 0
-23938 23767 0
-23938 22775 0
23938 -23767 -22775 0
-23769 23771 0
-23769 23772 0
23769 -23771 -23772 0
-23759 23753 0
-23759 23754 0
23759 -23753 -23754 0
-23765 23759 0
-23765 23760 0
23765 -23759 -23760 0
-23771 23765 0
-23771 23766 0
23771 -23765 -23766 0
-23133 23150 0
-23133 23153 0
23133 -23150 -23153 0
-23139 23156 0
-23139 23159 0
23139 -23156 -23159 0
-23148 23162 0
-23148 23165 0
23148 -23162 -23165 0
-23940 23129 0
-23940 23132 0
23940 -23129 -23132 0
-23942 23135 0
-23942 23138 0
23942 -23135 -23138 0
-23944 23144 0
-23944 23147 0
23944 -23144 -23147 0
-23946 23777 0
-23946 22808 0
23946 -23777 -22808 0
-23779 23781 0
-23779 23782 0
23779 -23781 -23782 0
-23948 23783 0
-23948 22814 0
23948 -23783 -22814 0
-23785 23787 0
-23785 23788 0
23785 -23787 -23788 0
-23950 23789 0
-23950 22820 0
23950 -23789 -22820 0
-23791 23793 0
-23791 23794 0
23791 -23793 -23794 0
-23952 23795 0
-23952 22826 0
23952 -23795 -22826 0
-23797 23799 0
-23797 23800 0
23797 -23799 -23800 0
-23954 23801 0
-23954 22832 0
23954 -23801 -22832 0
-23803 23805 0
-23803 23806 0
23803 -23805 -23806 0
-23787 23781 0
-23787 23782 0
23787 -23781 -23782 0
-23793 23787 0
-23793 23788 0
23793 -23787 -23788 0
-23799 23793 0
-23799 23794 0
23799 -23793 -23794 0
-23805 23799 0
-23805 23800 0
23805 -23799 -23800 0
-23956 23189 0
-23956 23192 0
23956 -23189 -23192 0
-23958 23195 0
-23958 23198 0
23958 -23195 -23198 0
-23960 23201 0
-23960 23204 0
23960 -23201 -23204 0
-23962 23207 0
-23962 23210 0
23962 -23207 -23210 0
-22860 23273 0
-22860 23276 0
22860 -23273 -23276 0
-23964 23228 0
-23964 22865 0
23964 -23228 -22865 0
-23229 23231 0
-23229 22868 0
23229 -23231 -22868 0
-23236 23261 0
-23236 23264 0
23236 -23261 -23264 0
-23781 22873 0
-23781 23814 0
23781 -22873 -23814 0
-23966 23240 0
-23966 23243 0
23966 -23240 -23243 0
-23968 23249 0
-23968 23252 0
23968 -23249 -23252 0
-23422 23309 0
-23422 23312 0
23422 -23309 -23312 0
-23432 23255 0
-23432 23258 0
23432 -23255 -23258 0
-23831 22961 0
-23831 23319 0
23831 -22961 -23319 0
-23832 22970 0
-23832 23325 0
23832 -22970 -23325 0
-23833 23182 0
-23833 23331 0
23833 -23182 -23331 0
-23834 23079 0
-23834 23328 0
23834 -23079 -23328 0
-23142 22900 0
-23142 23481 0
23142 -22900 -23481 0
-23247 22903 0
-23247 23481 0
23247 -22903 -23481 0
-23970 22906 0
-23970 22907 0
23970 -22906 -22907 0
-23972 22911 0
-23972 22910 0
23972 -22911 -22910 0
-22911 23315 0
-22911 23318 0
22911 -23315 -23318 0
-23974 22917 0
-23974 22916 0
23974 -22917 -22916 0
-22917 23321 0
-22917 23324 0
22917 -23321 -23324 0
-23976 22923 0
-23976 22922 0
23976 -22923 -22922 0
-22923 23327 0
-22923 23330 0
22923 -23327 -23330 0
-23822 23336 0
-23822 22928 0
23822 -23336 -22928 0
-23825 23342 0
-23825 23345 0
23825 -23342 -23345 0
-23828 23351 0
-23828 23354 0
23828 -23351 -23354 0
-23984 23417 0
-23984 22937 0
23984 -23417 -22937 0
-23986 23835 0
-23986 22940 0
23986 -23835 -22940 0
-23836 23839 0
-23836 23328 0
23836 -23839 -23328 0
-23988 23815 0
-23988 22946 0
23988 -23815 -22946 0
23377 -23556 0
23377 -23380 0
-23377 23556 23380 0
23383 -23385 0
23383 -23386 0
-23383 23385 23386 0
23389 -23391 0
23389 -23392 0
-23389 23391 23392 0
23395 -23397 0
23395 -23398 0
-23395 23397 23398 0
23391 -23352 0
23391 -22961 0
-23391 23352 22961 0
22962 -23398 0
22962 -23352 0
-22962 23398 23352 0
22965 -23094 0
22965 -22967 0
-22965 23094 22967 0
23687 -23352 0
23687 -22970 0
-23687 23352 22970 0
23103 -23352 0
23103 -22973 0
-23103 23352 22973 0
23401 -23403 0
23401 -23404 0
-23401 23403 23404 0
23407 -23687 0
23407 -23410 0
-23407 23687 23410 0
23413 -23415 0
23413 -23416 0
-23413 23415 23416 0
23419 -23432 0
23419 -23427 0
-23419 23432 23427 0
22986 -23457 0
22986 -23624 0
-22986 23457 23624 0
22989 -23460 0
22989 -23630 0
-22989 23460 23630 0
22992 -23654 0
22992 -22994 0
-22992 23654 22994 0
22995 -23463 0
22995 -23636 0
-22995 23463 23636 0
22998 -23652 0
22998 -23000 0
-22998 23652 23000 0
23001 -23451 0
23001 -23642 0
-23001 23451 23642 0
23004 -23651 0
23004 -23006 0
-23004 23651 23006 0
23557 -23454 0
23557 -23648 0
-23557 23454 23648 0
23558 -23650 0
23558 -23012 0
-23558 23650 23012 0
23436 -23624 0
23436 -23457 0
-23436 23624 23457 0
23439 -23630 0
23439 -23460 0
-23439 23630 23460 0
23442 -23636 0
23442 -23463 0
-23442 23636 23463 0
23445 -23642 0
23445 -23451 0
-23445 23642 23451 0
23448 -23648 0
23448 -23454 0
-23448 23648 23454 0
23061 -23471 0
23061 -23472 0
23061 -23473 0
23061 -23474 0
-23061 23471 23472 23473 23474 0
23033 -23474 0
23033 -23056 0
-23033 23474 23056 0
23036 -23037 0
23036 -23038 0
-23036 23037 23038 0
23039 -23473 0
23039 -23056 0
-23039 23473 23056 0
23042 -23474 0
23042 -23044 0
-23042 23474 23044 0
23045 -23472 0
23045 -23056 0
-23045 23472 23056 0
23048 -23473 0
23048 -23050 0
-23048 23473 23050 0
23056 -23110 0
23056 -23355 0
-23056 23110 23355 0
23054 -23471 0
23054 -23056 0
-23054 23471 23056 0
23057 -23472 0
23057 -23059 0
-23057 23472 23059 0
23476 -23061 0
23476 -23065 0
-23476 23061 23065 0
23479 -23657 0
23479 -23065 0
-23479 23657 23065 0
23066 -23067 0
23066 -23101 0
-23066 23067 23101 0
23069 -23687 0
23069 -23071 0
-23069 23687 23071 0
23072 -23612 0
23072 -23101 0
-23072 23612 23101 0
23075 -23076 0
23075 -23077 0
-23075 23076 23077 0
23078 -23079 0
23078 -23355 0
-23078 23079 23355 0
23081 -23185 0
23081 -23083 0
-23081 23185 23083 0
23084 -23736 0
23084 -23355 0
-23084 23736 23355 0
23087 -23718 0
23087 -23089 0
-23087 23718 23089 0
23090 -23091 0
23090 -23346 0
-23090 23091 23346 0
23093 -23094 0
23093 -23095 0
-23093 23094 23095 0
23101 -23256 0
23101 -23346 0
-23101 23256 23346 0
23099 -23100 0
23099 -23101 0
-23099 23100 23101 0
23102 -23103 0
23102 -23104 0
-23102 23103 23104 0
23105 -23359 0
23105 -23723 0
-23105 23359 23723 0
23108 -23359 0
23108 -23110 0
-23108 23359 23110 0
23111 -23359 0
23111 -23717 0
-23111 23359 23717 0
23114 -23359 0
23114 -23735 0
-23114 23359 23735 0
23753 -23118 0
23753 -23346 0
-23753 23118 23346 0
23120 -23813 0
23120 -23122 0
-23120 23813 23122 0
23123 -23747 0
23123 -23125 0
-23123 23747 23125 0
23310 -23550 0
23310 -23814 0
-23310 23550 23814 0
23129 -23774 0
23129 -23146 0
-23129 23774 23146 0
23132 -23133 0
23132 -23134 0
-23132 23133 23134 0
23135 -23775 0
23135 -23146 0
-23135 23775 23146 0
23138 -23139 0
23138 -23140 0
-23138 23139 23140 0
23146 -23142 0
23146 -23359 0
-23146 23142 23359 0
23144 -23776 0
23144 -23146 0
-23144 23776 23146 0
23147 -23148 0
23147 -23149 0
-23147 23148 23149 0
23150 -23301 0
23150 -23164 0
-23150 23301 23164 0
23153 -23283 0
23153 -23155 0
-23153 23283 23155 0
23156 -23307 0
23156 -23164 0
-23156 23307 23164 0
23159 -23289 0
23159 -23161 0
-23159 23289 23161 0
23162 -23313 0
23162 -23164 0
-23162 23313 23164 0
23165 -23295 0
23165 -23167 0
-23165 23295 23167 0
23486 -23774 0
23486 -23754 0
-23486 23774 23754 0
23489 -23775 0
23489 -23760 0
-23489 23775 23760 0
23492 -23776 0
23492 -23766 0
-23492 23776 23766 0
23495 -23773 0
23495 -23772 0
-23495 23773 23772 0
23403 -23355 0
23403 -23182 0
-23403 23355 23182 0
23669 -23355 0
23669 -23185 0
-23669 23355 23185 0
23814 -23508 0
23814 -23512 0
-23814 23508 23512 0
23189 -23808 0
23189 -23251 0
-23189 23808 23251 0
23192 -23259 0
23192 -23194 0
-23192 23259 23194 0
23195 -23809 0
23195 -23251 0
-23195 23809 23251 0
23198 -23271 0
23198 -23200 0
-23198 23271 23200 0
23201 -23810 0
23201 -23251 0
-23201 23810 23251 0
23204 -23265 0
23204 -23206 0
-23204 23265 23206 0
23207 -23811 0
23207 -23251 0
-23207 23811 23251 0
23210 -23277 0
23210 -23212 0
-23210 23277 23212 0
23517 -23808 0
23517 -23782 0
-23517 23808 23782 0
23520 -23809 0
23520 -23788 0
-23520 23809 23788 0
23523 -23810 0
23523 -23794 0
-23523 23810 23794 0
23526 -23811 0
23526 -23800 0
-23526 23811 23800 0
23529 -23807 0
23529 -23806 0
-23529 23807 23806 0
23228 -23229 0
23228 -23781 0
-23228 23229 23781 0
23231 -23550 0
23231 -23812 0
-23231 23550 23812 0
23546 -23250 0
23546 -23236 0
-23546 23250 23236 0
23547 -23238 0
23547 -23241 0
-23547 23238 23241 0
23240 -23241 0
23240 -23251 0
-23240 23241 23251 0
23243 -23353 0
23243 -23245 0
-23243 23353 23245 0
23251 -23247 0
23251 -23359 0
-23251 23247 23359 0
23249 -23250 0
23249 -23251 0
-23249 23250 23251 0
23252 -23839 0
23252 -23254 0
-23252 23839 23254 0
23255 -23256 0
23255 -23346 0
-23255 23256 23346 0
23258 -23259 0
23258 -23260 0
-23258 23259 23260 0
23261 -23262 0
23261 -23346 0
-23261 23262 23346 0
23264 -23265 0
23264 -23266 0
-23264 23265 23266 0
23267 -23481 0
23267 -23346 0
-23267 23481 23346 0
23270 -23271 0
23270 -23272 0
-23270 23271 23272 0
23273 -23481 0
23273 -23346 0
-23273 23481 23346 0
23276 -23277 0
23276 -23278 0
-23276 23277 23278 0
23279 -23360 0
23279 -23346 0
-23279 23360 23346 0
23282 -23283 0
23282 -23284 0
-23282 23283 23284 0
23285 -23363 0
23285 -23346 0
-23285 23363 23346 0
23288 -23289 0
23288 -23290 0
-23288 23289 23290 0
23291 -23366 0
23291 -23346 0
-23291 23366 23346 0
23294 -23295 0
23294 -23296 0
-23294 23295 23296 0
23297 -23369 0
23297 -23346 0
-23297 23369 23346 0
23300 -23301 0
23300 -23302 0
-23300 23301 23302 0
23303 -23372 0
23303 -23346 0
-23303 23372 23346 0
23306 -23307 0
23306 -23308 0
-23306 23307 23308 0
23309 -23310 0
23309 -23346 0
-23309 23310 23346 0
23312 -23313 0
23312 -23314 0
-23312 23313 23314 0
23315 -23325 0
23315 -23839 0
-23315 23325 23839 0
23318 -23319 0
23318 -23320 0
-23318 23319 23320 0
23321 -23331 0
23321 -23839 0
-23321 23331 23839 0
23324 -23325 0
23324 -23326 0
-23324 23325 23326 0
23327 -23328 0
23327 -23839 0
-23327 23328 23839 0
23330 -23331 0
23330 -23332 0
-23330 23331 23332 0
23978 -23821 0
23978 -23357 0
-23978 23821 23357 0
23336 -23346 0
23336 -23353 0
-23336 23346 23353 0
23980 -23824 0
23980 -23357 0
-23980 23824 23357 0
23342 -23355 0
23342 -23353 0
-23342 23355 23353 0
23345 -23346 0
23345 -23347 0
-23345 23346 23347 0
23982 -23827 0
23982 -23357 0
-23982 23827 23357 0
23351 -23352 0
23351 -23353 0
-23351 23352 23353 0
23354 -23355 0
23354 -23356 0
-23354 23355 23356 0
23357 -23819 0
23357 -23359 0
-23357 23819 23359 0
23360 23782 0
23360 23374 0
-23360 -23782 -23374 0
23363 23788 0
23363 23374 0
-23363 -23788 -23374 0
23366 23794 0
23366 23374 0
-23366 -23794 -23374 0
23369 23800 0
23369 23374 0
-23369 -23800 -23374 0
23372 23806 0
23372 23374 0
-23372 -23806 -23374 0
23375 23378 0
23375 23377 0
-23375 -23378 -23377 0
23378 23556 0
23378 23380 0
-23378 -23556 -23380 0
23381 23384 0
23381 23383 0
-23381 -23384 -23383 0
23384 23385 0
23384 23386 0
-23384 -23385 -23386 0
23387 23390 0
23387 23389 0
-23387 -23390 -23389 0
23390 23391 0
23390 23392 0
-23390 -23391 -23392 0
23393 23396 0
23393 23395 0
-23393 -23396 -23395 0
23396 23397 0
23396 23398 0
-23396 -23397 -23398 0
23399 23402 0
23399 23401 0
-23399 -23402 -23401 0
23402 23403 0
23402 23404 0
-23402 -23403 -23404 0
23405 23408 0
23405 23407 0
-23405 -23408 -23407 0
23408 23687 0
23408 23410 0
-23408 -23687 -23410 0
23411 23414 0
23411 23413 0
-23411 -23414 -23413 0
23414 23415 0
23414 23416 0
-23414 -23415 -23416 0
23417 23431 0
23417 23419 0
-23417 -23431 -23419 0
23430 23813 0
23430 23422 0
-23430 -23813 -23422 0
23429 23424 0
23429 23467 0
23429 23813 0
-23429 -23424 -23467 -23813 0
23427 23556 0
23427 23429 0
23427 23430 0
-23427 -23556 -23429 -23430 0
23431 23432 0
23431 23433 0
-23431 -23432 -23433 0
23655 23455 0
23655 23436 0
-23655 -23455 -23436 0
23654 23458 0
23654 23439 0
-23654 -23458 -23439 0
23652 23461 0
23652 23442 0
-23652 -23461 -23442 0
23651 23449 0
23651 23445 0
-23651 -23449 -23445 0
23650 23452 0
23650 23448 0
-23650 -23452 -23448 0
23449 23642 0
23449 23451 0
-23449 -23642 -23451 0
23452 23648 0
23452 23454 0
-23452 -23648 -23454 0
23455 23624 0
23455 23457 0
-23455 -23624 -23457 0
23458 23630 0
23458 23460 0
-23458 -23630 -23460 0
23461 23636 0
23461 23463 0
-23461 -23636 -23463 0
23468 23649 0
23468 23653 0
-23468 -23649 -23653 0
23467 23468 0
23467 23556 0
-23467 -23468 -23556 0
23657 23471 0
23657 23472 0
23657 23473 0
23657 23474 0
-23657 -23471 -23472 -23473 -23474 0
23480 23476 0
23480 23477 0
-23480 -23476 -23477 0
23478 23479 0
23478 23480 0
-23478 -23479 -23480 0
23481 23482 0
23481 23551 0
-23481 -23482 -23551 0
23552 23496 0
23552 23486 0
-23552 -23496 -23486 0
23553 23499 0
23553 23489 0
-23553 -23499 -23489 0
23554 23502 0
23554 23492 0
-23554 -23502 -23492 0
23555 23505 0
23555 23495 0
-23555 -23505 -23495 0
23496 23774 0
23496 23754 0
-23496 -23774 -23754 0
23499 23775 0
23499 23760 0
-23499 -23775 -23760 0
23502 23776 0
23502 23766 0
-23502 -23776 -23766 0
23505 23773 0
23505 23772 0
-23505 -23773 -23772 0
23508 23515 0
23508 23518 0
23508 23521 0
-23508 -23515 -23518 -23521 0
23512 23524 0
23512 23527 0
-23512 -23524 -23527 0
23515 23530 0
23515 23517 0
-23515 -23530 -23517 0
23518 23533 0
23518 23520 0
-23518 -23533 -23520 0
23521 23536 0
23521 23523 0
-23521 -23536 -23523 0
23524 23539 0
23524 23526 0
-23524 -23539 -23526 0
23527 23542 0
23527 23529 0
-23527 -23542 -23529 0
23530 23808 0
23530 23782 0
-23530 -23808 -23782 0
23533 23809 0
23533 23788 0
-23533 -23809 -23788 0
23536 23810 0
23536 23794 0
-23536 -23810 -23794 0
23539 23811 0
23539 23800 0
-23539 -23811 -23800 0
23542 23807 0
23542 23806 0
-23542 -23807 -23806 0
23817 23546 0
23817 23547 0
-23817 -23546 -23547 0
23816 23813 0
23816 23550 0
-23816 -23813 -23550 0
23551 23552 0
23551 23553 0
23551 23554 0
23551 23555 0
-23551 -23552 -23553 -23554 -23555 0
23556 23557 0
23556 23558 0
-23556 -23557 -23558 0
-23559 -23562 0
-23559 -23561 0
23559 23562 23561 0
-23562 -23563 0
-23562 -23564 0
23562 23563 23564 0
-23565 -23568 0
-23565 -23567 0
23565 23568 23567 0
-23568 -23569 0
-23568 -23570 0
23568 23569 23570 0
-23571 -23574 0
-23571 -23573 0
23571 23574 23573 0
-23574 -23575 0
-23574 -23576 0
23574 23575 23576 0
-23577 -23580 0
-23577 -23579 0
23577 23580 23579 0
-23580 -23581 0
-23580 -23582 0
23580 23581 23582 0
-23583 -23586 0
-23583 -23585 0
23583 23586 23585 0
-23586 -23587 0
-23586 -23588 0
23586 23587 23588 0
-23589 -23592 0
-23589 -23591 0
23589 23592 23591 0
-23592 -23593 0
-23592 -23594 0
23592 23593 23594 0
-23595 -23598 0
-23595 -23597 0
23595 23598 23597 0
-23598 -23599 0
-23598 -23600 0
23598 23599 23600 0
-23601 -23604 0
-23601 -23603 0
23601 23604 23603 0
-23604 -23605 0
-23604 -23606 0
23604 23605 23606 0
-23607 -23610 0
-23607 -23609 0
23607 23610 23609 0
-23610 -23611 0
-23610 -23612 0
23610 23611 23612 0
-23613 -23616 0
-23613 -23615 0
23613 23616 23615 0
-23616 -23617 0
-23616 -23618 0
23616 23617 23618 0
-23619 -23622 0
-23619 -23621 0
23619 23622 23621 0
-23622 -23656 0
-23622 -23624 0
23622 23656 23624 0
-23625 -23628 0
-23625 -23627 0
23625 23628 23627 0
-23628 -23629 0
-23628 -23630 0
23628 23629 23630 0
-23631 -23634 0
-23631 -23633 0
23631 23634 23633 0
-23634 -23635 0
-23634 -23636 0
23634 23635 23636 0
-23637 -23640 0
-23637 -23639 0
23637 23640 23639 0
-23640 -23641 0
-23640 -23642 0
23640 23641 23642 0
-23643 -23646 0
-23643 -23645 0
23643 23646 23645 0
-23646 -23647 0
-23646 -23648 0
23646 23647 23648 0
-23649 -23650 0
-23649 -23651 0
-23649 -23652 0
23649 23650 23651 23652 0
-23653 -23654 0
-23653 -23655 0
23653 23654 23655 0
-23656 -23657 0
-23656 -23662 0
23656 23657 23662 0
-23664 -23660 0
-23664 -23661 0
23664 23660 23661 0
-23662 -23663 0
-23662 -23664 0
23662 23663 23664 0
-23665 -23668 0
-23665 -23667 0
23665 23668 23667 0
-23668 -23669 0
-23668 -23670 0
23668 23669 23670 0
-23671 -23674 0
-23671 -23673 0
23671 23674 23673 0
-23674 -23675 0
-23674 -23676 0
23674 23675 23676 0
-23677 -23680 0
-23677 -23679 0
23677 23680 23679 0
-23680 -23681 0
-23680 -23682 0
23680 23681 23682 0
-23683 -23686 0
-23683 -23685 0
23683 23686 23685 0
-23686 -23687 0
-23686 -23688 0
23686 23687 23688 0
-23689 -23692 0
-23689 -23691 0
23689 23692 23691 0
-23692 -23693 0
-23692 -23694 0
23692 23693 23694 0
-23695 -23698 0
-23695 -23697 0
23695 23698 23697 0
-23698 -23699 0
-23698 -23700 0
23698 23699 23700 0
-23701 -23704 0
-23701 -23703 0
23701 23704 23703 0
-23704 -23705 0
-23704 -23706 0
23704 23705 23706 0
-23707 -23710 0
-23707 -23709 0
23707 23710 23709 0
-23710 -23711 0
-23710 -23712 0
23710 23711 23712 0
-23713 -23716 0
-23713 -23715 0
23713 23716 23715 0
-23716 -23717 0
-23716 -23718 0
23716 23717 23718 0
-23719 -23722 0
-23719 -23721 0
23719 23722 23721 0
-23722 -23723 0
-23722 -23724 0
23722 23723 23724 0
-23725 -23728 0
-23725 -23727 0
23725 23728 23727 0
-23728 -23729 0
-23728 -23730 0
23728 23729 23730 0
-23731 -23734 0
-23731 -23733 0
23731 23734 23733 0
-23734 -23735 0
-23734 -23736 0
23734 23735 23736 0
-23737 -23738 0
-23737 -23740 0
23737 23738 23740 0
-23740 -23747 0
-23740 -23742 0
23740 23747 23742 0
-23743 -23744 0
-23743 -23746 0
23743 23744 23746 0
-23746 -23747 0
-23746 -23748 0
23746 23747 23748 0
-23749 -23752 0
-23749 -23751 0
23749 23752 23751 0
-23752 -23753 0
-23752 -23754 0
23752 23753 23754 0
-23755 -23758 0
-23755 -23757 0
23755 23758 23757 0
-23758 -23759 0
-23758 -23760 0
23758 23759 23760 0
-23761 -23764 0
-23761 -23763 0
23761 23764 23763 0
-23764 -23765 0
-23764 -23766 0
23764 23765 23766 0
-23767 -23770 0
-23767 -23769 0
23767 23770 23769 0
-23770 -23771 0
-23770 -23772 0
23770 23771 23772 0
-23773 -23774 0
-23773 -23775 0
-23773 -23776 0
23773 23774 23775 23776 0
-23777 -23780 0
-23777 -23779 0
23777 23780 23779 0
-23780 -23781 0
-23780 -23782 0
23780 23781 23782 0
-23783 -23786 0
-23783 -23785 0
23783 23786 23785 0
-23786 -23787 0
-23786 -23788 0
23786 23787 23788 0
-23789 -23792 0
-23789 -23791 0
23789 23792 23791 0
-23792 -23793 0
-23792 -23794 0
23792 23793 23794 0
-23795 -23798 0
-23795 -23797 0
23795 23798 23797 0
-23798 -23799 0
-23798 -23800 0
23798 23799 23800 0
-23801 -23804 0
-23801 -23803 0
23801 23804 23803 0
-23804 -23805 0
-23804 -23806 0
23804 23805 23806 0
-23807 -23808 0
-23807 -23809 0
-23807 -23810 0
-23807 -23811 0
23807 23808 23809 23810 23811 0
-23812 -23813 0
-23812 -23814 0
23812 23813 23814 0
-23815 -23816 0
-23815 -23817 0
23815 23816 23817 0
-23829 -23819 0
-23829 -23820 0
23829 23819 23820 0
-23821 -23822 0
-23821 -23829 0
23821 23822 23829 0
-23824 -23825 0
-23824 -23829 0
23824 23825 23829 0
-23827 -23828 0
-23827 -23829 0
23827 23828 23829 0
-23830 -23831 0
-23830 -23832 0
-23830 -23833 0
-23830 -23834 0
23830 23831 23832 23833 23834 0
-23835 -23836 0
-23835 -23838 0
23835 23836 23838 0
-23838 -23839 0
-23838 -23840 0
23838 23839 23840 0
-23842 25434 0
23842 -25434 0
-23844 25618 0
23844 -25618 0
-23846 24000 0
23846 -24000 0
-23848 25521 0
23848 -25521 0
-23850 25527 0
23850 -25527 0
-23852 24008 0
23852 -24008 0
-23854 25533 0
23854 -25533 0
-23856 24014 0
23856 -24014 0
-23858 25539 0
23858 -25539 0
-23860 25545 0
23860 -25545 0
-23862 25551 0
23862 -25551 0
-23864 25557 0
23864 -25557 0
-23866 24415 0
23866 -24415 0
-23868 25051 0
23868 -25051 0
-23870 24038 0
23870 -24038 0
-23872 25563 0
23872 -25563 0
-23874 25569 0
23874 -25569 0
-23876 24048 0
23876 -24048 0
-23878 24052 0
23878 -24052 0
-23880 25575 0
23880 -25575 0
-23882 25581 0
23882 -25581 0
-23884 25587 0
23884 -25587 0
-23886 25593 0
23886 -25593 0
-23888 25599 0
23888 -25599 0
-23890 25605 0
23890 -25605 0
-23892 25431 0
23892 -25431 0
-23894 25430 0
23894 -25430 0
-23896 25429 0
23896 -25429 0
-23898 25428 0
23898 -25428 0
-23900 25627 0
23900 -25627 0
-23902 25633 0
23902 -25633 0
-23904 25639 0
23904 -25639 0
-23906 25645 0
23906 -25645 0
-23908 25651 0
23908 -25651 0
-23910 25657 0
23910 -25657 0
-23912 25663 0
23912 -25663 0
-23914 25669 0
23914 -25669 0
-23916 25675 0
23916 -25675 0
-23918 25681 0
23918 -25681 0
-23920 25687 0
23920 -25687 0
-23922 25693 0
23922 -25693 0
-23924 25079 0
23924 -25079 0
-23926 25699 0
23926 -25699 0
-23928 25082 0
23928 -25082 0
-23930 25705 0
23930 -25705 0
-23932 25711 0
23932 -25711 0
-23934 25717 0
23934 -25717 0
-23936 25723 0
23936 -25723 0
-23938 25729 0
23938 -25729 0
-23940 25731 0
23940 -25731 0
-23942 25732 0
23942 -25732 0
-23944 25733 0
23944 -25733 0
-23946 25739 0
23946 -25739 0
-23948 25745 0
23948 -25745 0
-23950 25751 0
23950 -25751 0
-23952 25757 0
23952 -25757 0
-23954 25763 0
23954 -25763 0
-23956 25765 0
23956 -25765 0
-23958 25766 0
23958 -25766 0
-23960 25767 0
23960 -25767 0
-23962 25768 0
23962 -25768 0
-23964 25507 0
23964 -25507 0
-23966 25198 0
23966 -25198 0
-23968 25207 0
23968 -25207 0
-23970 25777 0
23970 -25777 0
-23972 25282 0
23972 -25282 0
-23974 25288 0
23974 -25288 0
-23976 25285 0
23976 -25285 0
-23978 24857 0
23978 -24857 0
-23980 24860 0
23980 -24860 0
-23982 24034 0
23982 -24034 0
-23984 24310 0
23984 -24310 0
-23986 25797 0
23986 -25797 0
-23988 24316 0
23988 -24316 0
23992 25435 0
-23992 -25435 0
25799 23992 0
-25799 -23992 0
23996 25619 0
-23996 -25619 0
25801 23996 0
-25801 -23996 0
24334 25316 0
-24334 -25316 0
25337 24000 0
-25337 -24000 0
24337 25316 0
-24337 -25316 0
24343 25316 0
-24343 -25316 0
24349 25316 0
-24349 -25316 0
25343 24008 0
-25343 -24008 0
24352 25316 0
-24352 -25316 0
24370 25316 0
-24370 -25316 0
25349 24014 0
-25349 -24014 0
24373 25316 0
-24373 -25316 0
24379 25316 0
-24379 -25316 0
24385 25316 0
-24385 -25316 0
24391 25316 0
-24391 -25316 0
24397 25316 0
-24397 -25316 0
24418 25316 0
-24418 -25316 0
24417 25051 0
-24417 -25051 0
25355 24415 0
-25355 -24415 0
24924 25309 0
-24924 -25309 0
25309 24034 0
-25309 -24034 0
24424 25316 0
-24424 -25316 0
25361 24038 0
-25361 -24038 0
24427 25316 0
-24427 -25316 0
24433 25316 0
-24433 -25316 0
24465 25569 0
-24465 -25569 0
24445 25316 0
-24445 -25316 0
25367 24048 0
-25367 -24048 0
24448 25316 0
-24448 -25316 0
25373 24052 0
-25373 -24052 0
24451 25316 0
-24451 -25316 0
24481 24503 0
-24481 -24503 0
24487 24503 0
-24487 -24503 0
24493 24503 0
-24493 -24503 0
24499 24503 0
-24499 -24503 0
24508 24503 0
-24508 -24503 0
25381 25425 0
-25381 -25425 0
24538 25316 0
-24538 -25316 0
24995 25013 0
-24995 -25013 0
24544 25316 0
-24544 -25316 0
25001 25013 0
-25001 -25013 0
24550 25316 0
-24550 -25316 0
25007 25013 0
-25007 -25013 0
24556 25316 0
-24556 -25316 0
25016 25013 0
-25016 -25013 0
25028 25058 0
-25028 -25058 0
25034 25058 0
-25034 -25058 0
25040 25312 0
-25040 -25312 0
25046 25312 0
-25046 -25312 0
25312 24860 0
-25312 -24860 0
25052 25303 0
-25052 -25303 0
25061 25058 0
-25061 -25058 0
24580 25062 0
-24580 -25062 0
24586 25062 0
-24586 -25062 0
24592 25062 0
-24592 -25062 0
24608 25065 0
-24608 -25065 0
24614 25065 0
-24614 -25065 0
24620 25065 0
-24620 -25065 0
24632 25068 0
-24632 -25068 0
24638 25068 0
-24638 -25068 0
24644 25316 0
-24644 -25316 0
24659 25071 0
-24659 -25071 0
24665 25071 0
-24665 -25071 0
24671 25316 0
-24671 -25316 0
24692 25316 0
-24692 -25316 0
24695 25316 0
-24695 -25316 0
24707 25082 0
-24707 -25082 0
24701 25316 0
-24701 -25316 0
24710 25705 0
-24710 -25705 0
24704 25316 0
-24704 -25316 0
24709 25267 0
-24709 -25267 0
24714 25438 0
-24714 -25438 0
24720 25438 0
-24720 -25438 0
24726 25438 0
-24726 -25438 0
24732 25438 0
-24732 -25438 0
25439 25316 0
-25439 -25316 0
25091 25103 0
-25091 -25103 0
25097 25103 0
-25097 -25103 0
25106 25103 0
-25106 -25103 0
25112 25121 0
-25112 -25121 0
25118 25121 0
-25118 -25121 0
25124 25121 0
-25124 -25121 0
25121 25079 0
-25121 -25079 0
24765 24817 0
-24765 -24817 0
24771 24817 0
-24771 -24817 0
24777 24817 0
-24777 -24817 0
24783 24817 0
-24783 -24817 0
24789 24817 0
-24789 -24817 0
25151 25208 0
-25151 -25208 0
25157 25208 0
-25157 -25208 0
25163 25208 0
-25163 -25208 0
25169 25208 0
-25169 -25208 0
24822 24817 0
-24822 -24817 0
24825 25769 0
-24825 -25769 0
25331 25774 0
-25331 -25774 0
25195 25193 0
-25195 -25193 0
25202 25208 0
-25202 -25208 0
25211 25208 0
-25211 -25208 0
25219 25699 0
-25219 -25699 0
25704 25508 0
-25704 -25508 0
25217 25303 0
-25217 -25303 0
25223 25303 0
-25223 -25303 0
25229 25303 0
-25229 -25303 0
25235 25303 0
-25235 -25303 0
25241 25303 0
-25241 -25303 0
25247 25303 0
-25247 -25303 0
25253 25303 0
-25253 -25303 0
25259 25303 0
-25259 -25303 0
25265 25303 0
-25265 -25303 0
25271 25303 0
-25271 -25303 0
25303 24857 0
-25303 -24857 0
24864 25316 0
-24864 -25316 0
25776 24863 0
-25776 -24863 0
24222 24220 0
-24222 -24220 0
24863 24222 0
-24863 -24222 0
25276 25797 0
-25276 -25797 0
24867 25316 0
-24867 -25316 0
25277 25796 0
-25277 -25796 0
24873 25316 0
-24873 -25316 0
25283 25796 0
-25283 -25796 0
24879 25316 0
-24879 -25316 0
25289 25796 0
-25289 -25796 0
24240 24238 0
-24240 -24238 0
25796 24240 0
-25796 -24240 0
24885 25310 0
-24885 -25310 0
25304 25310 0
-25304 -25310 0
25313 25310 0
-25313 -25310 0
24250 24248 0
-24250 -24248 0
25310 24250 0
-25310 -24250 0
24264 24252 0
-24264 -24252 0
24253 24264 0
-24253 -24264 0
24894 25316 0
-24894 -25316 0
24897 25316 0
-24897 -25316 0
24903 25316 0
-24903 -25316 0
25316 24262 0
-25316 -24262 0
25022 24264 0
-25022 -24264 0
24268 24266 0
-24268 -24266 0
25216 24268 0
-25216 -24268 0
24272 24270 0
-24272 -24270 0
25228 24272 0
-25228 -24272 0
24276 24274 0
-24276 -24274 0
25222 24276 0
-25222 -24276 0
24280 24278 0
-24280 -24278 0
25234 24280 0
-25234 -24280 0
24284 24282 0
-24284 -24282 0
24994 24284 0
-24994 -24284 0
24288 24286 0
-24288 -24286 0
25240 24288 0
-25240 -24288 0
24292 24290 0
-24292 -24290 0
25246 24292 0
-25246 -24292 0
24296 24294 0
-24296 -24294 0
25252 24296 0
-25252 -24296 0
24300 24298 0
-24300 -24298 0
25258 24300 0
-25258 -24300 0
24304 24302 0
-24304 -24302 0
25264 24304 0
-25264 -24304 0
24308 24306 0
-24308 -24306 0
25270 24308 0
-25270 -24308 0
24309 24310 0
-24309 -24310 0
24314 24312 0
-24314 -24312 0
24711 24314 0
-24711 -24314 0
24315 24316 0
-24315 -24316 0
-25414 25236 0
-25414 25239 0
25414 -25236 -25239 0
-25417 25242 0
-25417 25245 0
25417 -25242 -25245 0
-25420 25248 0
-25420 25251 0
25420 -25248 -25251 0
-25408 25254 0
-25408 25257 0
25408 -25254 -25257 0
-25411 25260 0
-25411 25263 0
25411 -25260 -25263 0
-25803 25332 0
-25803 24334 0
25803 -25332 -24334 0
-25805 25516 0
-25805 24337 0
25805 -25516 -24337 0
-25518 25520 0
-25518 25521 0
25518 -25520 -25521 0
-25807 25522 0
-25807 24343 0
25807 -25522 -24343 0
-25524 25526 0
-25524 25527 0
25524 -25526 -25527 0
-25809 25338 0
-25809 24349 0
25809 -25338 -24349 0
-25811 25528 0
-25811 24352 0
25811 -25528 -24352 0
-25530 25532 0
-25530 25533 0
25530 -25532 -25533 0
-25520 25513 0
-25520 25337 0
25520 -25513 -25337 0
-25526 25520 0
-25526 25521 0
25526 -25520 -25521 0
-25342 25526 0
-25342 25527 0
25342 -25526 -25527 0
-25532 25342 0
-25532 25343 0
25532 -25342 -25343 0
-25813 25344 0
-25813 24370 0
25813 -25344 -24370 0
-25815 25534 0
-25815 24373 0
25815 -25534 -24373 0
-25536 25538 0
-25536 25539 0
25536 -25538 -25539 0
-25817 25540 0
-25817 24379 0
25817 -25540 -24379 0
-25542 25544 0
-25542 25545 0
25542 -25544 -25545 0
-25819 25546 0
-25819 24385 0
25819 -25546 -24385 0
-25548 25550 0
-25548 25551 0
25548 -25550 -25551 0
-25821 25552 0
-25821 24391 0
25821 -25552 -24391 0
-25554 25556 0
-25554 25557 0
25554 -25556 -25557 0
-25823 25350 0
-25823 24397 0
25823 -25350 -24397 0
-25538 25348 0
-25538 25349 0
25538 -25348 -25349 0
-25544 25538 0
-25544 25539 0
25544 -25538 -25539 0
-25550 25544 0
-25550 25545 0
25550 -25544 -25545 0
-25556 25550 0
-25556 25551 0
25556 -25550 -25551 0
-25354 25556 0
-25354 25557 0
25354 -25556 -25557 0
-24930 25354 0
-24930 24415 0
24930 -25354 -24415 0
-25825 24417 0
-25825 24418 0
25825 -24417 -24418 0
-25033 24919 0
-25033 24922 0
25033 -24919 -24922 0
-25827 25356 0
-25827 24424 0
25827 -25356 -24424 0
-25829 25558 0
-25829 24427 0
25829 -25558 -24427 0
-25560 25562 0
-25560 25563 0
25560 -25562 -25563 0
-25831 25564 0
-25831 24433 0
25831 -25564 -24433 0
-25566 25568 0
-25566 25569 0
25566 -25568 -25569 0
-25562 25360 0
-25562 25361 0
25562 -25360 -25361 0
-25568 25562 0
-25568 25563 0
25568 -25562 -25563 0
-25833 25362 0
-25833 24445 0
25833 -25362 -24445 0
-25835 25368 0
-25835 24448 0
25835 -25368 -24448 0
-25837 25570 0
-25837 24451 0
25837 -25570 -24451 0
-25572 25574 0
-25572 25575 0
25572 -25574 -25575 0
-25372 25644 0
-25372 25367 0
25372 -25644 -25367 0
-25574 25372 0
-25574 25373 0
25574 -25372 -25373 0
-25024 25568 0
-25024 25569 0
25024 -25568 -25569 0
-25057 24465 0
-25057 25568 0
25057 -24465 -25568 0
-24918 25532 0
-24918 25533 0
24918 -25532 -25533 0
-24927 25354 0
-24927 25355 0
24927 -25354 -25355 0
-25139 25574 0
-25139 25575 0
25139 -25574 -25575 0
-25036 25692 0
-25036 25693 0
25036 -25692 -25693 0
-25839 25576 0
-25839 24481 0
25839 -25576 -24481 0
-25578 25613 0
-25578 25581 0
25578 -25613 -25581 0
-25841 25582 0
-25841 24487 0
25841 -25582 -24487 0
-25584 25586 0
-25584 25587 0
25584 -25586 -25587 0
-25843 25588 0
-25843 24493 0
25843 -25588 -24493 0
-25590 25592 0
-25590 25593 0
25590 -25592 -25593 0
-25845 25594 0
-25845 24499 0
25845 -25594 -24499 0
-25596 25598 0
-25596 25599 0
25596 -25598 -25599 0
-24503 25224 0
-24503 25227 0
24503 -25224 -25227 0
-25847 25600 0
-25847 24508 0
25847 -25600 -24508 0
-25602 25604 0
-25602 25605 0
25602 -25604 -25605 0
-25586 25613 0
-25586 25581 0
25586 -25613 -25581 0
-25592 25586 0
-25592 25587 0
25592 -25586 -25587 0
-25598 25592 0
-25598 25593 0
25598 -25592 -25593 0
-25604 25598 0
-25604 25599 0
25604 -25598 -25599 0
-24951 24943 0
-24951 25612 0
24951 -24943 -25612 0
-24957 24946 0
-24957 24949 0
24957 -24946 -24949 0
-24963 24952 0
-24963 24955 0
24963 -24952 -24955 0
-24969 24958 0
-24969 24961 0
24969 -24958 -24961 0
-25849 24539 0
-25849 24538 0
25849 -24539 -24538 0
-24539 24990 0
-24539 24993 0
24539 -24990 -24993 0
-25851 24545 0
-25851 24544 0
25851 -24545 -24544 0
-24545 24996 0
-24545 24999 0
24545 -24996 -24999 0
-25853 24551 0
-25853 24550 0
25853 -24551 -24550 0
-24551 25002 0
-24551 25005 0
24551 -25002 -25005 0
-25855 24557 0
-25855 24556 0
25855 -24557 -24556 0
-24557 25011 0
-24557 25014 0
24557 -25011 -25014 0
-25620 25437 0
-25620 25022 0
25620 -25437 -25022 0
-25617 25435 0
-25617 25022 0
25617 -25435 -25022 0
-25662 25023 0
-25662 25026 0
25662 -25023 -25026 0
-25075 25035 0
-25075 25038 0
25075 -25035 -25038 0
-25048 25041 0
-25048 25044 0
25048 -25041 -25044 0
-25680 25626 0
-25680 25639 0
25680 -25626 -25639 0
-25857 25622 0
-25857 24580 0
25857 -25622 -24580 0
-25624 25626 0
-25624 25627 0
25624 -25626 -25627 0
-25859 25628 0
-25859 24586 0
25859 -25628 -24586 0
-25630 25632 0
-25630 25633 0
25630 -25632 -25633 0
-25861 25634 0
-25861 24592 0
25861 -25634 -24592 0
-25636 25638 0
-25636 25639 0
25636 -25638 -25639 0
-25632 25626 0
-25632 25627 0
25632 -25626 -25627 0
-25638 25632 0
-25638 25633 0
25638 -25632 -25633 0
-25067 25644 0
-25067 25645 0
-25067 25657 0
25067 -25644 -25645 -25657 0
-25863 25640 0
-25863 24608 0
25863 -25640 -24608 0
-25642 25644 0
-25642 25645 0
25642 -25644 -25645 0
-25865 25646 0
-25865 24614 0
25865 -25646 -24614 0
-25648 25650 0
-25648 25651 0
25648 -25650 -25651 0
-25867 25652 0
-25867 24620 0
25867 -25652 -24620 0
-25654 25656 0
-25654 25657 0
25654 -25656 -25657 0
-25650 25644 0
-25650 25645 0
25650 -25644 -25645 0
-25656 25650 0
-25656 25651 0
25656 -25650 -25651 0
-25869 25658 0
-25869 24632 0
25869 -25658 -24632 0
-25660 25662 0
-25660 25663 0
25660 -25662 -25663 0
-25871 25664 0
-25871 24638 0
25871 -25664 -24638 0
-25666 25668 0
-25666 25669 0
25666 -25668 -25669 0
-25873 25670 0
-25873 24644 0
25873 -25670 -24644 0
-25672 25674 0
-25672 25675 0
25672 -25674 -25675 0
-25668 25662 0
-25668 25663 0
25668 -25662 -25663 0
-25674 25662 0
-25674 25669 0
25674 -25662 -25669 0
-25142 25674 0
-25142 25675 0
25142 -25674 -25675 0
-25875 25676 0
-25875 24659 0
25875 -25676 -24659 0
-25678 25680 0
-25678 25681 0
25678 -25680 -25681 0
-25877 25682 0
-25877 24665 0
25877 -25682 -24665 0
-25684 25686 0
-25684 25687 0
25684 -25686 -25687 0
-25879 25688 0
-25879 24671 0
25879 -25688 -24671 0
-25690 25692 0
-25690 25693 0
25690 -25692 -25693 0
-25686 25680 0
-25686 25681 0
25686 -25680 -25681 0
-25692 25680 0
-25692 25687 0
25692 -25680 -25687 0
-24830 25056 0
-24830 25059 0
24830 -25056 -25059 0
-25770 25029 0
-25770 25032 0
25770 -25029 -25032 0
-25390 25047 0
-25390 25050 0
25390 -25047 -25050 0
-25881 25077 0
-25881 24692 0
25881 -25077 -24692 0
-25883 25694 0
-25883 24695 0
25883 -25694 -24695 0
-25695 25704 0
-25695 25121 0
25695 -25704 -25121 0
-25885 25080 0
-25885 24701 0
25885 -25080 -24701 0
-25887 25700 0
-25887 24704 0
25887 -25700 -24704 0
-25701 25704 0
-25701 24707 0
25701 -25704 -24707 0
-25213 24709 0
-25213 24710 0
-25213 24711 0
25213 -24709 -24710 -24711 0
-25889 25706 0
-25889 24714 0
25889 -25706 -24714 0
-25708 25710 0
-25708 25711 0
25708 -25710 -25711 0
-25891 25712 0
-25891 24720 0
25891 -25712 -24720 0
-25714 25716 0
-25714 25717 0
25714 -25716 -25717 0
-25893 25718 0
-25893 24726 0
25893 -25718 -24726 0
-25720 25722 0
-25720 25723 0
25720 -25722 -25723 0
-25895 25724 0
-25895 24732 0
25895 -25724 -24732 0
-25726 25728 0
-25726 25729 0
25726 -25728 -25729 0
-25716 25710 0
-25716 25711 0
25716 -25710 -25711 0
-25722 25716 0
-25722 25717 0
25722 -25716 -25717 0
-25728 25722 0
-25728 25723 0
25728 -25722 -25723 0
-25090 25107 0
-25090 25110 0
25090 -25107 -25110 0
-25096 25113 0
-25096 25116 0
25096 -25113 -25116 0
-25105 25119 0
-25105 25122 0
25105 -25119 -25122 0
-25897 25086 0
-25897 25089 0
25897 -25086 -25089 0
-25899 25092 0
-25899 25095 0
25899 -25092 -25095 0
-25901 25101 0
-25901 25104 0
25901 -25101 -25104 0
-25903 25734 0
-25903 24765 0
25903 -25734 -24765 0
-25736 25738 0
-25736 25739 0
25736 -25738 -25739 0
-25905 25740 0
-25905 24771 0
25905 -25740 -24771 0
-25742 25744 0
-25742 25745 0
25742 -25744 -25745 0
-25907 25746 0
-25907 24777 0
25907 -25746 -24777 0
-25748 25750 0
-25748 25751 0
25748 -25750 -25751 0
-25909 25752 0
-25909 24783 0
25909 -25752 -24783 0
-25754 25756 0
-25754 25757 0
25754 -25756 -25757 0
-25911 25758 0
-25911 24789 0
25911 -25758 -24789 0
-25760 25762 0
-25760 25763 0
25760 -25762 -25763 0
-25744 25738 0
-25744 25739 0
25744 -25738 -25739 0
-25750 25744 0
-25750 25745 0
25750 -25744 -25745 0
-25756 25750 0
-25756 25751 0
25756 -25750 -25751 0
-25762 25756 0
-25762 25757 0
25762 -25756 -25757 0
-25913 25146 0
-25913 25149 0
25913 -25146 -25149 0
-25915 25152 0
-25915 25155 0
25915 -25152 -25155 0
-25917 25158 0
-25917 25161 0
25917 -25158 -25161 0
-25919 25164 0
-25919 25167 0
25919 -25164 -25167 0
-24817 25230 0
-24817 25233 0
24817 -25230 -25233 0
-25921 25185 0
-25921 24822 0
25921 -25185 -24822 0
-25186 25188 0
-25186 24825 0
25186 -25188 -24825 0
-25193 25218 0
-25193 25221 0
25193 -25218 -25221 0
-25738 24830 0
-25738 25771 0
25738 -24830 -25771 0
-25923 25197 0
-25923 25200 0
25923 -25197 -25200 0
-25925 25206 0
-25925 25209 0
25925 -25206 -25209 0
-25379 25266 0
-25379 25269 0
25379 -25266 -25269 0
-25389 25212 0
-25389 25215 0
25389 -25212 -25215 0
-25788 24918 0
-25788 25276 0
25788 -24918 -25276 0
-25789 24927 0
-25789 25282 0
25789 -24927 -25282 0
-25790 25139 0
-25790 25288 0
25790 -25139 -25288 0
-25791 25036 0
-25791 25285 0
25791 -25036 -25285 0
-25099 24857 0
-25099 25438 0
25099 -24857 -25438 0
-25204 24860 0
-25204 25438 0
25204 -24860 -25438 0
-25927 24863 0
-25927 24864 0
25927 -24863 -24864 0
-25929 24868 0
-25929 24867 0
25929 -24868 -24867 0
-24868 25272 0
-24868 25275 0
24868 -25272 -25275 0
-25931 24874 0
-25931 24873 0
25931 -24874 -24873 0
-24874 25278 0
-24874 25281 0
24874 -25278 -25281 0
-25933 24880 0
-25933 24879 0
25933 -24880 -24879 0
-24880 25284 0
-24880 25287 0
24880 -25284 -25287 0
-25779 25293 0
-25779 24885 0
25779 -25293 -24885 0
-25782 25299 0
-25782 25302 0
25782 -25299 -25302 0
-25785 25308 0
-25785 25311 0
25785 -25308 -25311 0
-25941 25374 0
-25941 24894 0
25941 -25374 -24894 0
-25943 25792 0
-25943 24897 0
25943 -25792 -24897 0
-25793 25796 0
-25793 25285 0
25793 -25796 -25285 0
-25945 25772 0
-25945 24903 0
25945 -25772 -24903 0
25334 -25513 0
25334 -25337 0
-25334 25513 25337 0
25340 -25342 0
25340 -25343 0
-25340 25342 25343 0
25346 -25348 0
25346 -25349 0
-25346 25348 25349 0
25352 -25354 0
25352 -25355 0
-25352 25354 25355 0
25348 -25309 0
25348 -24918 0
-25348 25309 24918 0
24919 -25355 0
24919 -25309 0
-24919 25355 25309 0
24922 -25051 0
24922 -24924 0
-24922 25051 24924 0
25644 -25309 0
25644 -24927 0
-25644 25309 24927 0
25060 -25309 0
25060 -24930 0
-25060 25309 24930 0
25358 -25360 0
25358 -25361 0
-25358 25360 25361 0
25364 -25644 0
25364 -25367 0
-25364 25644 25367 0
25370 -25372 0
25370 -25373 0
-25370 25372 25373 0
25376 -25389 0
25376 -25384 0
-25376 25389 25384 0
24943 -25414 0
24943 -25581 0
-24943 25414 25581 0
24946 -25417 0
24946 -25587 0
-24946 25417 25587 0
24949 -25611 0
24949 -24951 0
-24949 25611 24951 0
24952 -25420 0
24952 -25593 0
-24952 25420 25593 0
24955 -25609 0
24955 -24957 0
-24955 25609 24957 0
24958 -25408 0
24958 -25599 0
-24958 25408 25599 0
24961 -25608 0
24961 -24963 0
-24961 25608 24963 0
25514 -25411 0
25514 -25605 0
-25514 25411 25605 0
25515 -25607 0
25515 -24969 0
-25515 25607 24969 0
25393 -25581 0
25393 -25414 0
-25393 25581 25414 0
25396 -25587 0
25396 -25417 0
-25396 25587 25417 0
25399 -25593 0
25399 -25420 0
-25399 25593 25420 0
25402 -25599 0
25402 -25408 0
-25402 25599 25408 0
25405 -25605 0
25405 -25411 0
-25405 25605 25411 0
25018 -25428 0
25018 -25429 0
25018 -25430 0
25018 -25431 0
-25018 25428 25429 25430 25431 0
24990 -25431 0
24990 -25013 0
-24990 25431 25013 0
24993 -24994 0
24993 -24995 0
-24993 24994 24995 0
24996 -25430 0
24996 -25013 0
-24996 25430 25013 0
24999 -25431 0
24999 -25001 0
-24999 25431 25001 0
25002 -25429 0
25002 -25013 0
-25002 25429 25013 0
25005 -25430 0
25005 -25007 0
-25005 25430 25007 0
25013 -25067 0
25013 -25312 0
-25013 25067 25312 0
25011 -25428 0
25011 -25013 0
-25011 25428 25013 0
25014 -25429 0
25014 -25016 0
-25014 25429 25016 0
25433 -25018 0
25433 -25022 0
-25433 25018 25022 0
25436 -25614 0
25436 -25022 0
-25436 25614 25022 0
25023 -25024 0
25023 -25058 0
-25023 25024 25058 0
25026 -25644 0
25026 -25028 0
-25026 25644 25028 0
25029 -25569 0
25029 -25058 0
-25029 25569 25058 0
25032 -25033 0
25032 -25034 0
-25032 25033 25034 0
25035 -25036 0
25035 -25312 0
-25035 25036 25312 0
25038 -25142 0
25038 -25040 0
-25038 25142 25040 0
25041 -25693 0
25041 -25312 0
-25041 25693 25312 0
25044 -25675 0
25044 -25046 0
-25044 25675 25046 0
25047 -25048 0
25047 -25303 0
-25047 25048 25303 0
25050 -25051 0
25050 -25052 0
-25050 25051 25052 0
25058 -25213 0
25058 -25303 0
-25058 25213 25303 0
25056 -25057 0
25056 -25058 0
-25056 25057 25058 0
25059 -25060 0
25059 -25061 0
-25059 25060 25061 0
25062 -25316 0
25062 -25680 0
-25062 25316 25680 0
25065 -25316 0
25065 -25067 0
-25065 25316 25067 0
25068 -25316 0
25068 -25674 0
-25068 25316 25674 0
25071 -25316 0
25071 -25692 0
-25071 25316 25692 0
25710 -25075 0
25710 -25303 0
-25710 25075 25303 0
25077 -25770 0
25077 -25079 0
-25077 25770 25079 0
25080 -25704 0
25080 -25082 0
-25080 25704 25082 0
25267 -25507 0
25267 -25771 0
-25267 25507 25771 0
25086 -25731 0
25086 -25103 0
-25086 25731 25103 0
25089 -25090 0
25089 -25091 0
-25089 25090 25091 0
25092 -25732 0
25092 -25103 0
-25092 25732 25103 0
25095 -25096 0
25095 -25097 0
-25095 25096 25097 0
25103 -25099 0
25103 -25316 0
-25103 25099 25316 0
25101 -25733 0
25101 -25103 0
-25101 25733 25103 0
25104 -25105 0
25104 -25106 0
-25104 25105 25106 0
25107 -25258 0
25107 -25121 0
-25107 25258 25121 0
25110 -25240 0
25110 -25112 0
-25110 25240 25112 0
25113 -25264 0
25113 -25121 0
-25113 25264 25121 0
25116 -25246 0
25116 -25118 0
-25116 25246 25118 0
25119 -25270 0
25119 -25121 0
-25119 25270 25121 0
25122 -25252 0
25122 -25124 0
-25122 25252 25124 0
25443 -25731 0
25443 -25711 0
-25443 25731 25711 0
25446 -25732 0
25446 -25717 0
-25446 25732 25717 0
25449 -25733 0
25449 -25723 0
-25449 25733 25723 0
25452 -25730 0
25452 -25729 0
-25452 25730 25729 0
25360 -25312 0
25360 -25139 0
-25360 25312 25139 0
25626 -25312 0
25626 -25142 0
-25626 25312 25142 0
25771 -25465 0
25771 -25469 0
-25771 25465 25469 0
25146 -25765 0
25146 -25208 0
-25146 25765 25208 0
25149 -25216 0
25149 -25151 0
-25149 25216 25151 0
25152 -25766 0
25152 -25208 0
-25152 25766 25208 0
25155 -25228 0
25155 -25157 0
-25155 25228 25157 0
25158 -25767 0
25158 -25208 0
-25158 25767 25208 0
25161 -25222 0
25161 -25163 0
-25161 25222 25163 0
25164 -25768 0
25164 -25208 0
-25164 25768 25208 0
25167 -25234 0
25167 -25169 0
-25167 25234 25169 0
25474 -25765 0
25474 -25739 0
-25474 25765 25739 0
25477 -25766 0
25477 -25745 0
-25477 25766 25745 0
25480 -25767 0
25480 -25751 0
-25480 25767 25751 0
25483 -25768 0
25483 -25757 0
-25483 25768 25757 0
25486 -25764 0
25486 -25763 0
-25486 25764 25763 0
25185 -25186 0
25185 -25738 0
-25185 25186 25738 0
25188 -25507 0
25188 -25769 0
-25188 25507 25769 0
25503 -25207 0
25503 -25193 0
-25503 25207 25193 0
25504 -25195 0
25504 -25198 0
-25504 25195 25198 0
25197 -25198 0
25197 -25208 0
-25197 25198 25208 0
25200 -25310 0
25200 -25202 0
-25200 25310 25202 0
25208 -25204 0
25208 -25316 0
-25208 25204 25316 0
25206 -25207 0
25206 -25208 0
-25206 25207 25208 0
25209 -25796 0
25209 -25211 0
-25209 25796 25211 0
25212 -25213 0
25212 -25303 0
-25212 25213 25303 0
25215 -25216 0
25215 -25217 0
-25215 25216 25217 0
25218 -25219 0
25218 -25303 0
-25218 25219 25303 0
25221 -25222 0
25221 -25223 0
-25221 25222 25223 0
25224 -25438 0
25224 -25303 0
-25224 25438 25303 0
25227 -25228 0
25227 -25229 0
-25227 25228 25229 0
25230 -25438 0
25230 -25303 0
-25230 25438 25303 0
25233 -25234 0
25233 -25235 0
-25233 25234 25235 0
25236 -25317 0
25236 -25303 0
-25236 25317 25303 0
25239 -25240 0
25239 -25241 0
-25239 25240 25241 0
25242 -25320 0
25242 -25303 0
-25242 25320 25303 0
25245 -25246 0
25245 -25247 0
-25245 25246 25247 0
25248 -25323 0
25248 -25303 0
-25248 25323 25303 0
25251 -25252 0
25251 -25253 0
-25251 25252 25253 0
25254 -25326 0
25254 -25303 0
-25254 25326 25303 0
25257 -25258 0
25257 -25259 0
-25257 25258 25259 0
25260 -25329 0
25260 -25303 0
-25260 25329 25303 0
25263 -25264 0
25263 -25265 0
-25263 25264 25265 0
25266 -25267 0
25266 -25303 0
-25266 25267 25303 0
25269 -25270 0
25269 -25271 0
-25269 25270 25271 0
25272 -25282 0
25272 -25796 0
-25272 25282 25796 0
25275 -25276 0
25275 -25277 0
-25275 25276 25277 0
25278 -25288 0
25278 -25796 0
-25278 25288 25796 0
25281 -25282 0
25281 -25283 0
-25281 25282 25283 0
25284 -25285 0
25284 -25796 0
-25284 25285 25796 0
25287 -25288 0
25287 -25289 0
-25287 25288 25289 0
25935 -25778 0
25935 -25314 0
-25935 25778 25314 0
25293 -25303 0
25293 -25310 0
-25293 25303 25310 0
25937 -25781 0
25937 -25314 0
-25937 25781 25314 0
25299 -25312 0
25299 -25310 0
-25299 25312 25310 0
25302 -25303 0
25302 -25304 0
-25302 25303 25304 0
25939 -25784 0
25939 -25314 0
-25939 25784 25314 0
25308 -25309 0
25308 -25310 0
-25308 25309 25310 0
25311 -25312 0
25311 -25313 0
-25311 25312 25313 0
25314 -25776 0
25314 -25316 0
-25314 25776 25316 0
25317 25739 0
25317 25331 0
-25317 -25739 -25331 0
25320 25745 0
25320 25331 0
-25320 -25745 -25331 0
25323 25751 0
25323 25331 0
-25323 -25751 -25331 0
25326 25757 0
25326 25331 0
-25326 -25757 -25331 0
25329 25763 0
25329 25331 0
-25329 -25763 -25331 0
25332 25335 0
25332 25334 0
-25332 -25335 -25334 0
25335 25513 0
25335 25337 0
-25335 -25513 -25337 0
25338 25341 0
25338 25340 0
-25338 -25341 -25340 0
25341 25342 0
25341 25343 0
-25341 -25342 -25343 0
25344 25347 0
25344 25346 0
-25344 -25347 -25346 0
25347 25348 0
25347 25349 0
-25347 -25348 -25349 0
25350 25353 0
25350 25352 0
-25350 -25353 -25352 0
25353 25354 0
25353 25355 0
-25353 -25354 -25355 0
25356 25359 0
25356 25358 0
-25356 -25359 -25358 0
25359 25360 0
25359 25361 0
-25359 -25360 -25361 0
25362 25365 0
25362 25364 0
-25362 -25365 -25364 0
25365 25644 0
25365 25367 0
-25365 -25644 -25367 0
25368 25371 0
25368 25370 0
-25368 -25371 -25370 0
25371 25372 0
25371 25373 0
-25371 -25372 -25373 0
25374 25388 0
25374 25376 0
-25374 -25388 -25376 0
25387 25770 0
25387 25379 0
-25387 -25770 -25379 0
25386 25381 0
25386 25424 0
25386 25770 0
-25386 -25381 -25424 -25770 0
25384 25513 0
25384 25386 0
25384 25387 0
-25384 -25513 -25386 -25387 0
25388 25389 0
25388 25390 0
-25388 -25389 -25390 0
25612 25412 0
25612 25393 0
-25612 -25412 -25393 0
25611 25415 0
25611 25396 0
-25611 -25415 -25396 0
25609 25418 0
25609 25399 0
-25609 -25418 -25399 0
25608 25406 0
25608 25402 0
-25608 -25406 -25402 0
25607 25409 0
25607 25405 0
-25607 -25409 -25405 0
25406 25599 0
25406 25408 0
-25406 -25599 -25408 0
25409 25605 0
25409 25411 0
-25409 -25605 -25411 0
25412 25581 0
25412 25414 0
-25412 -25581 -25414 0
25415 25587 0
25415 25417 0
-25415 -25587 -25417 0
25418 25593 0
25418 25420 0
-25418 -25593 -25420 0
25425 25606 0
25425 25610 0
-25425 -25606 -25610 0
25424 25425 0
25424 25513 0
-25424 -25425 -25513 0
25614 25428 0
25614 25429 0
25614 25430 0
25614 25431 0
-25614 -25428 -25429 -25430 -25431 0
25437 25433 0
25437 25434 0
-25437 -25433 -25434 0
25435 25436 0
25435 25437 0
-25435 -25436 -25437 0
25438 25439 0
25438 25508 0
-25438 -25439 -25508 0
25509 25453 0
25509 25443 0
-25509 -25453 -25443 0
25510 25456 0
25510 25446 0
-25510 -25456 -25446 0
25511 25459 0
25511 25449 0
-25511 -25459 -25449 0
25512 25462 0
25512 25452 0
-25512 -25462 -25452 0
25453 25731 0
25453 25711 0
-25453 -25731 -25711 0
25456 25732 0
25456 25717 0
-25456 -25732 -25717 0
25459 25733 0
25459 25723 0
-25459 -25733 -25723 0
25462 25730 0
25462 25729 0
-25462 -25730 -25729 0
25465 25472 0
25465 25475 0
25465 25478 0
-25465 -25472 -25475 -25478 0
25469 25481 0
25469 25484 0
-25469 -25481 -25484 0
25472 25487 0
25472 25474 0
-25472 -25487 -25474 0
25475 25490 0
25475 25477 0
-25475 -25490 -25477 0
25478 25493 0
25478 25480 0
-25478 -25493 -25480 0
25481 25496 0
25481 25483 0
-25481 -25496 -25483 0
25484 25499 0
25484 25486 0
-25484 -25499 -25486 0
25487 25765 0
25487 25739 0
-25487 -25765 -25739 0
25490 25766 0
25490 25745 0
-25490 -25766 -25745 0
25493 25767 0
25493 25751 0
-25493 -25767 -25751 0
25496 25768 0
25496 25757 0
-25496 -25768 -25757 0
25499 25764 0
25499 25763 0
-25499 -25764 -25763 0
25774 25503 0
25774 25504 0
-25774 -25503 -25504 0
25773 25770 0
25773 25507 0
-25773 -25770 -25507 0
25508 25509 0
25508 25510 0
25508 25511 0
25508 25512 0
-25508 -25509 -25510 -25511 -25512 0
25513 25514 0
25513 25515 0
-25513 -25514 -25515 0
-25516 -25519 0
-25516 -25518 0
25516 25519 25518 0
-25519 -25520 0
-25519 -25521 0
25519 25520 25521 0
-25522 -25525 0
-25522 -25524 0
25522 25525 25524 0
-25525 -25526 0
-25525 -25527 0
25525 25526 25527 0
-25528 -25531 0
-25528 -25530 0
25528 25531 25530 0
-25531 -25532 0
-25531 -25533 0
25531 25532 25533 0
-25534 -25537 0
-25534 -25536 0
25534 25537 25536 0
-25537 -25538 0
-25537 -25539 0
25537 25538 25539 0
-25540 -25543 0
-25540 -25542 0
25540 25543 25542 0
-25543 -25544 0
-25543 -25545 0
25543 25544 25545 0
-25546 -25549 0
-25546 -25548 0
25546 25549 25548 0
-25549 -25550 0
-25549 -25551 0
25549 25550 25551 0
-25552 -25555 0
-25552 -25554 0
25552 25555 25554 0
-25555 -25556 0
-25555 -25557 0
25555 25556 25557 0
-25558 -25561 0
-25558 -25560 0
25558 25561 25560 0
-25561 -25562 0
-25561 -25563 0
25561 25562 25563 0
-25564 -25567 0
-25564 -25566 0
25564 25567 25566 0
-25567 -25568 0
-25567 -25569 0
25567 25568 25569 0
-25570 -25573 0
-25570 -25572 0
25570 25573 25572 0
-25573 -25574 0
-25573 -25575 0
25573 25574 25575 0
-25576 -25579 0
-25576 -25578 0
25576 25579 25578 0
-25579 -25613 0
-25579 -25581 0
25579 25613 25581 0
-25582 -25585 0
-25582 -25584 0
25582 25585 25584 0
-25585 -25586 0
-25585 -25587 0
25585 25586 25587 0
-25588 -25591 0
-25588 -25590 0
25588 25591 25590 0
-25591 -25592 0
-25591 -25593 0
25591 25592 25593 0
-25594 -25597 0
-25594 -25596 0
25594 25597 25596 0
-25597 -25598 0
-25597 -25599 0
25597 25598 25599 0
-25600 -25603 0
-25600 -25602 0
25600 25603 25602 0
-25603 -25604 0
-25603 -25605 0
25603 25604 25605 0
-25606 -25607 0
-25606 -25608 0
-25606 -25609 0
25606 25607 25608 25609 0
-25610 -25611 0
-25610 -25612 0
25610 25611 25612 0
-25613 -25614 0
-25613 -25619 0
25613 25614 25619 0
-25621 -25617 0
-25621 -25618 0
25621 25617 25618 0
-25619 -25620 0
-25619 -25621 0
25619 25620 25621 0
-25622 -25625 0
-25622 -25624 0
25622 25625 25624 0
-25625 -25626 0
-25625 -25627 0
25625 25626 25627 0
-25628 -25631 0
-25628 -25630 0
25628 25631 25630 0
-25631 -25632 0
-25631 -25633 0
25631 25632 25633 0
-25634 -25637 0
-25634 -25636 0
25634 25637 25636 0
-25637 -25638 0
-25637 -25639 0
25637 25638 25639 0
-25640 -25643 0
-25640 -25642 0
25640 25643 25642 0
-25643 -25644 0
-25643 -25645 0
25643 25644 25645 0
-25646 -25649 0
-25646 -25648 0
25646 25649 25648 0
-25649 -25650 0
-25649 -25651 0
25649 25650 25651 0
-25652 -25655 0
-25652 -25654 0
25652 25655 25654 0
-25655 -25656 0
-25655 -25657 0
25655 25656 25657 0
-25658 -25661 0
-25658 -25660 0
25658 25661 25660 0
-25661 -25662 0
-25661 -25663 0
25661 25662 25663 0
-25664 -25667 0
-25664 -25666 0
25664 25667 25666 0
-25667 -25668 0
-25667 -25669 0
25667 25668 25669 0
-25670 -25673 0
-25670 -25672 0
25670 25673 25672 0
-25673 -25674 0
-25673 -25675 0
25673 25674 25675 0
-25676 -25679 0
-25676 -25678 0
25676 25679 25678 0
-25679 -25680 0
-25679 -25681 0
25679 25680 25681 0
-25682 -25685 0
-25682 -25684 0
25682 25685 25684 0
-25685 -25686 0
-25685 -25687 0
25685 25686 25687 0
-25688 -25691 0
-25688 -25690 0
25688 25691 25690 0
-25691 -25692 0
-25691 -25693 0
25691 25692 25693 0
-25694 -25695 0
-25694 -25697 0
25694 25695 25697 0
-25697 -25704 0
-25697 -25699 0
25697 25704 25699 0
-25700 -25701 0
-25700 -25703 0
25700 25701 25703 0
-25703 -25704 0
-25703 -25705 0
25703 25704 25705 0
-25706 -25709 0
-25706 -25708 0
25706 25709 25708 0
-25709 -25710 0
-25709 -25711 0
25709 25710 25711 0
-25712 -25715 0
-25712 -25714 0
25712 25715 25714 0
-25715 -25716 0
-25715 -25717 0
25715 25716 25717 0
-25718 -25721 0
-25718 -25720 0
25718 25721 25720 0
-25721 -25722 0
-25721 -25723 0
25721 25722 25723 0
-25724 -25727 0
-25724 -25726 0
25724 25727 25726 0
-25727 -25728 0
-25727 -25729 0
25727 25728 25729 0
-25730 -25731 0
-25730 -25732 0
-25730 -25733 0
25730 25731 25732 25733 0
-25734 -25737 0
-25734 -25736 0
25734 25737 25736 0
-25737 -25738 0
-25737 -25739 0
25737 25738 25739 0
-25740 -25743 0
-25740 -25742 0
25740 25743 25742 0
-25743 -25744 0
-25743 -25745 0
25743 25744 25745 0
-25746 -25749 0
-25746 -25748 0
25746 25749 25748 0
-25749 -25750 0
-25749 -25751 0
25749 25750 25751 0
-25752 -25755 0
-25752 -25754 0
25752 25755 25754 0
-25755 -25756 0
-25755 -25757 0
25755 25756 25757 0
-25758 -25761 0
-25758 -25760 0
25758 25761 25760 0
-25761 -25762 0
-25761 -25763 0
25761 25762 25763 0
-25764 -25765 0
-25764 -25766 0
-25764 -25767 0
-25764 -25768 0
25764 25765 25766 25767 25768 0
-25769 -25770 0
-25769 -25771 0
25769 25770 25771 0
-25772 -25773 0
-25772 -25774 0
25772 25773 25774 0
-25786 -25776 0
-25786 -25777 0
25786 25776 25777 0
-25778 -25779 0
-25778 -25786 0
25778 25779 25786 0
-25781 -25782 0
-25781 -25786 0
25781 25782 25786 0
-25784 -25785 0
-25784 -25786 0
25784 25785 25786 0
-25787 -25788 0
-25787 -25789 0
-25787 -25790 0
-25787 -25791 0
25787 25788 25789 25790 25791 0
-25792 -25793 0
-25792 -25795 0
25792 25793 25795 0
-25795 -25796 0
-25795 -25797 0
25795 25796 25797 0
-25799 27391 0
25799 -27391 0
-25801 27575 0
25801 -27575 0
-25803 25957 0
25803 -25957 0
-25805 27478 0
25805 -27478 0
-25807 27484 0
25807 -27484 0
-25809 25965 0
25809 -25965 0
-25811 27490 0
25811 -27490 0
-25813 25971 0
25813 -25971 0
-25815 27496 0
25815 -27496 0
-25817 27502 0
25817 -27502 0
-25819 27508 0
25819 -27508 0
-25821 27514 0
25821 -27514 0
-25823 26372 0
25823 -26372 0
-25825 27008 0
25825 -27008 0
-25827 25995 0
25827 -25995 0
-25829 27520 0
25829 -27520 0
-25831 27526 0
25831 -27526 0
-25833 26005 0
25833 -26005 0
-25835 26009 0
25835 -26009 0
-25837 27532 0
25837 -27532 0
-25839 27538 0
25839 -27538 0
-25841 27544 0
25841 -27544 0
-25843 27550 0
25843 -27550 0
-25845 27556 0
25845 -27556 0
-25847 27562 0
25847 -27562 0
-25849 27388 0
25849 -27388 0
-25851 27387 0
25851 -27387 0
-25853 27386 0
25853 -27386 0
-25855 27385 0
25855 -27385 0
-25857 27584 0
25857 -27584 0
-25859 27590 0
25859 -27590 0
-25861 27596 0
25861 -27596 0
-25863 27602 0
25863 -27602 0
-25865 27608 0
25865 -27608 0
-25867 27614 0
25867 -27614 0
-25869 27620 0
25869 -27620 0
-25871 27626 0
25871 -27626 0
-25873 27632 0
25873 -27632 0
-25875 27638 0
25875 -27638 0
-25877 27644 0
25877 -27644 0
-25879 27650 0
25879 -27650 0
-25881 27036 0
25881 -27036 0
-25883 27656 0
25883 -27656 0
-25885 27039 0
25885 -27039 0
-25887 27662 0
25887 -27662 0
-25889 27668 0
25889 -27668 0
-25891 27674 0
25891 -27674 0
-25893 27680 0
25893 -27680 0
-25895 27686 0
25895 -27686 0
-25897 27688 0
25897 -27688 0
-25899 27689 0
25899 -27689 0
-25901 27690 0
25901 -27690 0
-25903 27696 0
25903 -27696 0
-25905 27702 0
25905 -27702 0
-25907 27708 0
25907 -27708 0
-25909 27714 0
25909 -27714 0
-25911 27720 0
25911 -27720 0
-25913 27722 0
25913 -27722 0
-25915 27723 0
25915 -27723 0
-25917 27724 0
25917 -27724 0
-25919 27725 0
25919 -27725 0
-25921 27464 0
25921 -27464 0
-25923 27155 0
25923 -27155 0
-25925 27164 0
25925 -27164 0
-25927 27734 0
25927 -27734 0
-25929 27239 0
25929 -27239 0
-25931 27245 0
25931 -27245 0
-25933 27242 0
25933 -27242 0
-25935 26814 0
25935 -26814 0
-25937 26817 0
25937 -26817 0
-25939 25991 0
25939 -25991 0
-25941 26267 0
25941 -26267 0
-25943 27754 0
25943 -27754 0
-25945 26273 0
25945 -26273 0
25949 27392 0
-25949 -27392 0
27756 25949 0
-27756 -25949 0
25953 27576 0
-25953 -27576 0
27758 25953 0
-27758 -25953 0
26291 27273 0
-26291 -27273 0
27294 25957 0
-27294 -25957 0
26294 27273 0
-26294 -27273 0
26300 27273 0
-26300 -27273 0
26306 27273 0
-26306 -27273 0
27300 25965 0
-27300 -25965 0
26309 27273 0
-26309 -27273 0
26327 27273 0
-26327 -27273 0
27306 25971 0
-27306 -25971 0
26330 27273 0
-26330 -27273 0
26336 27273 0
-26336 -27273 0
26342 27273 0
-26342 -27273 0
26348 27273 0
-26348 -27273 0
26354 27273 0
-26354 -27273 0
26375 27273 0
-26375 -27273 0
26374 27008 0
-26374 -27008 0
27312 26372 0
-27312 -26372 0
26881 27266 0
-26881 -27266 0
27266 25991 0
-27266 -25991 0
26381 27273 0
-26381 -27273 0
27318 25995 0
-27318 -25995 0
26384 27273 0
-26384 -27273 0
26390 27273 0
-26390 -27273 0
26422 27526 0
-26422 -27526 0
26402 27273 0
-26402 -27273 0
27324 26005 0
-27324 -26005 0
26405 27273 0
-26405 -27273 0
27330 26009 0
-27330 -26009 0
26408 27273 0
-26408 -27273 0
26438 26460 0
-26438 -26460 0
26444 26460 0
-26444 -26460 0
26450 26460 0
-26450 -26460 0
26456 26460 0
-26456 -26460 0
26465 26460 0
-26465 -26460 0
27338 27382 0
-27338 -27382 0
26495 27273 0
-26495 -27273 0
26952 26970 0
-26952 -26970 0
26501 27273 0
-26501 -27273 0
26958 26970 0
-26958 -26970 0
26507 27273 0
-26507 -27273 0
26964 26970 0
-26964 -26970 0
26513 27273 0
-26513 -27273 0
26973 26970 0
-26973 -26970 0
26985 27015 0
-26985 -27015 0
26991 27015 0
-26991 -27015 0
26997 27269 0
-26997 -27269 0
27003 27269 0
-27003 -27269 0
27269 26817 0
-27269 -26817 0
27009 27260 0
-27009 -27260 0
27018 27015 0
-27018 -27015 0
26537 27019 0
-26537 -27019 0
26543 27019 0
-26543 -27019 0
26549 27019 0
-26549 -27019 0
26565 27022 0
-26565 -27022 0
26571 27022 0
-26571 -27022 0
26577 27022 0
-26577 -27022 0
26589 27025 0
-26589 -27025 0
26595 27025 0
-26595 -27025 0
26601 27273 0
-26601 -27273 0
26616 27028 0
-26616 -27028 0
26622 27028 0
-26622 -27028 0
26628 27273 0
-26628 -27273 0
26649 27273 0
-26649 -27273 0
26652 27273 0
-26652 -27273 0
26664 27039 0
-26664 -27039 0
26658 27273 0
-26658 -27273 0
26667 27662 0
-26667 -27662 0
26661 27273 0
-26661 -27273 0
26666 27224 0
-26666 -27224 0
26671 27395 0
-26671 -27395 0
26677 27395 0
-26677 -27395 0
26683 27395 0
-26683 -27395 0
26689 27395 0
-26689 -27395 0
27396 27273 0
-27396 -27273 0
27048 27060 0
-27048 -27060 0
27054 27060 0
-27054 -27060 0
27063 27060 0
-27063 -27060 0
27069 27078 0
-27069 -27078 0
27075 27078 0
-27075 -27078 0
27081 27078 0
-27081 -27078 0
27078 27036 0
-27078 -27036 0
26722 26774 0
-26722 -26774 0
26728 26774 0
-26728 -26774 0
26734 26774 0
-26734 -26774 0
26740 26774 0
-26740 -26774 0
26746 26774 0
-26746 -26774 0
27108 27165 0
-27108 -27165 0
27114 27165 0
-27114 -27165 0
27120 27165 0
-27120 -27165 0
27126 27165 0
-27126 -27165 0
26779 26774 0
-26779 -26774 0
26782 27726 0
-26782 -27726 0
27288 27731 0
-27288 -27731 0
27152 27150 0
-27152 -27150 0
27159 27165 0
-27159 -27165 0
27168 27165 0
-27168 -27165 0
27176 27656 0
-27176 -27656 0
27661 27465 0
-27661 -27465 0
27174 27260 0
-27174 -27260 0
27180 27260 0
-27180 -27260 0
27186 27260 0
-27186 -27260 0
27192 27260 0
-27192 -27260 0
27198 27260 0
-27198 -27260 0
27204 27260 0
-27204 -27260 0
27210 27260 0
-27210 -27260 0
27216 27260 0
-27216 -27260 0
27222 27260 0
-27222 -27260 0
27228 27260 0
-27228 -27260 0
27260 26814 0
-27260 -26814 0
26821 27273 0
-26821 -27273 0
27733 26820 0
-27733 -26820 0
26179 26177 0
-26179 -26177 0
26820 26179 0
-26820 -26179 0
27233 27754 0
-27233 -27754 0
26824 27273 0
-26824 -27273 0
27234 27753 0
-27234 -27753 0
26830 27273 0
-26830 -27273 0
27240 27753 0
-27240 -27753 0
26836 27273 0
-26836 -27273 0
27246 27753 0
-27246 -27753 0
26197 26195 0
-26197 -26195 0
27753 26197 0
-27753 -26197 0
26842 27267 0
-26842 -27267 0
27261 27267 0
-27261 -27267 0
27270 27267 0
-27270 -27267 0
26207 26205 0
-26207 -26205 0
27267 26207 0
-27267 -26207 0
26221 26209 0
-26221 -26209 0
26210 26221 0
-26210 -26221 0
26851 27273 0
-26851 -27273 0
26854 27273 0
-26854 -27273 0
26860 27273 0
-26860 -27273 0
27273 26219 0
-27273 -26219 0
26979 26221 0
-26979 -26221 0
26225 26223 0
-26225 -26223 0
27173 26225 0
-27173 -26225 0
26229 26227 0
-26229 -26227 0
27185 26229 0
-27185 -26229 0
26233 26231 0
-26233 -26231 0
27179 26233 0
-27179 -26233 0
26237 26235 0
-26237 -26235 0
27191 26237 0
-27191 -26237 0
26241 26239 0
-26241 -26239 0
26951 26241 0
-26951 -26241 0
26245 26243 0
-26245 -26243 0
27197 26245 0
-27197 -26245 0
26249 26247 0
-26249 -26247 0
27203 26249 0
-27203 -26249 0
26253 26251 0
-26253 -26251 0
27209 26253 0
-27209 -26253 0
26257 26255 0
-26257 -26255 0
27215 26257 0
-27215 -26257 0
26261 26259 0
-26261 -26259 0
27221 26261 0
-27221 -26261 0
26265 26263 0
-26265 -26263 0
27227 26265 0
-27227 -26265 0
26266 26267 0
-26266 -26267 0
26271 26269 0
-26271 -26269 0
26668 26271 0
-26668 -26271 0
26272 26273 0
-26272 -26273 0
-27371 27193 0
-27371 27196 0
27371 -27193 -27196 0
-27374 27199 0
-27374 27202 0
27374 -27199 -27202 0
-27377 27205 0
-27377 27208 0
27377 -27205 -27208 0
-27365 27211 0
-27365 27214 0
27365 -27211 -27214 0
-27368 27217 0
-27368 27220 0
27368 -27217 -27220 0
-27760 27289 0
-27760 26291 0
27760 -27289 -26291 0
-27762 27473 0
-27762 26294 0
27762 -27473 -26294 0
-27475 27477 0
-27475 27478 0
27475 -27477 -27478 0
-27764 27479 0
-27764 26300 0
27764 -27479 -26300 0
-27481 27483 0
-27481 27484 0
27481 -27483 -27484 0
-27766 27295 0
-27766 26306 0
27766 -27295 -26306 0
-27768 27485 0
-27768 26309 0
27768 -27485 -26309 0
-27487 27489 0
-27487 27490 0
27487 -27489 -27490 0
-27477 27470 0
-27477 27294 0
27477 -27470 -27294 0
-27483 27477 0
-27483 27478 0
27483 -27477 -27478 0
-27299 27483 0
-27299 27484 0
27299 -27483 -27484 0
-27489 27299 0
-27489 27300 0
27489 -27299 -27300 0
-27770 27301 0
-27770 26327 0
27770 -27301 -26327 0
-27772 27491 0
-27772 26330 0
27772 -27491 -26330 0
-27493 27495 0
-27493 27496 0
27493 -27495 -27496 0
-27774 27497 0
-27774 26336 0
27774 -27497 -26336 0
-27499 27501 0
-27499 27502 0
27499 -27501 -27502 0
-27776 27503 0
-27776 26342 0
27776 -27503 -26342 0
-27505 27507 0
-27505 27508 0
27505 -27507 -27508 0
-27778 27509 0
-27778 26348 0
27778 -27509 -26348 0
-27511 27513 0
-27511 27514 0
27511 -27513 -27514 0
-27780 27307 0
-27780 26354 0
27780 -27307 -26354 0
-27495 27305 0
-27495 27306 0
27495 -27305 -27306 0
-27501 27495 0
-27501 27496 0
27501 -27495 -27496 0
-27507 27501 0
-27507 27502 0
27507 -27501 -27502 0
-27513 27507 0
-27513 27508 0
27513 -27507 -27508 0
-27311 27513 0
-27311 27514 0
27311 -27513 -27514 0
-26887 27311 0
-26887 26372 0
26887 -27311 -26372 0
-27782 26374 0
-27782 26375 0
27782 -26374 -26375 0
-26990 26876 0
-26990 26879 0
26990 -26876 -26879 0
-27784 27313 0
-27784 26381 0
27784 -27313 -26381 0
-27786 27515 0
-27786 26384 0
27786 -27515 -26384 0
-27517 27519 0
-27517 27520 0
27517 -27519 -27520 0
-27788 27521 0
-27788 26390 0
27788 -27521 -26390 0
-27523 27525 0
-27523 27526 0
27523 -27525 -27526 0
-27519 27317 0
-27519 27318 0
27519 -27317 -27318 0
-27525 27519 0
-27525 27520 0
27525 -27519 -27520 0
-27790 27319 0
-27790 26402 0
27790 -27319 -26402 0
-27792 27325 0
-27792 26405 0
27792 -27325 -26405 0
-27794 27527 0
-27794 26408 0
27794 -27527 -26408 0
-27529 27531 0
-27529 27532 0
27529 -27531 -27532 0
-27329 27601 0
-27329 27324 0
27329 -27601 -27324 0
-27531 27329 0
-27531 27330 0
27531 -27329 -27330 0
-26981 27525 0
-26981 27526 0
26981 -27525 -27526 0
-27014 26422 0
-27014 27525 0
27014 -26422 -27525 0
-26875 27489 0
-26875 27490 0
26875 -27489 -27490 0
-26884 27311 0
-26884 27312 0
26884 -27311 -27312 0
-27096 27531 0
-27096 27532 0
27096 -27531 -27532 0
-26993 27649 0
-26993 27650 0
26993 -27649 -27650 0
-27796 27533 0
-27796 26438 0
27796 -27533 -26438 0
-27535 27570 0
-27535 27538 0
27535 -27570 -27538 0
-27798 27539 0
-27798 26444 0
27798 -27539 -26444 0
-27541 27543 0
-27541 27544 0
27541 -27543 -27544 0
-27800 27545 0
-27800 26450 0
27800 -27545 -26450 0
-27547 27549 0
-27547 27550 0
27547 -27549 -27550 0
-27802 27551 0
-27802 26456 0
27802 -27551 -26456 0
-27553 27555 0
-27553 27556 0
27553 -27555 -27556 0
-26460 27181 0
-26460 27184 0
26460 -27181 -27184 0
-27804 27557 0
-27804 26465 0
27804 -27557 -26465 0
-27559 27561 0
-27559 27562 0
27559 -27561 -27562 0
-27543 27570 0
-27543 27538 0
27543 -27570 -27538 0
-27549 27543 0
-27549 27544 0
27549 -27543 -27544 0
-27555 27549 0
-27555 27550 0
27555 -27549 -27550 0
-27561 27555 0
-27561 27556 0
27561 -27555 -27556 0
-26908 26900 0
-26908 27569 0
26908 -26900 -27569 0
-26914 26903 0
-26914 26906 0
26914 -26903 -26906 0
-26920 26909 0
-26920 26912 0
26920 -26909 -26912 0
-26926 26915 0
-26926 26918 0
26926 -26915 -26918 0
-27806 26496 0
-27806 26495 0
27806 -26496 -26495 0
-26496 26947 0
-26496 26950 0
26496 -26947 -26950 0
-27808 26502 0
-27808 26501 0
27808 -26502 -26501 0
-26502 26953 0
-26502 26956 0
26502 -26953 -26956 0
-27810 26508 0
-27810 26507 0
27810 -26508 -26507 0
-26508 26959 0
-26508 26962 0
26508 -26959 -26962 0
-27812 26514 0
-27812 26513 0
27812 -26514 -26513 0
-26514 26968 0
-26514 26971 0
26514 -26968 -26971 0
-27577 27394 0
-27577 26979 0
27577 -27394 -26979 0
-27574 27392 0
-27574 26979 0
27574 -27392 -26979 0
-27619 26980 0
-27619 26983 0
27619 -26980 -26983 0
-27032 26992 0
-27032 26995 0
27032 -26992 -26995 0
-27005 26998 0
-27005 27001 0
27005 -26998 -27001 0
-27637 27583 0
-27637 27596 0
27637 -27583 -27596 0
-27814 27579 0
-27814 26537 0
27814 -27579 -26537 0
-27581 27583 0
-27581 27584 0
27581 -27583 -27584 0
-27816 27585 0
-27816 26543 0
27816 -27585 -26543 0
-27587 27589 0
-27587 27590 0
27587 -27589 -27590 0
-27818 27591 0
-27818 26549 0
27818 -27591 -26549 0
-27593 27595 0
-27593 27596 0
27593 -27595 -27596 0
-27589 27583 0
-27589 27584 0
27589 -27583 -27584 0
-27595 27589 0
-27595 27590 0
27595 -27589 -27590 0
-27024 27601 0
-27024 27602 0
-27024 27614 0
27024 -27601 -27602 -27614 0
-27820 27597 0
-27820 26565 0
27820 -27597 -26565 0
-27599 27601 0
-27599 27602 0
27599 -27601 -27602 0
-27822 27603 0
-27822 26571 0
27822 -27603 -26571 0
-27605 27607 0
-27605 27608 0
27605 -27607 -27608 0
-27824 27609 0
-27824 26577 0
27824 -27609 -26577 0
-27611 27613 0
-27611 27614 0
27611 -27613 -27614 0
-27607 27601 0
-27607 27602 0
27607 -27601 -27602 0
-27613 27607 0
-27613 27608 0
27613 -27607 -27608 0
-27826 27615 0
-27826 26589 0
27826 -27615 -26589 0
-27617 27619 0
-27617 27620 0
27617 -27619 -27620 0
-27828 27621 0
-27828 26595 0
27828 -27621 -26595 0
-27623 27625 0
-27623 27626 0
27623 -27625 -27626 0
-27830 27627 0
-27830 26601 0
27830 -27627 -26601 0
-27629 27631 0
-27629 27632 0
27629 -27631 -27632 0
-27625 27619 0
-27625 27620 0
27625 -27619 -27620 0
-27631 27619 0
-27631 27626 0
27631 -27619 -27626 0
-27099 27631 0
-27099 27632 0
27099 -27631 -27632 0
-27832 27633 0
-27832 26616 0
27832 -27633 -26616 0
-27635 27637 0
-27635 27638 0
27635 -27637 -27638 0
-27834 27639 0
-27834 26622 0
27834 -27639 -26622 0
-27641 27643 0
-27641 27644 0
27641 -27643 -27644 0
-27836 27645 0
-27836 26628 0
27836 -27645 -26628 0
-27647 27649 0
-27647 27650 0
27647 -27649 -27650 0
-27643 27637 0
-27643 27638 0
27643 -27637 -27638 0
-27649 27637 0
-27649 27644 0
27649 -27637 -27644 0
-26787 27013 0
-26787 27016 0
26787 -27013 -27016 0
-27727 26986 0
-27727 26989 0
27727 -26986 -26989 0
-27347 27004 0
-27347 27007 0
27347 -27004 -27007 0
-27838 27034 0
-27838 26649 0
27838 -27034 -26649 0
-27840 27651 0
-27840 26652 0
27840 -27651 -26652 0
-27652 27661 0
-27652 27078 0
27652 -27661 -27078 0
-27842 27037 0
-27842 26658 0
27842 -27037 -26658 0
-27844 27657 0
-27844 26661 0
27844 -27657 -26661 0
-27658 27661 0
-27658 26664 0
27658 -27661 -26664 0
-27170 26666 0
-27170 26667 0
-27170 26668 0
27170 -26666 -26667 -26668 0
-27846 27663 0
-27846 26671 0
27846 -27663 -26671 0
-27665 27667 0
-27665 27668 0
27665 -27667 -27668 0
-27848 27669 0
-27848 26677 0
27848 -27669 -26677 0
-27671 27673 0
-27671 27674 0
27671 -27673 -27674 0
-27850 27675 0
-27850 26683 0
27850 -27675 -26683 0
-27677 27679 0
-27677 27680 0
27677 -27679 -27680 0
-27852 27681 0
-27852 26689 0
27852 -27681 -26689 0
-27683 27685 0
-27683 27686 0
27683 -27685 -27686 0
-27673 27667 0
-27673 27668 0
27673 -27667 -27668 0
-27679 27673 0
-27679 27674 0
27679 -27673 -27674 0
-27685 27679 0
-27685 27680 0
27685 -27679 -27680 0
-27047 27064 0
-27047 27067 0
27047 -27064 -27067 0
-27053 27070 0
-27053 27073 0
27053 -27070 -27073 0
-27062 27076 0
-27062 27079 0
27062 -27076 -27079 0
-27854 27043 0
-27854 27046 0
27854 -27043 -27046 0
-27856 27049 0
-27856 27052 0
27856 -27049 -27052 0
-27858 27058 0
-27858 27061 0
27858 -27058 -27061 0
-27860 27691 0
-27860 26722 0
27860 -27691 -26722 0
-27693 27695 0
-27693 27696 0
27693 -27695 -27696 0
-27862 27697 0
-27862 26728 0
27862 -27697 -26728 0
-27699 27701 0
-27699 27702 0
27699 -27701 -27702 0
-27864 27703 0
-27864 26734 0
27864 -27703 -26734 0
-27705 27707 0
-27705 27708 0
27705 -27707 -27708 0
-27866 27709 0
-27866 26740 0
27866 -27709 -26740 0
-27711 27713 0
-27711 27714 0
27711 -27713 -27714 0
-27868 27715 0
-27868 26746 0
27868 -27715 -26746 0
-27717 27719 0
-27717 27720 0
27717 -27719 -27720 0
-27701 27695 0
-27701 27696 0
27701 -27695 -27696 0
-27707 27701 0
-27707 27702 0
27707 -27701 -27702 0
-27713 27707 0
-27713 27708 0
27713 -27707 -27708 0
-27719 27713 0
-27719 27714 0
27719 -27713 -27714 0
-27870 27103 0
-27870 27106 0
27870 -27103 -27106 0
-27872 27109 0
-27872 27112 0
27872 -27109 -27112 0
-27874 27115 0
-27874 27118 0
27874 -27115 -27118 0
-27876 27121 0
-27876 27124 0
27876 -27121 -27124 0
-26774 27187 0
-26774 27190 0
26774 -27187 -27190 0
-27878 27142 0
-27878 26779 0
27878 -27142 -26779 0
-27143 27145 0
-27143 26782 0
27143 -27145 -26782 0
-27150 27175 0
-27150 27178 0
27150 -27175 -27178 0
-27695 26787 0
-27695 27728 0
27695 -26787 -27728 0
-27880 27154 0
-27880 27157 0
27880 -27154 -27157 0
-27882 27163 0
-27882 27166 0
27882 -27163 -27166 0
-27336 27223 0
-27336 27226 0
27336 -27223 -27226 0
-27346 27169 0
-27346 27172 0
27346 -27169 -27172 0
-27745 26875 0
-27745 27233 0
27745 -26875 -27233 0
-27746 26884 0
-27746 27239 0
27746 -26884 -27239 0
-27747 27096 0
-27747 27245 0
27747 -27096 -27245 0
-27748 26993 0
-27748 27242 0
27748 -26993 -27242 0
-27056 26814 0
-27056 27395 0
27056 -26814 -27395 0
-27161 26817 0
-27161 27395 0
27161 -26817 -27395 0
-27884 26820 0
-27884 26821 0
27884 -26820 -26821 0
-27886 26825 0
-27886 26824 0
27886 -26825 -26824 0
-26825 27229 0
-26825 27232 0
26825 -27229 -27232 0
-27888 26831 0
-27888 26830 0
27888 -26831 -26830 0
-26831 27235 0
-26831 27238 0
26831 -27235 -27238 0
-27890 26837 0
-27890 26836 0
27890 -26837 -26836 0
-26837 27241 0
-26837 27244 0
26837 -27241 -27244 0
-27736 27250 0
-27736 26842 0
27736 -27250 -26842 0
-27739 27256 0
-27739 27259 0
27739 -27256 -27259 0
-27742 27265 0
-27742 27268 0
27742 -27265 -27268 0
-27898 27331 0
-27898 26851 0
27898 -27331 -26851 0
-27900 27749 0
-27900 26854 0
27900 -27749 -26854 0
-27750 27753 0
-27750 27242 0
27750 -27753 -27242 0
-27902 27729 0
-27902 26860 0
27902 -27729 -26860 0
27291 -27470 0
27291 -27294 0
-27291 27470 27294 0
27297 -27299 0
27297 -27300 0
-27297 27299 27300 0
27303 -27305 0
27303 -27306 0
-27303 27305 27306 0
27309 -27311 0
27309 -27312 0
-27309 27311 27312 0
27305 -27266 0
27305 -26875 0
-27305 27266 26875 0
26876 -27312 0
26876 -27266 0
-26876 27312 27266 0
26879 -27008 0
26879 -26881 0
-26879 27008 26881 0
27601 -27266 0
27601 -26884 0
-27601 27266 26884 0
27017 -27266 0
27017 -26887 0
-27017 27266 26887 0
27315 -27317 0
27315 -27318 0
-27315 27317 27318 0
27321 -27601 0
27321 -27324 0
-27321 27601 27324 0
27327 -27329 0
27327 -27330 0
-27327 27329 27330 0
27333 -27346 0
27333 -27341 0
-27333 27346 27341 0
26900 -27371 0
26900 -27538 0
-26900 27371 27538 0
26903 -27374 0
26903 -27544 0
-26903 27374 27544 0
26906 -27568 0
26906 -26908 0
-26906 27568 26908 0
26909 -27377 0
26909 -27550 0
-26909 27377 27550 0
26912 -27566 0
26912 -26914 0
-26912 27566 26914 0
26915 -27365 0
26915 -27556 0
-26915 27365 27556 0
26918 -27565 0
26918 -26920 0
-26918 27565 26920 0
27471 -27368 0
27471 -27562 0
-27471 27368 27562 0
27472 -27564 0
27472 -26926 0
-27472 27564 26926 0
27350 -27538 0
27350 -27371 0
-27350 27538 27371 0
27353 -27544 0
27353 -27374 0
-27353 27544 27374 0
27356 -27550 0
27356 -27377 0
-27356 27550 27377 0
27359 -27556 0
27359 -27365 0
-27359 27556 27365 0
27362 -27562 0
27362 -27368 0
-27362 27562 27368 0
26975 -27385 0
26975 -27386 0
26975 -27387 0
26975 -27388 0
-26975 27385 27386 27387 27388 0
26947 -27388 0
26947 -26970 0
-26947 27388 26970 0
26950 -26951 0
26950 -26952 0
-26950 26951 26952 0
26953 -27387 0
26953 -26970 0
-26953 27387 26970 0
26956 -27388 0
26956 -26958 0
-26956 27388 26958 0
26959 -27386 0
26959 -26970 0
-26959 27386 26970 0
26962 -27387 0
26962 -26964 0
-26962 27387 26964 0
26970 -27024 0
26970 -27269 0
-26970 27024 27269 0
26968 -27385 0
26968 -26970 0
-26968 27385 26970 0
26971 -27386 0
26971 -26973 0
-26971 27386 26973 0
27390 -26975 0
27390 -26979 0
-27390 26975 26979 0
27393 -27571 0
27393 -26979 0
-27393 27571 26979 0
26980 -26981 0
26980 -27015 0
-26980 26981 27015 0
26983 -27601 0
26983 -26985 0
-26983 27601 26985 0
26986 -27526 0
26986 -27015 0
-26986 27526 27015 0
26989 -26990 0
26989 -26991 0
-26989 26990 26991 0
26992 -26993 0
26992 -27269 0
-26992 26993 27269 0
26995 -27099 0
26995 -26997 0
-26995 27099 26997 0
26998 -27650 0
26998 -27269 0
-26998 27650 27269 0
27001 -27632 0
27001 -27003 0
-27001 27632 27003 0
27004 -27005 0
27004 -27260 0
-27004 27005 27260 0
27007 -27008 0
27007 -27009 0
-27007 27008 27009 0
27015 -27170 0
27015 -27260 0
-27015 27170 27260 0
27013 -27014 0
27013 -27015 0
-27013 27014 27015 0
27016 -27017 0
27016 -27018 0
-27016 27017 27018 0
27019 -27273 0
27019 -27637 0
-27019 27273 27637 0
27022 -27273 0
27022 -27024 0
-27022 27273 27024 0
27025 -27273 0
27025 -27631 0
-27025 27273 27631 0
27028 -27273 0
27028 -27649 0
-27028 27273 27649 0
27667 -27032 0
27667 -27260 0
-27667 27032 27260 0
27034 -27727 0
27034 -27036 0
-27034 27727 27036 0
27037 -27661 0
27037 -27039 0
-27037 27661 27039 0
27224 -27464 0
27224 -27728 0
-27224 27464 27728 0
27043 -27688 0
27043 -27060 0
-27043 27688 27060 0
27046 -27047 0
27046 -27048 0
-27046 27047 27048 0
27049 -27689 0
27049 -27060 0
-27049 27689 27060 0
27052 -27053 0
27052 -27054 0
-27052 27053 27054 0
27060 -27056 0
27060 -27273 0
-27060 27056 27273 0
27058 -27690 0
27058 -27060 0
-27058 27690 27060 0
27061 -27062 0
27061 -27063 0
-27061 27062 27063 0
27064 -27215 0
27064 -27078 0
-27064 27215 27078 0
27067 -27197 0
27067 -27069 0
-27067 27197 27069 0
27070 -27221 0
27070 -27078 0
-27070 27221 27078 0
27073 -27203 0
27073 -27075 0
-27073 27203 27075 0
27076 -27227 0
27076 -27078 0
-27076 27227 27078 0
27079 -27209 0
27079 -27081 0
-27079 27209 27081 0
27400 -27688 0
27400 -27668 0
-27400 27688 27668 0
27403 -27689 0
27403 -27674 0
-27403 27689 27674 0
27406 -27690 0
27406 -27680 0
-27406 27690 27680 0
27409 -27687 0
27409 -27686 0
-27409 27687 27686 0
27317 -27269 0
27317 -27096 0
-27317 27269 27096 0
27583 -27269 0
27583 -27099 0
-27583 27269 27099 0
27728 -27422 0
27728 -27426 0
-27728 27422 27426 0
27103 -27722 0
27103 -27165 0
-27103 27722 27165 0
27106 -27173 0
27106 -27108 0
-27106 27173 27108 0
27109 -27723 0
27109 -27165 0
-27109 27723 27165 0
27112 -27185 0
27112 -27114 0
-27112 27185 27114 0
27115 -27724 0
27115 -27165 0
-27115 27724 27165 0
27118 -27179 0
27118 -27120 0
-27118 27179 27120 0
27121 -27725 0
27121 -27165 0
-27121 27725 27165 0
27124 -27191 0
27124 -27126 0
-27124 27191 27126 0
27431 -27722 0
27431 -27696 0
-27431 27722 27696 0
27434 -27723 0
27434 -27702 0
-27434 27723 27702 0
27437 -27724 0
27437 -27708 0
-27437 27724 27708 0
27440 -27725 0
27440 -27714 0
-27440 27725 27714 0
27443 -27721 0
27443 -27720 0
-27443 27721 27720 0
27142 -27143 0
27142 -27695 0
-27142 27143 27695 0
27145 -27464 0
27145 -27726 0
-27145 27464 27726 0
27460 -27164 0
27460 -27150 0
-27460 27164 27150 0
27461 -27152 0
27461 -27155 0
-27461 27152 27155 0
27154 -27155 0
27154 -27165 0
-27154 27155 27165 0
27157 -27267 0
27157 -27159 0
-27157 27267 27159 0
27165 -27161 0
27165 -27273 0
-27165 27161 27273 0
27163 -27164 0
27163 -27165 0
-27163 27164 27165 0
27166 -27753 0
27166 -27168 0
-27166 27753 27168 0
27169 -27170 0
27169 -27260 0
-27169 27170 27260 0
27172 -27173 0
27172 -27174 0
-27172 27173 27174 0
27175 -27176 0
27175 -27260 0
-27175 27176 27260 0
27178 -27179 0
27178 -27180 0
-27178 27179 27180 0
27181 -27395 0
27181 -27260 0
-27181 27395 27260 0
27184 -27185 0
27184 -27186 0
-27184 27185 27186 0
27187 -27395 0
27187 -27260 0
-27187 27395 27260 0
27190 -27191 0
27190 -27192 0
-27190 27191 27192 0
27193 -27274 0
27193 -27260 0
-27193 27274 27260 0
27196 -27197 0
27196 -27198 0
-27196 27197 27198 0
27199 -27277 0
27199 -27260 0
-27199 27277 27260 0
27202 -27203 0
27202 -27204 0
-27202 27203 27204 0
27205 -27280 0
27205 -27260 0
-27205 27280 27260 0
27208 -27209 0
27208 -27210 0
-27208 27209 27210 0
27211 -27283 0
27211 -27260 0
-27211 27283 27260 0
27214 -27215 0
27214 -27216 0
-27214 27215 27216 0
27217 -27286 0
27217 -27260 0
-27217 27286 27260 0
27220 -27221 0
27220 -27222 0
-27220 27221 27222 0
27223 -27224 0
27223 -27260 0
-27223 27224 27260 0
27226 -27227 0
27226 -27228 0
-27226 27227 27228 0
27229 -27239 0
27229 -27753 0
-27229 27239 27753 0
27232 -27233 0
27232 -27234 0
-27232 27233 27234 0
27235 -27245 0
27235 -27753 0
-27235 27245 27753 0
27238 -27239 0
27238 -27240 0
-27238 27239 27240 0
27241 -27242 0
27241 -27753 0
-27241 27242 27753 0
27244 -27245 0
27244 -27246 0
-27244 27245 27246 0
27892 -27735 0
27892 -27271 0
-27892 27735 27271 0
27250 -27260 0
27250 -27267 0
-27250 27260 27267 0
27894 -27738 0
27894 -27271 0
-27894 27738 27271 0
27256 -27269 0
27256 -27267 0
-27256 27269 27267 0
27259 -27260 0
27259 -27261 0
-27259 27260 27261 0
27896 -27741 0
27896 -27271 0
-27896 27741 27271 0
27265 -27266 0
27265 -27267 0
-27265 27266 27267 0
27268 -27269 0
27268 -27270 0
-27268 27269 27270 0
27271 -27733 0
27271 -27273 0
-27271 27733 27273 0
27274 27696 0
27274 27288 0
-27274 -27696 -27288 0
27277 27702 0
27277 27288 0
-27277 -27702 -27288 0
27280 27708 0
27280 27288 0
-27280 -27708 -27288 0
27283 27714 0
27283 27288 0
-27283 -27714 -27288 0
27286 27720 0
27286 27288 0
-27286 -27720 -27288 0
27289 27292 0
27289 27291 0
-27289 -27292 -27291 0
27292 27470 0
27292 27294 0
-27292 -27470 -27294 0
27295 27298 0
27295 27297 0
-27295 -27298 -27297 0
27298 27299 0
27298 27300 0
-27298 -27299 -27300 0
27301 27304 0
27301 27303 0
-27301 -27304 -27303 0
27304 27305 0
27304 27306 0
-27304 -27305 -27306 0
27307 27310 0
27307 27309 0
-27307 -27310 -27309 0
27310 27311 0
27310 27312 0
-27310 -27311 -27312 0
27313 27316 0
27313 27315 0
-27313 -27316 -27315 0
27316 27317 0
27316 27318 0
-27316 -27317 -27318 0
27319 27322 0
27319 27321 0
-27319 -27322 -27321 0
27322 27601 0
27322 27324 0
-27322 -27601 -27324 0
27325 27328 0
27325 27327 0
-27325 -27328 -27327 0
27328 27329 0
27328 27330 0
-27328 -27329 -27330 0
27331 27345 0
27331 27333 0
-27331 -27345 -27333 0
27344 27727 0
27344 27336 0
-27344 -27727 -27336 0
27343 27338 0
27343 27381 0
27343 27727 0
-27343 -27338 -27381 -27727 0
27341 27470 0
27341 27343 0
27341 27344 0
-27341 -27470 -27343 -27344 0
27345 27346 0
27345 27347 0
-27345 -27346 -27347 0
27569 27369 0
27569 27350 0
-27569 -27369 -27350 0
27568 27372 0
27568 27353 0
-27568 -27372 -27353 0
27566 27375 0
27566 27356 0
-27566 -27375 -27356 0
27565 27363 0
27565 27359 0
-27565 -27363 -27359 0
27564 27366 0
27564 27362 0
-27564 -27366 -27362 0
27363 27556 0
27363 27365 0
-27363 -27556 -27365 0
27366 27562 0
27366 27368 0
-27366 -27562 -27368 0
27369 27538 0
27369 27371 0
-27369 -27538 -27371 0
27372 27544 0
27372 27374 0
-27372 -27544 -27374 0
27375 27550 0
27375 27377 0
-27375 -27550 -27377 0
27382 27563 0
27382 27567 0
-27382 -27563 -27567 0
27381 27382 0
27381 27470 0
-27381 -27382 -27470 0
27571 27385 0
27571 27386 0
27571 27387 0
27571 27388 0
-27571 -27385 -27386 -27387 -27388 0
27394 27390 0
27394 27391 0
-27394 -27390 -27391 0
27392 27393 0
27392 27394 0
-27392 -27393 -27394 0
27395 27396 0
27395 27465 0
-27395 -27396 -27465 0
27466 27410 0
27466 27400 0
-27466 -27410 -27400 0
27467 27413 0
27467 27403 0
-27467 -27413 -27403 0
27468 27416 0
27468 27406 0
-27468 -27416 -27406 0
27469 27419 0
27469 27409 0
-27469 -27419 -27409 0
27410 27688 0
27410 27668 0
-27410 -27688 -27668 0
27413 27689 0
27413 27674 0
-27413 -27689 -27674 0
27416 27690 0
27416 27680 0
-27416 -27690 -27680 0
27419 27687 0
27419 27686 0
-27419 -27687 -27686 0
27422 27429 0
27422 27432 0
27422 27435 0
-27422 -27429 -27432 -27435 0
27426 27438 0
27426 27441 0
-27426 -27438 -27441 0
27429 27444 0
27429 27431 0
-27429 -27444 -27431 0
27432 27447 0
27432 27434 0
-27432 -27447 -27434 0
27435 27450 0
27435 27437 0
-27435 -27450 -27437 0
27438 27453 0
27438 27440 0
-27438 -27453 -27440 0
27441 27456 0
27441 27443 0
-27441 -27456 -27443 0
27444 27722 0
27444 27696 0
-27444 -27722 -27696 0
27447 27723 0
27447 27702 0
-27447 -27723 -27702 0
27450 27724 0
27450 27708 0
-27450 -27724 -27708 0
27453 27725 0
27453 27714 0
-27453 -27725 -27714 0
27456 27721 0
27456 27720 0
-27456 -27721 -27720 0
27731 27460 0
27731 27461 0
-27731 -27460 -27461 0
27730 27727 0
27730 27464 0
-27730 -27727 -27464 0
27465 27466 0
27465 27467 0
27465 27468 0
27465 27469 0
-27465 -27466 -27467 -27468 -27469 0
27470 27471 0
27470 27472 0
-27470 -27471 -27472 0
-27473 -27476 0
-27473 -27475 0
27473 27476 27475 0
-27476 -27477 0
-27476 -27478 0
27476 27477 27478 0
-27479 -27482 0
-27479 -27481 0
27479 27482 27481 0
-27482 -27483 0
-27482 -27484 0
27482 27483 27484 0
-27485 -27488 0
-27485 -27487 0
27485 27488 27487 0
-27488 -27489 0
-27488 -27490 0
27488 27489 27490 0
-27491 -27494 0
-27491 -27493 0
27491 27494 27493 0
-27494 -27495 0
-27494 -27496 0
27494 27495 27496 0
-27497 -27500 0
-27497 -27499 0
27497 27500 27499 0
-27500 -27501 0
-27500 -27502 0
27500 27501 27502 0
-27503 -27506 0
-27503 -27505 0
27503 27506 27505 0
-27506 -27507 0
-27506 -27508 0
27506 27507 27508 0
-27509 -27512 0
-27509 -27511 0
27509 27512 27511 0
-27512 -27513 0
-27512 -27514 0
27512 27513 27514 0
-27515 -27518 0
-27515 -27517 0
27515 27518 27517 0
-27518 -27519 0
-27518 -27520 0
27518 27519 27520 0
-27521 -27524 0
-27521 -27523 0
27521 27524 27523 0
-27524 -27525 0
-27524 -27526 0
27524 27525 27526 0
-27527 -27530 0
-27527 -27529 0
27527 27530 27529 0
-27530 -27531 0
-27530 -27532 0
27530 27531 27532 0
-27533 -27536 0
-27533 -27535 0
27533 27536 27535 0
-27536 -27570 0
-27536 -27538 0
27536 27570 27538 0
-27539 -27542 0
-27539 -27541 0
27539 27542 27541 0
-27542 -27543 0
-27542 -27544 0
27542 27543 27544 0
-27545 -27548 0
-27545 -27547 0
27545 27548 27547 0
-27548 -27549 0
-27548 -27550 0
27548 27549 27550 0
-27551 -27554 0
-27551 -27553 0
27551 27554 27553 0
-27554 -27555 0
-27554 -27556 0
27554 27555 27556 0
-27557 -27560 0
-27557 -27559 0
27557 27560 27559 0
-27560 -27561 0
-27560 -27562 0
27560 27561 27562 0
-27563 -27564 0
-27563 -27565 0
-27563 -27566 0
27563 27564 27565 27566 0
-27567 -27568 0
-27567 -27569 0
27567 27568 27569 0
-27570 -27571 0
-27570 -27576 0
27570 27571 27576 0
-27578 -27574 0
-27578 -27575 0
27578 27574 27575 0
-27576 -27577 0
-27576 -27578 0
27576 27577 27578 0
-27579 -27582 0
-27579 -27581 0
27579 27582 27581 0
-27582 -27583 0
-27582 -27584 0
27582 27583 27584 0
-27585 -27588 0
-27585 -27587 0
27585 27588 27587 0
-27588 -27589 0
-27588 -27590 0
27588 27589 27590 0
-27591 -27594 0
-27591 -27593 0
27591 27594 27593 0
-27594 -27595 0
-27594 -27596 0
27594 27595 27596 0
-27597 -27600 0
-27597 -27599 0
27597 27600 27599 0
-27600 -27601 0
-27600 -27602 0
27600 27601 27602 0
-27603 -27606 0
-27603 -27605 0
27603 27606 27605 0
-27606 -27607 0
-27606 -27608 0
27606 27607 27608 0
-27609 -27612 0
-27609 -27611 0
27609 27612 27611 0
-27612 -27613 0
-27612 -27614 0
27612 27613 27614 0
-27615 -27618 0
-27615 -27617 0
27615 27618 27617 0
-27618 -27619 0
-27618 -27620 0
27618 27619 27620 0
-27621 -27624 0
-27621 -27623 0
27621 27624 27623 0
-27624 -27625 0
-27624 -27626 0
27624 27625 27626 0
-27627 -27630 0
-27627 -27629 0
27627 27630 27629 0
-27630 -27631 0
-27630 -27632 0
27630 27631 27632 0
-27633 -27636 0
-27633 -27635 0
27633 27636 27635 0
-27636 -27637 0
-27636 -27638 0
27636 27637 27638 0
-27639 -27642 0
-27639 -27641 0
27639 27642 27641 0
-27642 -27643 0
-27642 -27644 0
27642 27643 27644 0
-27645 -27648 0
-27645 -27647 0
27645 27648 27647 0
-27648 -27649 0
-27648 -27650 0
27648 27649 27650 0
-27651 -27652 0
-27651 -27654 0
27651 27652 27654 0
-27654 -27661 0
-27654 -27656 0
27654 27661 27656 0
-27657 -27658 0
-27657 -27660 0
27657 27658 27660 0
-27660 -27661 0
-27660 -27662 0
27660 27661 27662 0
-27663 -27666 0
-27663 -27665 0
27663 27666 27665 0
-27666 -27667 0
-27666 -27668 0
27666 27667 27668 0
-27669 -27672 0
-27669 -27671 0
27669 27672 27671 0
-27672 -27673 0
-27672 -27674 0
27672 27673 27674 0
-27675 -27678 0
-27675 -27677 0
27675 27678 27677 0
-27678 -27679 0
-27678 -27680 0
27678 27679 27680 0
-27681 -27684 0
-27681 -27683 0
27681 27684 27683 0
-27684 -27685 0
-27684 -27686 0
27684 27685 27686 0
-27687 -27688 0
-27687 -27689 0
-27687 -27690 0
27687 27688 27689 27690 0
-27691 -27694 0
-27691 -27693 0
27691 27694 27693 0
-27694 -27695 0
-27694 -27696 0
27694 27695 27696 0
-27697 -27700 0
-27697 -27699 0
27697 27700 27699 0
-27700 -27701 0
-27700 -27702 0
27700 27701 27702 0
-27703 -27706 0
-27703 -27705 0
27703 27706 27705 0
-27706 -27707 0
-27706 -27708 0
27706 27707 27708 0
-27709 -27712 0
-27709 -27711 0
27709 27712 27711 0
-27712 -27713 0
-27712 -27714 0
27712 27713 27714 0
-27715 -27718 0
-27715 -27717 0
27715 27718 27717 0
-27718 -27719 0
-27718 -27720 0
27718 27719 27720 0
-27721 -27722 0
-27721 -27723 0
-27721 -27724 0
-27721 -27725 0
27721 27722 27723 27724 27725 0
-27726 -27727 0
-27726 -27728 0
27726 27727 27728 0
-27729 -27730 0
-27729 -27731 0
27729 27730 27731 0
-27743 -27733 0
-27743 -27734 0
27743 27733 27734 0
-27735 -27736 0
-27735 -27743 0
27735 27736 27743 0
-27738 -27739 0
-27738 -27743 0
27738 27739 27743 0
-27741 -27742 0
-27741 -27743 0
27741 27742 27743 0
-27744 -27745 0
-27744 -27746 0
-27744 -27747 0
-27744 -27748 0
27744 27745 27746 27747 27748 0
-27749 -27750 0
-27749 -27752 0
27749 27750 27752 0
-27752 -27753 0
-27752 -27754 0
27752 27753 27754 0
-27756 29348 0
27756 -29348 0
-27758 29532 0
27758 -29532 0
-27760 27914 0
27760 -27914 0
-27762 29435 0
27762 -29435 0
-27764 29441 0
27764 -29441 0
-27766 27922 0
27766 -27922 0
-27768 29447 0
27768 -29447 0
-27770 27928 0
27770 -27928 0
-27772 29453 0
27772 -29453 0
-27774 29459 0
27774 -29459 0
-27776 29465 0
27776 -29465 0
-27778 29471 0
27778 -29471 0
-27780 28329 0
27780 -28329 0
-27782 28965 0
27782 -28965 0
-27784 27952 0
27784 -27952 0
-27786 29477 0
27786 -29477 0
-27788 29483 0
27788 -29483 0
-27790 27962 0
27790 -27962 0
-27792 27966 0
27792 -27966 0
-27794 29489 0
27794 -29489 0
-27796 29495 0
27796 -29495 0
-27798 29501 0
27798 -29501 0
-27800 29507 0
27800 -29507 0
-27802 29513 0
27802 -29513 0
-27804 29519 0
27804 -29519 0
-27806 29345 0
27806 -29345 0
-27808 29344 0
27808 -29344 0
-27810 29343 0
27810 -29343 0
-27812 29342 0
27812 -29342 0
-27814 29541 0
27814 -29541 0
-27816 29547 0
27816 -29547 0
-27818 29553 0
27818 -29553 0
-27820 29559 0
27820 -29559 0
-27822 29565 0
27822 -29565 0
-27824 29571 0
27824 -29571 0
-27826 29577 0
27826 -29577 0
-27828 29583 0
27828 -29583 0
-27830 29589 0
27830 -29589 0
-27832 29595 0
27832 -29595 0
-27834 29601 0
27834 -29601 0
-27836 29607 0
27836 -29607 0
-27838 28993 0
27838 -28993 0
-27840 29613 0
27840 -29613 0
-27842 28996 0
27842 -28996 0
-27844 29619 0
27844 -29619 0
-27846 29625 0
27846 -29625 0
-27848 29631 0
27848 -29631 0
-27850 29637 0
27850 -29637 0
-27852 29643 0
27852 -29643 0
-27854 29645 0
27854 -29645 0
-27856 29646 0
27856 -29646 0
-27858 29647 0
27858 -29647 0
-27860 29653 0
27860 -29653 0
-27862 29659 0
27862 -29659 0
-27864 29665 0
27864 -29665 0
-27866 29671 0
27866 -29671 0
-27868 29677 0
27868 -29677 0
-27870 29679 0
27870 -29679 0
-27872 29680 0
27872 -29680 0
-27874 29681 0
27874 -29681 0
-27876 29682 0
27876 -29682 0
-27878 29421 0
27878 -29421 0
-27880 29112 0
27880 -29112 0
-27882 29121 0
27882 -29121 0
-27884 29691 0
27884 -29691 0
-27886 29196 0
27886 -29196 0
-27888 29202 0
27888 -29202 0
-27890 29199 0
27890 -29199 0
-27892 28771 0
27892 -28771 0
-27894 28774 0
27894 -28774 0
-27896 27948 0
27896 -27948 0
-27898 28224 0
27898 -28224 0
-27900 29711 0
27900 -29711 0
-27902 28230 0
27902 -28230 0
27906 29349 0
-27906 -29349 0
29713 27906 0
-29713 -27906 0
27910 29533 0
-27910 -29533 0
29715 27910 0
-29715 -27910 0
28248 29230 0
-28248 -29230 0
29251 27914 0
-29251 -27914 0
28251 29230 0
-28251 -29230 0
28257 29230 0
-28257 -29230 0
28263 29230 0
-28263 -29230 0
29257 27922 0
-29257 -27922 0
28266 29230 0
-28266 -29230 0
28284 29230 0
-28284 -29230 0
29263 27928 0
-29263 -27928 0
28287 29230 0
-28287 -29230 0
28293 29230 0
-28293 -29230 0
28299 29230 0
-28299 -29230 0
28305 29230 0
-28305 -29230 0
28311 29230 0
-28311 -29230 0
28332 29230 0
-28332 -29230 0
28331 28965 0
-28331 -28965 0
29269 28329 0
-29269 -28329 0
28838 29223 0
-28838 -29223 0
29223 27948 0
-29223 -27948 0
28338 29230 0
-28338 -29230 0
29275 27952 0
-29275 -27952 0
28341 29230 0
-28341 -29230 0
28347 29230 0
-28347 -29230 0
28379 29483 0
-28379 -29483 0
28359 29230 0
-28359 -29230 0
29281 27962 0
-29281 -27962 0
28362 29230 0
-28362 -29230 0
29287 27966 0
-29287 -27966 0
28365 29230 0
-28365 -29230 0
28395 28417 0
-28395 -28417 0
28401 28417 0
-28401 -28417 0
28407 28417 0
-28407 -28417 0
28413 28417 0
-28413 -28417 0
28422 28417 0
-28422 -28417 0
29295 29339 0
-29295 -29339 0
28452 29230 0
-28452 -29230 0
28909 28927 0
-28909 -28927 0
28458 29230 0
-28458 -29230 0
28915 28927 0
-28915 -28927 0
28464 29230 0
-28464 -29230 0
28921 28927 0
-28921 -28927 0
28470 29230 0
-28470 -29230 0
28930 28927 0
-28930 -28927 0
28942 28972 0
-28942 -28972 0
28948 28972 0
-28948 -28972 0
28954 29226 0
-28954 -29226 0
28960 29226 0
-28960 -29226 0
29226 28774 0
-29226 -28774 0
28966 29217 0
-28966 -29217 0
28975 28972 0
-28975 -28972 0
28494 28976 0
-28494 -28976 0
28500 28976 0
-28500 -28976 0
28506 28976 0
-28506 -28976 0
28522 28979 0
-28522 -28979 0
28528 28979 0
-28528 -28979 0
28534 28979 0
-28534 -28979 0
28546 28982 0
-28546 -28982 0
28552 28982 0
-28552 -28982 0
28558 29230 0
-28558 -29230 0
28573 28985 0
-28573 -28985 0
28579 28985 0
-28579 -28985 0
28585 29230 0
-28585 -29230 0
28606 29230 0
-28606 -29230 0
28609 29230 0
-28609 -29230 0
28621 28996 0
-28621 -28996 0
28615 29230 0
-28615 -29230 0
28624 29619 0
-28624 -29619 0
28618 29230 0
-28618 -29230 0
28623 29181 0
-28623 -29181 0
28628 29352 0
-28628 -29352 0
28634 29352 0
-28634 -29352 0
28640 29352 0
-28640 -29352 0
28646 29352 0
-28646 -29352 0
29353 29230 0
-29353 -29230 0
29005 29017 0
-29005 -29017 0
29011 29017 0
-29011 -29017 0
29020 29017 0
-29020 -29017 0
29026 29035 0
-29026 -29035 0
29032 29035 0
-29032 -29035 0
29038 29035 0
-29038 -29035 0
29035 28993 0
-29035 -28993 0
28679 28731 0
-28679 -28731 0
28685 28731 0
-28685 -28731 0
28691 28731 0
-28691 -28731 0
28697 28731 0
-28697 -28731 0
28703 28731 0
-28703 -28731 0
29065 29122 0
-29065 -29122 0
29071 29122 0
-29071 -29122 0
29077 29122 0
-29077 -29122 0
29083 29122 0
-29083 -29122 0
28736 28731 0
-28736 -28731 0
28739 29683 0
-28739 -29683 0
29245 29688 0
-29245 -29688 0
29109 29107 0
-29109 -29107 0
29116 29122 0
-29116 -29122 0
29125 29122 0
-29125 -29122 0
29133 29613 0
-29133 -29613 0
29618 29422 0
-29618 -29422 0
29131 29217 0
-29131 -29217 0
29137 29217 0
-29137 -29217 0
29143 29217 0
-29143 -29217 0
29149 29217 0
-29149 -29217 0
29155 29217 0
-29155 -29217 0
29161 29217 0
-29161 -29217 0
29167 29217 0
-29167 -29217 0
29173 29217 0
-29173 -29217 0
29179 29217 0
-29179 -29217 0
29185 29217 0
-29185 -29217 0
29217 28771 0
-29217 -28771 0
28778 29230 0
-28778 -29230 0
29690 28777 0
-29690 -28777 0
28136 28134 0
-28136 -28134 0
28777 28136 0
-28777 -28136 0
29190 29711 0
-29190 -29711 0
28781 29230 0
-28781 -29230 0
29191 29710 0
-29191 -29710 0
28787 29230 0
-28787 -29230 0
29197 29710 0
-29197 -29710 0
28793 29230 0
-28793 -29230 0
29203 29710 0
-29203 -29710 0
28154 28152 0
-28154 -28152 0
29710 28154 0
-29710 -28154 0
28799 29224 0
-28799 -29224 0
29218 29224 0
-29218 -29224 0
29227 29224 0
-29227 -29224 0
28164 28162 0
-28164 -28162 0
29224 28164 0
-29224 -28164 0
28178 28166 0
-28178 -28166 0
28167 28178 0
-28167 -28178 0
28808 29230 0
-28808 -29230 0
28811 29230 0
-28811 -29230 0
28817 29230 0
-28817 -29230 0
29230 28176 0
-29230 -28176 0
28936 28178 0
-28936 -28178 0
28182 28180 0
-28182 -28180 0
29130 28182 0
-29130 -28182 0
28186 28184 0
-28186 -28184 0
29142 28186 0
-29142 -28186 0
28190 28188 0
-28190 -28188 0
29136 28190 0
-29136 -28190 0
28194 28192 0
-28194 -28192 0
29148 28194 0
-29148 -28194 0
28198 28196 0
-28198 -28196 0
28908 28198 0
-28908 -28198 0
28202 28200 0
-28202 -28200 0
29154 28202 0
-29154 -28202 0
28206 28204 0
-28206 -28204 0
29160 28206 0
-29160 -28206 0
28210 28208 0
-28210 -28208 0
29166 28210 0
-29166 -28210 0
28214 28212 0
-28214 -28212 0
29172 28214 0
-29172 -28214 0
28218 28216 0
-28218 -28216 0
29178 28218 0
-29178 -28218 0
28222 28220 0
-28222 -28220 0
29184 28222 0
-29184 -28222 0
28223 28224 0
-28223 -28224 0
28228 28226 0
-28228 -28226 0
28625 28228 0
-28625 -28228 0
28229 28230 0
-28229 -28230 0
-29328 29150 0
-29328 29153 0
29328 -29150 -29153 0
-29331 29156 0
-29331 29159 0
29331 -29156 -29159 0
-29334 29162 0
-29334 29165 0
29334 -29162 -29165 0
-29322 29168 0
-29322 29171 0
29322 -29168 -29171 0
-29325 29174 0
-29325 29177 0
29325 -29174 -29177 0
-29717 29246 0
-29717 28248 0
29717 -29246 -28248 0
-29719 29430 0
-29719 28251 0
29719 -29430 -28251 0
-29432 29434 0
-29432 29435 0
29432 -29434 -29435 0
-29721 29436 0
-29721 28257 0
29721 -29436 -28257 0
-29438 29440 0
-29438 29441 0
29438 -29440 -29441 0
-29723 29252 0
-29723 28263 0
29723 -29252 -28263 0
-29725 29442 0
-29725 28266 0
29725 -29442 -28266 0
-29444 29446 0
-29444 29447 0
29444 -29446 -29447 0
-29434 29427 0
-29434 29251 0
29434 -29427 -29251 0
-29440 29434 0
-29440 29435 0
29440 -29434 -29435 0
-29256 29440 0
-29256 29441 0
29256 -29440 -29441 0
-29446 29256 0
-29446 29257 0
29446 -29256 -29257 0
-29727 29258 0
-29727 28284 0
29727 -29258 -28284 0
-29729 29448 0
-29729 28287 0
29729 -29448 -28287 0
-29450 29452 0
-29450 29453 0
29450 -29452 -29453 0
-29731 29454 0
-29731 28293 0
29731 -29454 -28293 0
-29456 29458 0
-29456 29459 0
29456 -29458 -29459 0
-29733 29460 0
-29733 28299 0
29733 -29460 -28299 0
-29462 29464 0
-29462 29465 0
29462 -29464 -29465 0
-29735 29466 0
-29735 28305 0
29735 -29466 -28305 0
-29468 29470 0
-29468 29471 0
29468 -29470 -29471 0
-29737 29264 0
-29737 28311 0
29737 -29264 -28311 0
-29452 29262 0
-29452 29263 0
29452 -29262 -29263 0
-29458 29452 0
-29458 29453 0
29458 -29452 -29453 0
-29464 29458 0
-29464 29459 0
29464 -29458 -29459 0
-29470 29464 0
-29470 29465 0
29470 -29464 -29465 0
-29268 29470 0
-29268 29471 0
29268 -29470 -29471 0
-28844 29268 0
-28844 28329 0
28844 -29268 -28329 0
-29739 28331 0
-29739 28332 0
29739 -28331 -28332 0
-28947 28833 0
-28947 28836 0
28947 -28833 -28836 0
-29741 29270 0
-29741 28338 0
29741 -29270 -28338 0
-29743 29472 0
-29743 28341 0
29743 -29472 -28341 0
-29474 29476 0
-29474 29477 0
29474 -29476 -29477 0
-29745 29478 0
-29745 28347 0
29745 -29478 -28347 0
-29480 29482 0
-29480 29483 0
29480 -29482 -29483 0
-29476 29274 0
-29476 29275 0
29476 -29274 -29275 0
-29482 29476 0
-29482 29477 0
29482 -29476 -29477 0
-29747 29276 0
-29747 28359 0
29747 -29276 -28359 0
-29749 29282 0
-29749 28362 0
29749 -29282 -28362 0
-29751 29484 0
-29751 28365 0
29751 -29484 -28365 0
-29486 29488 0
-29486 29489 0
29486 -29488 -29489 0
-29286 29558 0
-29286 29281 0
29286 -29558 -29281 0
-29488 29286 0
-29488 29287 0
29488 -29286 -29287 0
-28938 29482 0
-28938 29483 0
28938 -29482 -29483 0
-28971 28379 0
-28971 29482 0
28971 -28379 -29482 0
-28832 29446 0
-28832 29447 0
28832 -29446 -29447 0
-28841 29268 0
-28841 29269 0
28841 -29268 -29269 0
-29053 29488 0
-29053 29489 0
29053 -29488 -29489 0
-28950 29606 0
-28950 29607 0
28950 -29606 -29607 0
-29753 29490 0
-29753 28395 0
29753 -29490 -28395 0
-29492 29527 0
-29492 29495 0
29492 -29527 -29495 0
-29755 29496 0
-29755 28401 0
29755 -29496 -28401 0
-29498 29500 0
-29498 29501 0
29498 -29500 -29501 0
-29757 29502 0
-29757 28407 0
29757 -29502 -28407 0
-29504 29506 0
-29504 29507 0
29504 -29506 -29507 0
-29759 29508 0
-29759 28413 0
29759 -29508 -28413 0
-29510 29512 0
-29510 29513 0
29510 -29512 -29513 0
-28417 29138 0
-28417 29141 0
28417 -29138 -29141 0
-29761 29514 0
-29761 28422 0
29761 -29514 -28422 0
-29516 29518 0
-29516 29519 0
29516 -29518 -29519 0
-29500 29527 0
-29500 29495 0
29500 -29527 -29495 0
-29506 29500 0
-29506 29501 0
29506 -29500 -29501 0
-29512 29506 0
-29512 29507 0
29512 -29506 -29507 0
-29518 29512 0
-29518 29513 0
29518 -29512 -29513 0
-28865 28857 0
-28865 29526 0
28865 -28857 -29526 0
-28871 28860 0
-28871 28863 0
28871 -28860 -28863 0
-28877 28866 0
-28877 28869 0
28877 -28866 -28869 0
-28883 28872 0
-28883 28875 0
28883 -28872 -28875 0
-29763 28453 0
-29763 28452 0
29763 -28453 -28452 0
-28453 28904 0
-28453 28907 0
28453 -28904 -28907 0
-29765 28459 0
-29765 28458 0
29765 -28459 -28458 0
-28459 28910 0
-28459 28913 0
28459 -28910 -28913 0
-29767 28465 0
-29767 28464 0
29767 -28465 -28464 0
-28465 28916 0
-28465 28919 0
28465 -28916 -28919 0
-29769 28471 0
-29769 28470 0
29769 -28471 -28470 0
-28471 28925 0
-28471 28928 0
28471 -28925 -28928 0
-29534 29351 0
-29534 28936 0
29534 -29351 -28936 0
-29531 29349 0
-29531 28936 0
29531 -29349 -28936 0
-29576 28937 0
-29576 28940 0
29576 -28937 -28940 0
-28989 28949 0
-28989 28952 0
28989 -28949 -28952 0
-28962 28955 0
-28962 28958 0
28962 -28955 -28958 0
-29594 29540 0
-29594 29553 0
29594 -29540 -29553 0
-29771 29536 0
-29771 28494 0
29771 -29536 -28494 0
-29538 29540 0
-29538 29541 0
29538 -29540 -29541 0
-29773 29542 0
-29773 28500 0
29773 -29542 -28500 0
-29544 29546 0
-29544 29547 0
29544 -29546 -29547 0
-29775 29548 0
-29775 28506 0
29775 -29548 -28506 0
-29550 29552 0
-29550 29553 0
29550 -29552 -29553 0
-29546 29540 0
-29546 29541 0
29546 -29540 -29541 0
-29552 29546 0
-29552 29547 0
29552 -29546 -29547 0
-28981 29558 0
-28981 29559 0
-28981 29571 0
28981 -29558 -29559 -29571 0
-29777 29554 0
-29777 28522 0
29777 -29554 -28522 0
-29556 29558 0
-29556 29559 0
29556 -29558 -29559 0
-29779 29560 0
-29779 28528 0
29779 -29560 -28528 0
-29562 29564 0
-29562 29565 0
29562 -29564 -29565 0
-29781 29566 0
-29781 28534 0
29781 -29566 -28534 0
-29568 29570 0
-29568 29571 0
29568 -29570 -29571 0
-29564 29558 0
-29564 29559 0
29564 -29558 -29559 0
-29570 29564 0
-29570 29565 0
29570 -29564 -29565 0
-29783 29572 0
-29783 28546 0
29783 -29572 -28546 0
-29574 29576 0
-29574 29577 0
29574 -29576 -29577 0
-29785 29578 0
-29785 28552 0
29785 -29578 -28552 0
-29580 29582 0
-29580 29583 0
29580 -29582 -29583 0
-29787 29584 0
-29787 28558 0
29787 -29584 -28558 0
-29586 29588 0
-29586 29589 0
29586 -29588 -29589 0
-29582 29576 0
-29582 29577 0
29582 -29576 -29577 0
-29588 29576 0
-29588 29583 0
29588 -29576 -29583 0
-29056 29588 0
-29056 29589 0
29056 -29588 -29589 0
-29789 29590 0
-29789 28573 0
29789 -29590 -28573 0
-29592 29594 0
-29592 29595 0
29592 -29594 -29595 0
-29791 29596 0
-29791 28579 0
29791 -29596 -28579 0
-29598 29600 0
-29598 29601 0
29598 -29600 -29601 0
-29793 29602 0
-29793 28585 0
29793 -29602 -28585 0
-29604 29606 0
-29604 29607 0
29604 -29606 -29607 0
-29600 29594 0
-29600 29595 0
29600 -29594 -29595 0
-29606 29594 0
-29606 29601 0
29606 -29594 -29601 0
-28744 28970 0
-28744 28973 0
28744 -28970 -28973 0
-29684 28943 0
-29684 28946 0
29684 -28943 -28946 0
-29304 28961 0
-29304 28964 0
29304 -28961 -28964 0
-29795 28991 0
-29795 28606 0
29795 -28991 -28606 0
-29797 29608 0
-29797 28609 0
29797 -29608 -28609 0
-29609 29618 0
-29609 29035 0
29609 -29618 -29035 0
-29799 28994 0
-29799 28615 0
29799 -28994 -28615 0
-29801 29614 0
-29801 28618 0
29801 -29614 -28618 0
-29615 29618 0
-29615 28621 0
29615 -29618 -28621 0
-29127 28623 0
-29127 28624 0
-29127 28625 0
29127 -28623 -28624 -28625 0
-29803 29620 0
-29803 28628 0
29803 -29620 -28628 0
-29622 29624 0
-29622 29625 0
29622 -29624 -29625 0
-29805 29626 0
-29805 28634 0
29805 -29626 -28634 0
-29628 29630 0
-29628 29631 0
29628 -29630 -29631 0
-29807 29632 0
-29807 28640 0
29807 -29632 -28640 0
-29634 29636 0
-29634 29637 0
29634 -29636 -29637 0
-29809 29638 0
-29809 28646 0
29809 -29638 -28646 0
-29640 29642 0
-29640 29643 0
29640 -29642 -29643 0
-29630 29624 0
-29630 29625 0
29630 -29624 -29625 0
-29636 29630 0
-29636 29631 0
29636 -29630 -29631 0
-29642 29636 0
-29642 29637 0
29642 -29636 -29637 0
-29004 29021 0
-29004 29024 0
29004 -29021 -29024 0
-29010 29027 0
-29010 29030 0
29010 -29027 -29030 0
-29019 29033 0
-29019 29036 0
29019 -29033 -29036 0
-29811 29000 0
-29811 29003 0
29811 -29000 -29003 0
-29813 29006 0
-29813 29009 0
29813 -29006 -29009 0
-29815 29015 0
-29815 29018 0
29815 -29015 -29018 0
-29817 29648 0
-29817 28679 0
29817 -29648 -28679 0
-29650 29652 0
-29650 29653 0
29650 -29652 -29653 0
-29819 29654 0
-29819 28685 0
29819 -29654 -28685 0
-29656 29658 0
-29656 29659 0
29656 -29658 -29659 0
-29821 29660 0
-29821 28691 0
29821 -29660 -28691 0
-29662 29664 0
-29662 29665 0
29662 -29664 -29665 0
-29823 29666 0
-29823 28697 0
29823 -29666 -28697 0
-29668 29670 0
-29668 29671 0
29668 -29670 -29671 0
-29825 29672 0
-29825 28703 0
29825 -29672 -28703 0
-29674 29676 0
-29674 29677 0
29674 -29676 -29677 0
-29658 29652 0
-29658 29653 0
29658 -29652 -29653 0
-29664 29658 0
-29664 29659 0
29664 -29658 -29659 0
-29670 29664 0
-29670 29665 0
29670 -29664 -29665 0
-29676 29670 0
-29676 29671 0
29676 -29670 -29671 0
-29827 29060 0
-29827 29063 0
29827 -29060 -29063 0
-29829 29066 0
-29829 29069 0
29829 -29066 -29069 0
-29831 29072 0
-29831 29075 0
29831 -29072 -29075 0
-29833 29078 0
-29833 29081 0
29833 -29078 -29081 0
-28731 29144 0
-28731 29147 0
28731 -29144 -29147 0
-29835 29099 0
-29835 28736 0
29835 -29099 -28736 0
-29100 29102 0
-29100 28739 0
29100 -29102 -28739 0
-29107 29132 0
-29107 29135 0
29107 -29132 -29135 0
-29652 28744 0
-29652 29685 0
29652 -28744 -29685 0
-29837 29111 0
-29837 29114 0
29837 -29111 -29114 0
-29839 29120 0
-29839 29123 0
29839 -29120 -29123 0
-29293 29180 0
-29293 29183 0
29293 -29180 -29183 0
-29303 29126 0
-29303 29129 0
29303 -29126 -29129 0
-29702 28832 0
-29702 29190 0
29702 -28832 -29190 0
-29703 28841 0
-29703 29196 0
29703 -28841 -29196 0
-29704 29053 0
-29704 29202 0
29704 -29053 -29202 0
-29705 28950 0
-29705 29199 0
29705 -28950 -29199 0
-29013 28771 0
-29013 29352 0
29013 -28771 -29352 0
-29118 28774 0
-29118 29352 0
29118 -28774 -29352 0
-29841 28777 0
-29841 28778 0
29841 -28777 -28778 0
-29843 28782 0
-29843 28781 0
29843 -28782 -28781 0
-28782 29186 0
-28782 29189 0
28782 -29186 -29189 0
-29845 28788 0
-29845 28787 0
29845 -28788 -28787 0
-28788 29192 0
-28788 29195 0
28788 -29192 -29195 0
-29847 28794 0
-29847 28793 0
29847 -28794 -28793 0
-28794 29198 0
-28794 29201 0
28794 -29198 -29201 0
-29693 29207 0
-29693 28799 0
29693 -29207 -28799 0
-29696 29213 0
-29696 29216 0
29696 -29213 -29216 0
-29699 29222 0
-29699 29225 0
29699 -29222 -29225 0
-29855 29288 0
-29855 28808 0
29855 -29288 -28808 0
-29857 29706 0
-29857 28811 0
29857 -29706 -28811 0
-29707 29710 0
-29707 29199 0
29707 -29710 -29199 0
-29859 29686 0
-29859 28817 0
29859 -29686 -28817 0
29248 -29427 0
29248 -29251 0
-29248 29427 29251 0
29254 -29256 0
29254 -29257 0
-29254 29256 29257 0
29260 -29262 0
29260 -29263 0
-29260 29262 29263 0
29266 -29268 0
29266 -29269 0
-29266 29268 29269 0
29262 -29223 0
29262 -28832 0
-29262 29223 28832 0
28833 -29269 0
28833 -29223 0
-28833 29269 29223 0
28836 -28965 0
28836 -28838 0
-28836 28965 28838 0
29558 -29223 0
29558 -28841 0
-29558 29223 28841 0
28974 -29223 0
28974 -28844 0
-28974 29223 28844 0
29272 -29274 0
29272 -29275 0
-29272 29274 29275 0
29278 -29558 0
29278 -29281 0
-29278 29558 29281 0
29284 -29286 0
29284 -29287 0
-29284 29286 29287 0
29290 -29303 0
29290 -29298 0
-29290 29303 29298 0
28857 -29328 0
28857 -29495 0
-28857 29328 29495 0
28860 -29331 0
28860 -29501 0
-28860 29331 29501 0
28863 -29525 0
28863 -28865 0
-28863 29525 28865 0
28866 -29334 0
28866 -29507 0
-28866 29334 29507 0
28869 -29523 0
28869 -28871 0
-28869 29523 28871 0
28872 -29322 0
28872 -29513 0
-28872 29322 29513 0
28875 -29522 0
28875 -28877 0
-28875 29522 28877 0
29428 -29325 0
29428 -29519 0
-29428 29325 29519 0
29429 -29521 0
29429 -28883 0
-29429 29521 28883 0
29307 -29495 0
29307 -29328 0
-29307 29495 29328 0
29310 -29501 0
29310 -29331 0
-29310 29501 29331 0
29313 -29507 0
29313 -29334 0
-29313 29507 29334 0
29316 -29513 0
29316 -29322 0
-29316 29513 29322 0
29319 -29519 0
29319 -29325 0
-29319 29519 29325 0
28932 -29342 0
28932 -29343 0
28932 -29344 0
28932 -29345 0
-28932 29342 29343 29344 29345 0
28904 -29345 0
28904 -28927 0
-28904 29345 28927 0
28907 -28908 0
28907 -28909 0
-28907 28908 28909 0
28910 -29344 0
28910 -28927 0
-28910 29344 28927 0
28913 -29345 0
28913 -28915 0
-28913 29345 28915 0
28916 -29343 0
28916 -28927 0
-28916 29343 28927 0
28919 -29344 0
28919 -28921 0
-28919 29344 28921 0
28927 -28981 0
28927 -29226 0
-28927 28981 29226 0
28925 -29342 0
28925 -28927 0
-28925 29342 28927 0
28928 -29343 0
28928 -28930 0
-28928 29343 28930 0
29347 -28932 0
29347 -28936 0
-29347 28932 28936 0
29350 -29528 0
29350 -28936 0
-29350 29528 28936 0
28937 -28938 0
28937 -28972 0
-28937 28938 28972 0
28940 -29558 0
28940 -28942 0
-28940 29558 28942 0
28943 -29483 0
28943 -28972 0
-28943 29483 28972 0
28946 -28947 0
28946 -28948 0
-28946 28947 28948 0
28949 -28950 0
28949 -29226 0
-28949 28950 29226 0
28952 -29056 0
28952 -28954 0
-28952 29056 28954 0
28955 -29607 0
28955 -29226 0
-28955 29607 29226 0
28958 -29589 0
28958 -28960 0
-28958 29589 28960 0
28961 -28962 0
28961 -29217 0
-28961 28962 29217 0
28964 -28965 0
28964 -28966 0
-28964 28965 28966 0
28972 -29127 0
28972 -29217 0
-28972 29127 29217 0
28970 -28971 0
28970 -28972 0
-28970 28971 28972 0
28973 -28974 0
28973 -28975 0
-28973 28974 28975 0
28976 -29230 0
28976 -29594 0
-28976 29230 29594 0
28979 -29230 0
28979 -28981 0
-28979 29230 28981 0
28982 -29230 0
28982 -29588 0
-28982 29230 29588 0
28985 -29230 0
28985 -29606 0
-28985 29230 29606 0
29624 -28989 0
29624 -29217 0
-29624 28989 29217 0
28991 -29684 0
28991 -28993 0
-28991 29684 28993 0
28994 -29618 0
28994 -28996 0
-28994 29618 28996 0
29181 -29421 0
29181 -29685 0
-29181 29421 29685 0
29000 -29645 0
29000 -29017 0
-29000 29645 29017 0
29003 -29004 0
29003 -29005 0
-29003 29004 29005 0
29006 -29646 0
29006 -29017 0
-29006 29646 29017 0
29009 -29010 0
29009 -29011 0
-29009 29010 29011 0
29017 -29013 0
29017 -29230 0
-29017 29013 29230 0
29015 -29647 0
29015 -29017 0
-29015 29647 29017 0
29018 -29019 0
29018 -29020 0
-29018 29019 29020 0
29021 -29172 0
29021 -29035 0
-29021 29172 29035 0
29024 -29154 0
29024 -29026 0
-29024 29154 29026 0
29027 -29178 0
29027 -29035 0
-29027 29178 29035 0
29030 -29160 0
29030 -29032 0
-29030 29160 29032 0
29033 -29184 0
29033 -29035 0
-29033 29184 29035 0
29036 -29166 0
29036 -29038 0
-29036 29166 29038 0
29357 -29645 0
29357 -29625 0
-29357 29645 29625 0
29360 -29646 0
29360 -29631 0
-29360 29646 29631 0
29363 -29647 0
29363 -29637 0
-29363 29647 29637 0
29366 -29644 0
29366 -29643 0
-29366 29644 29643 0
29274 -29226 0
29274 -29053 0
-29274 29226 29053 0
29540 -29226 0
29540 -29056 0
-29540 29226 29056 0
29685 -29379 0
29685 -29383 0
-29685 29379 29383 0
29060 -29679 0
29060 -29122 0
-29060 29679 29122 0
29063 -29130 0
29063 -29065 0
-29063 29130 29065 0
29066 -29680 0
29066 -29122 0
-29066 29680 29122 0
29069 -29142 0
29069 -29071 0
-29069 29142 29071 0
29072 -29681 0
29072 -29122 0
-29072 29681 29122 0
29075 -29136 0
29075 -29077 0
-29075 29136 29077 0
29078 -29682 0
29078 -29122 0
-29078 29682 29122 0
29081 -29148 0
29081 -29083 0
-29081 29148 29083 0
29388 -29679 0
29388 -29653 0
-29388 29679 29653 0
29391 -29680 0
29391 -29659 0
-29391 29680 29659 0
29394 -29681 0
29394 -29665 0
-29394 29681 29665 0
29397 -29682 0
29397 -29671 0
-29397 29682 29671 0
29400 -29678 0
29400 -29677 0
-29400 29678 29677 0
29099 -29100 0
29099 -29652 0
-29099 29100 29652 0
29102 -29421 0
29102 -29683 0
-29102 29421 29683 0
29417 -29121 0
29417 -29107 0
-29417 29121 29107 0
29418 -29109 0
29418 -29112 0
-29418 29109 29112 0
29111 -29112 0
29111 -29122 0
-29111 29112 29122 0
29114 -29224 0
29114 -29116 0
-29114 29224 29116 0
29122 -29118 0
29122 -29230 0
-29122 29118 29230 0
29120 -29121 0
29120 -29122 0
-29120 29121 29122 0
29123 -29710 0
29123 -29125 0
-29123 29710 29125 0
29126 -29127 0
29126 -29217 0
-29126 29127 29217 0
29129 -29130 0
29129 -29131 0
-29129 29130 29131 0
29132 -29133 0
29132 -29217 0
-29132 29133 29217 0
29135 -29136 0
29135 -29137 0
-29135 29136 29137 0
29138 -29352 0
29138 -29217 0
-29138 29352 29217 0
29141 -29142 0
29141 -29143 0
-29141 29142 29143 0
29144 -29352 0
29144 -29217 0
-29144 29352 29217 0
29147 -29148 0
29147 -29149 0
-29147 29148 29149 0
29150 -29231 0
29150 -29217 0
-29150 29231 29217 0
29153 -29154 0
29153 -29155 0
-29153 29154 29155 0
29156 -29234 0
29156 -29217 0
-29156 29234 29217 0
29159 -29160 0
29159 -29161 0
-29159 29160 29161 0
29162 -29237 0
29162 -29217 0
-29162 29237 29217 0
29165 -29166 0
29165 -29167 0
-29165 29166 29167 0
29168 -29240 0
29168 -29217 0
-29168 29240 29217 0
29171 -29172 0
29171 -29173 0
-29171 29172 29173 0
29174 -29243 0
29174 -29217 0
-29174 29243 29217 0
29177 -29178 0
29177 -29179 0
-29177 29178 29179 0
29180 -29181 0
29180 -29217 0
-29180 29181 29217 0
29183 -29184 0
29183 -29185 0
-29183 29184 29185 0
29186 -29196 0
29186 -29710 0
-29186 29196 29710 0
29189 -29190 0
29189 -29191 0
-29189 29190 29191 0
29192 -29202 0
29192 -29710 0
-29192 29202 29710 0
29195 -29196 0
29195 -29197 0
-29195 29196 29197 0
29198 -29199 0
29198 -29710 0
-29198 29199 29710 0
29201 -29202 0
29201 -29203 0
-29201 29202 29203 0
29849 -29692 0
29849 -29228 0
-29849 29692 29228 0
29207 -29217 0
29207 -29224 0
-29207 29217 29224 0
29851 -29695 0
29851 -29228 0
-29851 29695 29228 0
29213 -29226 0
29213 -29224 0
-29213 29226 29224 0
29216 -29217 0
29216 -29218 0
-29216 29217 29218 0
29853 -29698 0
29853 -29228 0
-29853 29698 29228 0
29222 -29223 0
29222 -29224 0
-29222 29223 29224 0
29225 -29226 0
29225 -29227 0
-29225 29226 29227 0
29228 -29690 0
29228 -29230 0
-29228 29690 29230 0
29231 29653 0
29231 29245 0
-29231 -29653 -29245 0
29234 29659 0
29234 29245 0
-29234 -29659 -29245 0
29237 29665 0
29237 29245 0
-29237 -29665 -29245 0
29240 29671 0
29240 29245 0
-29240 -29671 -29245 0
29243 29677 0
29243 29245 0
-29243 -29677 -29245 0
29246 29249 0
29246 29248 0
-29246 -29249 -29248 0
29249 29427 0
29249 29251 0
-29249 -29427 -29251 0
29252 29255 0
29252 29254 0
-29252 -29255 -29254 0
29255 29256 0
29255 29257 0
-29255 -29256 -29257 0
29258 29261 0
29258 29260 0
-29258 -29261 -29260 0
29261 29262 0
29261 29263 0
-29261 -29262 -29263 0
29264 29267 0
29264 29266 0
-29264 -29267 -29266 0
29267 29268 0
29267 29269 0
-29267 -29268 -29269 0
29270 29273 0
29270 29272 0
-29270 -29273 -29272 0
29273 29274 0
29273 29275 0
-29273 -29274 -29275 0
29276 29279 0
29276 29278 0
-29276 -29279 -29278 0
29279 29558 0
29279 29281 0
-29279 -29558 -29281 0
29282 29285 0
29282 29284 0
-29282 -29285 -29284 0
29285 29286 0
29285 29287 0
-29285 -29286 -29287 0
29288 29302 0
29288 29290 0
-29288 -29302 -29290 0
29301 29684 0
29301 29293 0
-29301 -29684 -29293 0
29300 29295 0
29300 29338 0
29300 29684 0
-29300 -29295 -29338 -29684 0
29298 29427 0
29298 29300 0
29298 29301 0
-29298 -29427 -29300 -29301 0
29302 29303 0
29302 29304 0
-29302 -29303 -29304 0
29526 29326 0
29526 29307 0
-29526 -29326 -29307 0
29525 29329 0
29525 29310 0
-29525 -29329 -29310 0
29523 29332 0
29523 29313 0
-29523 -29332 -29313 0
29522 29320 0
29522 29316 0
-29522 -29320 -29316 0
29521 29323 0
29521 29319 0
-29521 -29323 -29319 0
29320 29513 0
29320 29322 0
-29320 -29513 -29322 0
29323 29519 0
29323 29325 0
-29323 -29519 -29325 0
29326 29495 0
29326 29328 0
-29326 -29495 -29328 0
29329 29501 0
29329 29331 0
-29329 -29501 -29331 0
29332 29507 0
29332 29334 0
-29332 -29507 -29334 0
29339 29520 0
29339 29524 0
-29339 -29520 -29524 0
29338 29339 0
29338 29427 0
-29338 -29339 -29427 0
29528 29342 0
29528 29343 0
29528 29344 0
29528 29345 0
-29528 -29342 -29343 -29344 -29345 0
29351 29347 0
29351 29348 0
-29351 -29347 -29348 0
29349 29350 0
29349 29351 0
-29349 -29350 -29351 0
29352 29353 0
29352 29422 0
-29352 -29353 -29422 0
29423 29367 0
29423 29357 0
-29423 -29367 -29357 0
29424 29370 0
29424 29360 0
-29424 -29370 -29360 0
29425 29373 0
29425 29363 0
-29425 -29373 -29363 0
29426 29376 0
29426 29366 0
-29426 -29376 -29366 0
29367 29645 0
29367 29625 0
-29367 -29645 -29625 0
29370 29646 0
29370 29631 0
-29370 -29646 -29631 0
29373 29647 0
29373 29637 0
-29373 -29647 -29637 0
29376 29644 0
29376 29643 0
-29376 -29644 -29643 0
29379 29386 0
29379 29389 0
29379 29392 0
-29379 -29386 -29389 -29392 0
29383 29395 0
29383 29398 0
-29383 -29395 -29398 0
29386 29401 0
29386 29388 0
-29386 -29401 -29388 0
29389 29404 0
29389 29391 0
-29389 -29404 -29391 0
29392 29407 0
29392 29394 0
-29392 -29407 -29394 0
29395 29410 0
29395 29397 0
-29395 -29410 -29397 0
29398 29413 0
29398 29400 0
-29398 -29413 -29400 0
29401 29679 0
29401 29653 0
-29401 -29679 -29653 0
29404 29680 0
29404 29659 0
-29404 -29680 -29659 0
29407 29681 0
29407 29665 0
-29407 -29681 -29665 0
29410 29682 0
29410 29671 0
-29410 -29682 -29671 0
29413 29678 0
29413 29677 0
-29413 -29678 -29677 0
29688 29417 0
29688 29418 0
-29688 -29417 -29418 0
29687 29684 0
29687 29421 0
-29687 -29684 -29421 0
29422 29423 0
29422 29424 0
29422 29425 0
29422 29426 0
-29422 -29423 -29424 -29425 -29426 0
29427 29428 0
29427 29429 0
-29427 -29428 -29429 0
-29430 -29433 0
-29430 -29432 0
29430 29433 29432 0
-29433 -29434 0
-29433 -29435 0
29433 29434 29435 0
-29436 -29439 0
-29436 -29438 0
29436 29439 29438 0
-29439 -29440 0
-29439 -29441 0
29439 29440 29441 0
-29442 -29445 0
-29442 -29444 0
29442 29445 29444 0
-29445 -29446 0
-29445 -29447 0
29445 29446 29447 0
-29448 -29451 0
-29448 -29450 0
29448 29451 29450 0
-29451 -29452 0
-29451 -29453 0
29451 29452 29453 0
-29454 -29457 0
-29454 -29456 0
29454 29457 29456 0
-29457 -29458 0
-29457 -29459 0
29457 29458 29459 0
-29460 -29463 0
-29460 -29462 0
29460 29463 29462 0
-29463 -29464 0
-29463 -29465 0
29463 29464 29465 0
-29466 -29469 0
-29466 -29468 0
29466 29469 29468 0
-29469 -29470 0
-29469 -29471 0
29469 29470 29471 0
-29472 -29475 0
-29472 -29474 0
29472 29475 29474 0
-29475 -29476 0
-29475 -29477 0
29475 29476 29477 0
-29478 -29481 0
-29478 -29480 0
29478 29481 29480 0
-29481 -29482 0
-29481 -29483 0
29481 29482 29483 0
-29484 -29487 0
-29484 -29486 0
29484 29487 29486 0
-29487 -29488 0
-29487 -29489 0
29487 29488 29489 0
-29490 -29493 0
-29490 -29492 0
29490 29493 29492 0
-29493 -29527 0
-29493 -29495 0
29493 29527 29495 0
-29496 -29499 0
-29496 -29498 0
29496 29499 29498 0
-29499 -29500 0
-29499 -29501 0
29499 29500 29501 0
-29502 -29505 0
-29502 -29504 0
29502 29505 29504 0
-29505 -29506 0
-29505 -29507 0
29505 29506 29507 0
-29508 -29511 0
-29508 -29510 0
29508 29511 29510 0
-29511 -29512 0
-29511 -29513 0
29511 29512 29513 0
-29514 -29517 0
-29514 -29516 0
29514 29517 29516 0
-29517 -29518 0
-29517 -29519 0
29517 29518 29519 0
-29520 -29521 0
-29520 -29522 0
-29520 -29523 0
29520 29521 29522 29523 0
-29524 -29525 0
-29524 -29526 0
29524 29525 29526 0
-29527 -29528 0
-29527 -29533 0
29527 29528 29533 0
-29535 -29531 0
-29535 -29532 0
29535 29531 29532 0
-29533 -29534 0
-29533 -29535 0
29533 29534 29535 0
-29536 -29539 0
-29536 -29538 0
29536 29539 29538 0
-29539 -29540 0
-29539 -29541 0
29539 29540 29541 0
-29542 -29545 0
-29542 -29544 0
29542 29545 29544 0
-29545 -29546 0
-29545 -29547 0
29545 29546 29547 0
-29548 -29551 0
-29548 -29550 0
29548 29551 29550 0
-29551 -29552 0
-29551 -29553 0
29551 29552 29553 0
-29554 -29557 0
-29554 -29556 0
29554 29557 29556 0
-29557 -29558 0
-29557 -29559 0
29557 29558 29559 0
-29560 -29563 0
-29560 -29562 0
29560 29563 29562 0
-29563 -29564 0
-29563 -29565 0
29563 29564 29565 0
-29566 -29569 0
-29566 -29568 0
29566 29569 29568 0
-29569 -29570 0
-29569 -29571 0
29569 29570 29571 0
-29572 -29575 0
-29572 -29574 0
29572 29575 29574 0
-29575 -29576 0
-29575 -29577 0
29575 29576 29577 0
-29578 -29581 0
-29578 -29580 0
29578 29581 29580 0
-29581 -29582 0
-29581 -29583 0
29581 29582 29583 0
-29584 -29587 0
-29584 -29586 0
29584 29587 29586 0
-29587 -29588 0
-29587 -29589 0
29587 29588 29589 0
-29590 -29593 0
-29590 -29592 0
29590 29593 29592 0
-29593 -29594 0
-29593 -29595 0
29593 29594 29595 0
-29596 -29599 0
-29596 -29598 0
29596 29599 29598 0
-29599 -29600 0
-29599 -29601 0
29599 29600 29601 0
-29602 -29605 0
-29602 -29604 0
29602 29605 29604 0
-29605 -29606 0
-29605 -29607 0
29605 29606 29607 0
-29608 -29609 0
-29608 -29611 0
29608 29609 29611 0
-29611 -29618 0
-29611 -29613 0
29611 29618 29613 0
-29614 -29615 0
-29614 -29617 0
29614 29615 29617 0
-29617 -29618 0
-29617 -29619 0
29617 29618 29619 0
-29620 -29623 0
-29620 -29622 0
29620 29623 29622 0
-29623 -29624 0
-29623 -29625 0
29623 29624 29625 0
-29626 -29629 0
-29626 -29628 0
29626 29629 29628 0
-29629 -29630 0
-29629 -29631 0
29629 29630 29631 0
-29632 -29635 0
-29632 -29634 0
29632 29635 29634 0
-29635 -29636 0
-29635 -29637 0
29635 29636 29637 0
-29638 -29641 0
-29638 -29640 0
29638 29641 29640 0
-29641 -29642 0
-29641 -29643 0
29641 29642 29643 0
-29644 -29645 0
-29644 -29646 0
-29644 -29647 0
29644 29645 29646 29647 0
-29648 -29651 0
-29648 -29650 0
29648 29651 29650 0
-29651 -29652 0
-29651 -29653 0
29651 29652 29653 0
-29654 -29657 0
-29654 -29656 0
29654 29657 29656 0
-29657 -29658 0
-29657 -29659 0
29657 29658 29659 0
-29660 -29663 0
-29660 -29662 0
29660 29663 29662 0
-29663 -29664 0
-29663 -29665 0
29663 29664 29665 0
-29666 -29669 0
-29666 -29668 0
29666 29669 29668 0
-29669 -29670 0
-29669 -29671 0
29669 29670 29671 0
-29672 -29675 0
-29672 -29674 0
29672 29675 29674 0
-29675 -29676 0
-29675 -29677 0
29675 29676 29677 0
-29678 -29679 0
-29678 -29680 0
-29678 -29681 0
-29678 -29682 0
29678 29679 29680 29681 29682 0
-29683 -29684 0
-29683 -29685 0
29683 29684 29685 0
-29686 -29687 0
-29686 -29688 0
29686 29687 29688 0
-29700 -29690 0
-29700 -29691 0
29700 29690 29691 0
-29692 -29693 0
-29692 -29700 0
29692 29693 29700 0
-29695 -29696 0
-29695 -29700 0
29695 29696 29700 0
-29698 -29699 0
-29698 -29700 0
29698 29699 29700 0
-29701 -29702 0
-29701 -29703 0
-29701 -29704 0
-29701 -29705 0
29701 29702 29703 29704 29705 0
-29706 -29707 0
-29706 -29709 0
29706 29707 29709 0
-29709 -29710 0
-29709 -29711 0
29709 29710 29711 0
-29713 31305 0
29713 -31305 0
-29715 31489 0
29715 -31489 0
-29717 29871 0
29717 -29871 0
-29719 31392 0
29719 -31392 0
-29721 31398 0
29721 -31398 0
-29723 29879 0
29723 -29879 0
-29725 31404 0
29725 -31404 0
-29727 29885 0
29727 -29885 0
-29729 31410 0
29729 -31410 0
-29731 31416 0
29731 -31416 0
-29733 31422 0
29733 -31422 0
-29735 31428 0
29735 -31428 0
-29737 30286 0
29737 -30286 0
-29739 30922 0
29739 -30922 0
-29741 29909 0
29741 -29909 0
-29743 31434 0
29743 -31434 0
-29745 31440 0
29745 -31440 0
-29747 29919 0
29747 -29919 0
-29749 29923 0
29749 -29923 0
-29751 31446 0
29751 -31446 0
-29753 31452 0
29753 -31452 0
-29755 31458 0
29755 -31458 0
-29757 31464 0
29757 -31464 0
-29759 31470 0
29759 -31470 0
-29761 31476 0
29761 -31476 0
-29763 31302 0
29763 -31302 0
-29765 31301 0
29765 -31301 0
-29767 31300 0
29767 -31300 0
-29769 31299 0
29769 -31299 0
-29771 31498 0
29771 -31498 0
-29773 31504 0
29773 -31504 0
-29775 31510 0
29775 -31510 0
-29777 31516 0
29777 -31516 0
-29779 31522 0
29779 -31522 0
-29781 31528 0
29781 -31528 0
-29783 31534 0
29783 -31534 0
-29785 31540 0
29785 -31540 0
-29787 31546 0
29787 -31546 0
-29789 31552 0
29789 -31552 0
-29791 31558 0
29791 -31558 0
-29793 31564 0
29793 -31564 0
-29795 30950 0
29795 -30950 0
-29797 31570 0
29797 -31570 0
-29799 30953 0
29799 -30953 0
-29801 31576 0
29801 -31576 0
-29803 31582 0
29803 -31582 0
-29805 31588 0
29805 -31588 0
-29807 31594 0
29807 -31594 0
-29809 31600 0
29809 -31600 0
-29811 31602 0
29811 -31602 0
-29813 31603 0
29813 -31603 0
-29815 31604 0
29815 -31604 0
-29817 31610 0
29817 -31610 0
-29819 31616 0
29819 -31616 0
-29821 31622 0
29821 -31622 0
-29823 31628 0
29823 -31628 0
-29825 31634 0
29825 -31634 0
-29827 31636 0
29827 -31636 0
-29829 31637 0
29829 -31637 0
-29831 31638 0
29831 -31638 0
-29833 31639 0
29833 -31639 0
-29835 31378 0
29835 -31378 0
-29837 31069 0
29837 -31069 0
-29839 31078 0
29839 -31078 0
-29841 31648 0
29841 -31648 0
-29843 31153 0
29843 -31153 0
-29845 31159 0
29845 -31159 0
-29847 31156 0
29847 -31156 0
-29849 30728 0
29849 -30728 0
-29851 30731 0
29851 -30731 0
-29853 29905 0
29853 -29905 0
-29855 30181 0
29855 -30181 0
-29857 31668 0
29857 -31668 0
-29859 30187 0
29859 -30187 0
29863 31306 0
-29863 -31306 0
31670 29863 0
-31670 -29863 0
29867 31490 0
-29867 -31490 0
31672 29867 0
-31672 -29867 0
30205 31187 0
-30205 -31187 0
31208 29871 0
-31208 -29871 0
30208 31187 0
-30208 -31187 0
30214 31187 0
-30214 -31187 0
30220 31187 0
-30220 -31187 0
31214 29879 0
-31214 -29879 0
30223 31187 0
-30223 -31187 0
30241 31187 0
-30241 -31187 0
31220 29885 0
-31220 -29885 0
30244 31187 0
-30244 -31187 0
30250 31187 0
-30250 -31187 0
30256 31187 0
-30256 -31187 0
30262 31187 0
-30262 -31187 0
30268 31187 0
-30268 -31187 0
30289 31187 0
-30289 -31187 0
30288 30922 0
-30288 -30922 0
31226 30286 0
-31226 -30286 0
30795 31180 0
-30795 -31180 0
31180 29905 0
-31180 -29905 0
30295 31187 0
-30295 -31187 0
31232 29909 0
-31232 -29909 0
30298 31187 0
-30298 -31187 0
30304 31187 0
-30304 -31187 0
30336 31440 0
-30336 -31440 0
30316 31187 0
-30316 -31187 0
31238 29919 0
-31238 -29919 0
30319 31187 0
-30319 -31187 0
31244 29923 0
-31244 -29923 0
30322 31187 0
-30322 -31187 0
30352 30374 0
-30352 -30374 0
30358 30374 0
-30358 -30374 0
30364 30374 0
-30364 -30374 0
30370 30374 0
-30370 -30374 0
30379 30374 0
-30379 -30374 0
31252 31296 0
-31252 -31296 0
30409 31187 0
-30409 -31187 0
30866 30884 0
-30866 -30884 0
30415 31187 0
-30415 -31187 0
30872 30884 0
-30872 -30884 0
30421 31187 0
-30421 -31187 0
30878 30884 0
-30878 -30884 0
30427 31187 0
-30427 -31187 0
30887 30884 0
-30887 -30884 0
30899 30929 0
-30899 -30929 0
30905 30929 0
-30905 -30929 0
30911 31183 0
-30911 -31183 0
30917 31183 0
-30917 -31183 0
31183 30731 0
-31183 -30731 0
30923 31174 0
-30923 -31174 0
30932 30929 0
-30932 -30929 0
30451 30933 0
-30451 -30933 0
30457 30933 0
-30457 -30933 0
30463 30933 0
-30463 -30933 0
30479 30936 0
-30479 -30936 0
30485 30936 0
-30485 -30936 0
30491 30936 0
-30491 -30936 0
30503 30939 0
-30503 -30939 0
30509 30939 0
-30509 -30939 0
30515 31187 0
-30515 -31187 0
30530 30942 0
-30530 -30942 0
30536 30942 0
-30536 -30942 0
30542 31187 0
-30542 -31187 0
30563 31187 0
-30563 -31187 0
30566 31187 0
-30566 -31187 0
30578 30953 0
-30578 -30953 0
30572 31187 0
-30572 -31187 0
30581 31576 0
-30581 -31576 0
30575 31187 0
-30575 -31187 0
30580 31138 0
-30580 -31138 0
30585 31309 0
-30585 -31309 0
30591 31309 0
-30591 -31309 0
30597 31309 0
-30597 -31309 0
30603 31309 0
-30603 -31309 0
31310 31187 0
-31310 -31187 0
30962 30974 0
-30962 -30974 0
30968 30974 0
-30968 -30974 0
30977 30974 0
-30977 -30974 0
30983 30992 0
-30983 -30992 0
30989 30992 0
-30989 -30992 0
30995 30992 0
-30995 -30992 0
30992 30950 0
-30992 -30950 0
30636 30688 0
-30636 -30688 0
30642 30688 0
-30642 -30688 0
30648 30688 0
-30648 -30688 0
30654 30688 0
-30654 -30688 0
30660 30688 0
-30660 -30688 0
31022 31079 0
-31022 -31079 0
31028 31079 0
-31028 -31079 0
31034 31079 0
-31034 -31079 0
31040 31079 0
-31040 -31079 0
30693 30688 0
-30693 -30688 0
30696 31640 0
-30696 -31640 0
31202 31645 0
-31202 -31645 0
31066 31064 0
-31066 -31064 0
31073 31079 0
-31073 -31079 0
31082 31079 0
-31082 -31079 0
31090 31570 0
-31090 -31570 0
31575 31379 0
-31575 -31379 0
31088 31174 0
-31088 -31174 0
31094 31174 0
-31094 -31174 0
31100 31174 0
-31100 -31174 0
31106 31174 0
-31106 -31174 0
31112 31174 0
-31112 -31174 0
31118 31174 0
-31118 -31174 0
31124 31174 0
-31124 -31174 0
31130 31174 0
-31130 -31174 0
31136 31174 0
-31136 -31174 0
31142 31174 0
-31142 -31174 0
31174 30728 0
-31174 -30728 0
30735 31187 0
-30735 -31187 0
31647 30734 0
-31647 -30734 0
30093 30091 0
-30093 -30091 0
30734 30093 0
-30734 -30093 0
31147 31668 0
-31147 -31668 0
30738 31187 0
-30738 -31187 0
31148 31667 0
-31148 -31667 0
30744 31187 0
-30744 -31187 0
31154 31667 0
-31154 -31667 0
30750 31187 0
-30750 -31187 0
31160 31667 0
-31160 -31667 0
30111 30109 0
-30111 -30109 0
31667 30111 0
-31667 -30111 0
30756 31181 0
-30756 -31181 0
31175 31181 0
-31175 -31181 0
31184 31181 0
-31184 -31181 0
30121 30119 0
-30121 -30119 0
31181 30121 0
-31181 -30121 0
30135 30123 0
-30135 -30123 0
30124 30135 0
-30124 -30135 0
30765 31187 0
-30765 -31187 0
30768 31187 0
-30768 -31187 0
30774 31187 0
-30774 -31187 0
31187 30133 0
-31187 -30133 0
30893 30135 0
-30893 -30135 0
30139 30137 0
-30139 -30137 0
31087 30139 0
-31087 -30139 0
30143 30141 0
-30143 -30141 0
31099 30143 0
-31099 -30143 0
30147 30145 0
-30147 -30145 0
31093 30147 0
-31093 -30147 0
30151 30149 0
-30151 -30149 0
31105 30151 0
-31105 -30151 0
30155 30153 0
-30155 -30153 0
30865 30155 0
-30865 -30155 0
30159 30157 0
-30159 -30157 0
31111 30159 0
-31111 -30159 0
30163 30161 0
-30163 -30161 0
31117 30163 0
-31117 -30163 0
30167 30165 0
-30167 -30165 0
31123 30167 0
-31123 -30167 0
30171 30169 0
-30171 -30169 0
31129 30171 0
-31129 -30171 0
30175 30173 0
-30175 -30173 0
31135 30175 0
-31135 -30175 0
30179 30177 0
-30179 -30177 0
31141 30179 0
-31141 -30179 0
30180 30181 0
-30180 -30181 0
30185 30183 0
-30185 -30183 0
30582 30185 0
-30582 -30185 0
30186 30187 0
-30186 -30187 0
-31285 31107 0
-31285 31110 0
31285 -31107 -31110 0
-31288 31113 0
-31288 31116 0
31288 -31113 -31116 0
-31291 31119 0
-31291 31122 0
31291 -31119 -31122 0
-31279 31125 0
-31279 31128 0
31279 -31125 -31128 0
-31282 31131 0
-31282 31134 0
31282 -31131 -31134 0
-31674 31203 0
-31674 30205 0
31674 -31203 -30205 0
-31676 31387 0
-31676 30208 0
31676 -31387 -30208 0
-31389 31391 0
-31389 31392 0
31389 -31391 -31392 0
-31678 31393 0
-31678 30214 0
31678 -31393 -30214 0
-31395 31397 0
-31395 31398 0
31395 -31397 -31398 0
-31680 31209 0
-31680 30220 0
31680 -31209 -30220 0
-31682 31399 0
-31682 30223 0
31682 -31399 -30223 0
-31401 31403 0
-31401 31404 0
31401 -31403 -31404 0
-31391 31384 0
-31391 31208 0
31391 -31384 -31208 0
-31397 31391 0
-31397 31392 0
31397 -31391 -31392 0
-31213 31397 0
-31213 31398 0
31213 -31397 -31398 0
-31403 31213 0
-31403 31214 0
31403 -31213 -31214 0
-31684 31215 0
-31684 30241 0
31684 -31215 -30241 0
-31686 31405 0
-31686 30244 0
31686 -31405 -30244 0
-31407 31409 0
-31407 31410 0
31407 -31409 -31410 0
-31688 31411 0
-31688 30250 0
31688 -31411 -30250 0
-31413 31415 0
-31413 31416 0
31413 -31415 -31416 0
-31690 31417 0
-31690 30256 0
31690 -31417 -30256 0
-31419 31421 0
-31419 31422 0
31419 -31421 -31422 0
-31692 31423 0
-31692 30262 0
31692 -31423 -30262 0
-31425 31427 0
-31425 31428 0
31425 -31427 -31428 0
-31694 31221 0
-31694 30268 0
31694 -31221 -30268 0
-31409 31219 0
-31409 31220 0
31409 -31219 -31220 0
-31415 31409 0
-31415 31410 0
31415 -31409 -31410 0
-31421 31415 0
-31421 31416 0
31421 -31415 -31416 0
-31427 31421 0
-31427 31422 0
31427 -31421 -31422 0
-31225 31427 0
-31225 31428 0
31225 -31427 -31428 0
-30801 31225 0
-30801 30286 0
30801 -31225 -30286 0
-31696 30288 0
-31696 30289 0
31696 -30288 -30289 0
-30904 30790 0
-30904 30793 0
30904 -30790 -30793 0
-31698 31227 0
-31698 30295 0
31698 -31227 -30295 0
-31700 31429 0
-31700 30298 0
31700 -31429 -30298 0
-31431 31433 0
-31431 31434 0
31431 -31433 -31434 0
-31702 31435 0
-31702 30304 0
31702 -31435 -30304 0
-31437 31439 0
-31437 31440 0
31437 -31439 -31440 0
-31433 31231 0
-31433 31232 0
31433 -31231 -31232 0
-31439 31433 0
-31439 31434 0
31439 -31433 -31434 0
-31704 31233 0
-31704 30316 0
31704 -31233 -30316 0
-31706 31239 0
-31706 30319 0
31706 -31239 -30319 0
-31708 31441 0
-31708 30322 0
31708 -31441 -30322 0
-31443 31445 0
-31443 31446 0
31443 -31445 -31446 0
-31243 31515 0
-31243 31238 0
31243 -31515 -31238 0
-31445 31243 0
-31445 31244 0
31445 -31243 -31244 0
-30895 31439 0
-30895 31440 0
30895 -31439 -31440 0
-30928 30336 0
-30928 31439 0
30928 -30336 -31439 0
-30789 31403 0
-30789 31404 0
30789 -31403 -31404 0
-30798 31225 0
-30798 31226 0
30798 -31225 -31226 0
-31010 31445 0
-31010 31446 0
31010 -31445 -31446 0
-30907 31563 0
-30907 31564 0
30907 -31563 -31564 0
-31710 31447 0
-31710 30352 0
31710 -31447 -30352 0
-31449 31484 0
-31449 31452 0
31449 -31484 -31452 0
-31712 31453 0
-31712 30358 0
31712 -31453 -30358 0
-31455 31457 0
-31455 31458 0
31455 -31457 -31458 0
-31714 31459 0
-31714 30364 0
31714 -31459 -30364 0
-31461 31463 0
-31461 31464 0
31461 -31463 -31464 0
-31716 31465 0
-31716 30370 0
31716 -31465 -30370 0
-31467 31469 0
-31467 31470 0
31467 -31469 -31470 0
-30374 31095 0
-30374 31098 0
30374 -31095 -31098 0
-31718 31471 0
-31718 30379 0
31718 -31471 -30379 0
-31473 31475 0
-31473 31476 0
31473 -31475 -31476 0
-31457 31484 0
-31457 31452 0
31457 -31484 -31452 0
-31463 31457 0
-31463 31458 0
31463 -31457 -31458 0
-31469 31463 0
-31469 31464 0
31469 -31463 -31464 0
-31475 31469 0
-31475 31470 0
31475 -31469 -31470 0
-30822 30814 0
-30822 31483 0
30822 -30814 -31483 0
-30828 30817 0
-30828 30820 0
30828 -30817 -30820 0
-30834 30823 0
-30834 30826 0
30834 -30823 -30826 0
-30840 30829 0
-30840 30832 0
30840 -30829 -30832 0
-31720 30410 0
-31720 30409 0
31720 -30410 -30409 0
-30410 30861 0
-30410 30864 0
30410 -30861 -30864 0
-31722 30416 0
-31722 30415 0
31722 -30416 -30415 0
-30416 30867 0
-30416 30870 0
30416 -30867 -30870 0
-31724 30422 0
-31724 30421 0
31724 -30422 -30421 0
-30422 30873 0
-30422 30876 0
30422 -30873 -30876 0
-31726 30428 0
-31726 30427 0
31726 -30428 -30427 0
-30428 30882 0
-30428 30885 0
30428 -30882 -30885 0
-31491 31308 0
-31491 30893 0
31491 -31308 -30893 0
-31488 31306 0
-31488 30893 0
31488 -31306 -30893 0
-31533 30894 0
-31533 30897 0
31533 -30894 -30897 0
-30946 30906 0
-30946 30909 0
30946 -30906 -30909 0
-30919 30912 0
-30919 30915 0
30919 -30912 -30915 0
-31551 31497 0
-31551 31510 0
31551 -31497 -31510 0
-31728 31493 0
-31728 30451 0
31728 -31493 -30451 0
-31495 31497 0
-31495 31498 0
31495 -31497 -31498 0
-31730 31499 0
-31730 30457 0
31730 -31499 -30457 0
-31501 31503 0
-31501 31504 0
31501 -31503 -31504 0
-31732 31505 0
-31732 30463 0
31732 -31505 -30463 0
-31507 31509 0
-31507 31510 0
31507 -31509 -31510 0
-31503 31497 0
-31503 31498 0
31503 -31497 -31498 0
-31509 31503 0
-31509 31504 0
31509 -31503 -31504 0
-30938 31515 0
-30938 31516 0
-30938 31528 0
30938 -31515 -31516 -31528 0
-31734 31511 0
-31734 30479 0
31734 -31511 -30479 0
-31513 31515 0
-31513 31516 0
31513 -31515 -31516 0
-31736 31517 0
-31736 30485 0
31736 -31517 -30485 0
-31519 31521 0
-31519 31522 0
31519 -31521 -31522 0
-31738 31523 0
-31738 30491 0
31738 -31523 -30491 0
-31525 31527 0
-31525 31528 0
31525 -31527 -31528 0
-31521 31515 0
-31521 31516 0
31521 -31515 -31516 0
-31527 31521 0
-31527 31522 0
31527 -31521 -31522 0
-31740 31529 0
-31740 30503 0
31740 -31529 -30503 0
-31531 31533 0
-31531 31534 0
31531 -31533 -31534 0
-31742 31535 0
-31742 30509 0
31742 -31535 -30509 0
-31537 31539 0
-31537 31540 0
31537 -31539 -31540 0
-31744 31541 0
-31744 30515 0
31744 -31541 -30515 0
-31543 31545 0
-31543 31546 0
31543 -31545 -31546 0
-31539 31533 0
-31539 31534 0
31539 -31533 -31534 0
-31545 31533 0
-31545 31540 0
31545 -31533 -31540 0
-31013 31545 0
-31013 31546 0
31013 -31545 -31546 0
-31746 31547 0
-31746 30530 0
31746 -31547 -30530 0
-31549 31551 0
-31549 31552 0
31549 -31551 -31552 0
-31748 31553 0
-31748 30536 0
31748 -31553 -30536 0
-31555 31557 0
-31555 31558 0
31555 -31557 -31558 0
-31750 31559 0
-31750 30542 0
31750 -31559 -30542 0
-31561 31563 0
-31561 31564 0
31561 -31563 -31564 0
-31557 31551 0
-31557 31552 0
31557 -31551 -31552 0
-31563 31551 0
-31563 31558 0
31563 -31551 -31558 0
-30701 30927 0
-30701 30930 0
30701 -30927 -30930 0
-31641 30900 0
-31641 30903 0
31641 -30900 -30903 0
-31261 30918 0
-31261 30921 0
31261 -30918 -30921 0
-31752 30948 0
-31752 30563 0
31752 -30948 -30563 0
-31754 31565 0
-31754 30566 0
31754 -31565 -30566 0
-31566 31575 0
-31566 30992 0
31566 -31575 -30992 0
-31756 30951 0
-31756 30572 0
31756 -30951 -30572 0
-31758 31571 0
-31758 30575 0
31758 -31571 -30575 0
-31572 31575 0
-31572 30578 0
31572 -31575 -30578 0
-31084 30580 0
-31084 30581 0
-31084 30582 0
31084 -30580 -30581 -30582 0
-31760 31577 0
-31760 30585 0
31760 -31577 -30585 0
-31579 31581 0
-31579 31582 0
31579 -31581 -31582 0
-31762 31583 0
-31762 30591 0
31762 -31583 -30591 0
-31585 31587 0
-31585 31588 0
31585 -31587 -31588 0
-31764 31589 0
-31764 30597 0
31764 -31589 -30597 0
-31591 31593 0
-31591 31594 0
31591 -31593 -31594 0
-31766 31595 0
-31766 30603 0
31766 -31595 -30603 0
-31597 31599 0
-31597 31600 0
31597 -31599 -31600 0
-31587 31581 0
-31587 31582 0
31587 -31581 -31582 0
-31593 31587 0
-31593 31588 0
31593 -31587 -31588 0
-31599 31593 0
-31599 31594 0
31599 -31593 -31594 0
-30961 30978 0
-30961 30981 0
30961 -30978 -30981 0
-30967 30984 0
-30967 30987 0
30967 -30984 -30987 0
-30976 30990 0
-30976 30993 0
30976 -30990 -30993 0
-31768 30957 0
-31768 30960 0
31768 -30957 -30960 0
-31770 30963 0
-31770 30966 0
31770 -30963 -30966 0
-31772 30972 0
-31772 30975 0
31772 -30972 -30975 0
-31774 31605 0
-31774 30636 0
31774 -31605 -30636 0
-31607 31609 0
-31607 31610 0
31607 -31609 -31610 0
-31776 31611 0
-31776 30642 0
31776 -31611 -30642 0
-31613 31615 0
-31613 31616 0
31613 -31615 -31616 0
-31778 31617 0
-31778 30648 0
31778 -31617 -30648 0
-31619 31621 0
-31619 31622 0
31619 -31621 -31622 0
-31780 31623 0
-31780 30654 0
31780 -31623 -30654 0
-31625 31627 0
-31625 31628 0
31625 -31627 -31628 0
-31782 31629 0
-31782 30660 0
31782 -31629 -30660 0
-31631 31633 0
-31631 31634 0
31631 -31633 -31634 0
-31615 31609 0
-31615 31610 0
31615 -31609 -31610 0
-31621 31615 0
-31621 31616 0
31621 -31615 -31616 0
-31627 31621 0
-31627 31622 0
31627 -31621 -31622 0
-31633 31627 0
-31633 31628 0
31633 -31627 -31628 0
-31784 31017 0
-31784 31020 0
31784 -31017 -31020 0
-31786 31023 0
-31786 31026 0
31786 -31023 -31026 0
-31788 31029 0
-31788 31032 0
31788 -31029 -31032 0
-31790 31035 0
-31790 31038 0
31790 -31035 -31038 0
-30688 31101 0
-30688 31104 0
30688 -31101 -31104 0
-31792 31056 0
-31792 30693 0
31792 -31056 -30693 0
-31057 31059 0
-31057 30696 0
31057 -31059 -30696 0
-31064 31089 0
-31064 31092 0
31064 -31089 -31092 0
-31609 30701 0
-31609 31642 0
31609 -30701 -31642 0
-31794 31068 0
-31794 31071 0
31794 -31068 -31071 0
-31796 31077 0
-31796 31080 0
31796 -31077 -31080 0
-31250 31137 0
-31250 31140 0
31250 -31137 -31140 0
-31260 31083 0
-31260 31086 0
31260 -31083 -31086 0
-31659 30789 0
-31659 31147 0
31659 -30789 -31147 0
-31660 30798 0
-31660 31153 0
31660 -30798 -31153 0
-31661 31010 0
-31661 31159 0
31661 -31010 -31159 0
-31662 30907 0
-31662 31156 0
31662 -30907 -31156 0
-30970 30728 0
-30970 31309 0
30970 -30728 -31309 0
-31075 30731 0
-31075 31309 0
31075 -30731 -31309 0
-31798 30734 0
-31798 30735 0
31798 -30734 -30735 0
-31800 30739 0
-31800 30738 0
31800 -30739 -30738 0
-30739 31143 0
-30739 31146 0
30739 -31143 -31146 0
-31802 30745 0
-31802 30744 0
31802 -30745 -30744 0
-30745 31149 0
-30745 31152 0
30745 -31149 -31152 0
-31804 30751 0
-31804 30750 0
31804 -30751 -30750 0
-30751 31155 0
-30751 31158 0
30751 -31155 -31158 0
-31650 31164 0
-31650 30756 0
31650 -31164 -30756 0
-31653 31170 0
-31653 31173 0
31653 -31170 -31173 0
-31656 31179 0
-31656 31182 0
31656 -31179 -31182 0
-31812 31245 0
-31812 30765 0
31812 -31245 -30765 0
-31814 31663 0
-31814 30768 0
31814 -31663 -30768 0
-31664 31667 0
-31664 31156 0
31664 -31667 -31156 0
-31816 31643 0
-31816 30774 0
31816 -31643 -30774 0
31205 -31384 0
31205 -31208 0
-31205 31384 31208 0
31211 -31213 0
31211 -31214 0
-31211 31213 31214 0
31217 -31219 0
31217 -31220 0
-31217 31219 31220 0
31223 -31225 0
31223 -31226 0
-31223 31225 31226 0
31219 -31180 0
31219 -30789 0
-31219 31180 30789 0
30790 -31226 0
30790 -31180 0
-30790 31226 31180 0
30793 -30922 0
30793 -30795 0
-30793 30922 30795 0
31515 -31180 0
31515 -30798 0
-31515 31180 30798 0
30931 -31180 0
30931 -30801 0
-30931 31180 30801 0
31229 -31231 0
31229 -31232 0
-31229 31231 31232 0
31235 -31515 0
31235 -31238 0
-31235 31515 31238 0
31241 -31243 0
31241 -31244 0
-31241 31243 31244 0
31247 -31260 0
31247 -31255 0
-31247 31260 31255 0
30814 -31285 0
30814 -31452 0
-30814 31285 31452 0
30817 -31288 0
30817 -31458 0
-30817 31288 31458 0
30820 -31482 0
30820 -30822 0
-30820 31482 30822 0
30823 -31291 0
30823 -31464 0
-30823 31291 31464 0
30826 -31480 0
30826 -30828 0
-30826 31480 30828 0
30829 -31279 0
30829 -31470 0
-30829 31279 31470 0
30832 -31479 0
30832 -30834 0
-30832 31479 30834 0
31385 -31282 0
31385 -31476 0
-31385 31282 31476 0
31386 -31478 0
31386 -30840 0
-31386 31478 30840 0
31264 -31452 0
31264 -31285 0
-31264 31452 31285 0
31267 -31458 0
31267 -31288 0
-31267 31458 31288 0
31270 -31464 0
31270 -31291 0
-31270 31464 31291 0
31273 -31470 0
31273 -31279 0
-31273 31470 31279 0
31276 -31476 0
31276 -31282 0
-31276 31476 31282 0
30889 -31299 0
30889 -31300 0
30889 -31301 0
30889 -31302 0
-30889 31299 31300 31301 31302 0
30861 -31302 0
30861 -30884 0
-30861 31302 30884 0
30864 -30865 0
30864 -30866 0
-30864 30865 30866 0
30867 -31301 0
30867 -30884 0
-30867 31301 30884 0
30870 -31302 0
30870 -30872 0
-30870 31302 30872 0
30873 -31300 0
30873 -30884 0
-30873 31300 30884 0
30876 -31301 0
30876 -30878 0
-30876 31301 30878 0
30884 -30938 0
30884 -31183 0
-30884 30938 31183 0
30882 -31299 0
30882 -30884 0
-30882 31299 30884 0
30885 -31300 0
30885 -30887 0
-30885 31300 30887 0
31304 -30889 0
31304 -30893 0
-31304 30889 30893 0
31307 -31485 0
31307 -30893 0
-31307 31485 30893 0
30894 -30895 0
30894 -30929 0
-30894 30895 30929 0
30897 -31515 0
30897 -30899 0
-30897 31515 30899 0
30900 -31440 0
30900 -30929 0
-30900 31440 30929 0
30903 -30904 0
30903 -30905 0
-30903 30904 30905 0
30906 -30907 0
30906 -31183 0
-30906 30907 31183 0
30909 -31013 0
30909 -30911 0
-30909 31013 30911 0
30912 -31564 0
30912 -31183 0
-30912 31564 31183 0
30915 -31546 0
30915 -30917 0
-30915 31546 30917 0
30918 -30919 0
30918 -31174 0
-30918 30919 31174 0
30921 -30922 0
30921 -30923 0
-30921 30922 30923 0
30929 -31084 0
30929 -31174 0
-30929 31084 31174 0
30927 -30928 0
30927 -30929 0
-30927 30928 30929 0
30930 -30931 0
30930 -30932 0
-30930 30931 30932 0
30933 -31187 0
30933 -31551 0
-30933 31187 31551 0
30936 -31187 0
30936 -30938 0
-30936 31187 30938 0
30939 -31187 0
30939 -31545 0
-30939 31187 31545 0
30942 -31187 0
30942 -31563 0
-30942 31187 31563 0
31581 -30946 0
31581 -31174 0
-31581 30946 31174 0
30948 -31641 0
30948 -30950 0
-30948 31641 30950 0
30951 -31575 0
30951 -30953 0
-30951 31575 30953 0
31138 -31378 0
31138 -31642 0
-31138 31378 31642 0
30957 -31602 0
30957 -30974 0
-30957 31602 30974 0
30960 -30961 0
30960 -30962 0
-30960 30961 30962 0
30963 -31603 0
30963 -30974 0
-30963 31603 30974 0
30966 -30967 0
30966 -30968 0
-30966 30967 30968 0
30974 -30970 0
30974 -31187 0
-30974 30970 31187 0
30972 -31604 0
30972 -30974 0
-30972 31604 30974 0
30975 -30976 0
30975 -30977 0
-30975 30976 30977 0
30978 -31129 0
30978 -30992 0
-30978 31129 30992 0
30981 -31111 0
30981 -30983 0
-30981 31111 30983 0
30984 -31135 0
30984 -30992 0
-30984 31135 30992 0
30987 -31117 0
30987 -30989 0
-30987 31117 30989 0
30990 -31141 0
30990 -30992 0
-30990 31141 30992 0
30993 -31123 0
30993 -30995 0
-30993 31123 30995 0
31314 -31602 0
31314 -31582 0
-31314 31602 31582 0
31317 -31603 0
31317 -31588 0
-31317 31603 31588 0
31320 -31604 0
31320 -31594 0
-31320 31604 31594 0
31323 -31601 0
31323 -31600 0
-31323 31601 31600 0
31231 -31183 0
31231 -31010 0
-31231 31183 31010 0
31497 -31183 0
31497 -31013 0
-31497 31183 31013 0
31642 -31336 0
31642 -31340 0
-31642 31336 31340 0
31017 -31636 0
31017 -31079 0
-31017 31636 31079 0
31020 -31087 0
31020 -31022 0
-31020 31087 31022 0
31023 -31637 0
31023 -31079 0
-31023 31637 31079 0
31026 -31099 0
31026 -31028 0
-31026 31099 31028 0
31029 -31638 0
31029 -31079 0
-31029 31638 31079 0
31032 -31093 0
31032 -31034 0
-31032 31093 31034 0
31035 -31639 0
31035 -31079 0
-31035 31639 31079 0
31038 -31105 0
31038 -31040 0
-31038 31105 31040 0
31345 -31636 0
31345 -31610 0
-31345 31636 31610 0
31348 -31637 0
31348 -31616 0
-31348 31637 31616 0
31351 -31638 0
31351 -31622 0
-31351 31638 31622 0
31354 -31639 0
31354 -31628 0
-31354 31639 31628 0
31357 -31635 0
31357 -31634 0
-31357 31635 31634 0
31056 -31057 0
31056 -31609 0
-31056 31057 31609 0
31059 -31378 0
31059 -31640 0
-31059 31378 31640 0
31374 -31078 0
31374 -31064 0
-31374 31078 31064 0
31375 -31066 0
31375 -31069 0
-31375 31066 31069 0
31068 -31069 0
31068 -31079 0
-31068 31069 31079 0
31071 -31181 0
31071 -31073 0
-31071 31181 31073 0
31079 -31075 0
31079 -31187 0
-31079 31075 31187 0
31077 -31078 0
31077 -31079 0
-31077 31078 31079 0
31080 -31667 0
31080 -31082 0
-31080 31667 31082 0
31083 -31084 0
31083 -31174 0
-31083 31084 31174 0
31086 -31087 0
31086 -31088 0
-31086 31087 31088 0
31089 -31090 0
31089 -31174 0
-31089 31090 31174 0
31092 -31093 0
31092 -31094 0
-31092 31093 31094 0
31095 -31309 0
31095 -31174 0
-31095 31309 31174 0
31098 -31099 0
31098 -31100 0
-31098 31099 31100 0
31101 -31309 0
31101 -31174 0
-31101 31309 31174 0
31104 -31105 0
31104 -31106 0
-31104 31105 31106 0
31107 -31188 0
31107 -31174 0
-31107 31188 31174 0
31110 -31111 0
31110 -31112 0
-31110 31111 31112 0
31113 -31191 0
31113 -31174 0
-31113 31191 31174 0
31116 -31117 0
31116 -31118 0
-31116 31117 31118 0
31119 -31194 0
31119 -31174 0
-31119 31194 31174 0
31122 -31123 0
31122 -31124 0
-31122 31123 31124 0
31125 -31197 0
31125 -31174 0
-31125 31197 31174 0
31128 -31129 0
31128 -31130 0
-31128 31129 31130 0
31131 -31200 0
31131 -31174 0
-31131 31200 31174 0
31134 -31135 0
31134 -31136 0
-31134 31135 31136 0
31137 -31138 0
31137 -31174 0
-31137 31138 31174 0
31140 -31141 0
31140 -31142 0
-31140 31141 31142 0
31143 -31153 0
31143 -31667 0
-31143 31153 31667 0
31146 -31147 0
31146 -31148 0
-31146 31147 31148 0
31149 -31159 0
31149 -31667 0
-31149 31159 31667 0
31152 -31153 0
31152 -31154 0
-31152 31153 31154 0
31155 -31156 0
31155 -31667 0
-31155 31156 31667 0
31158 -31159 0
31158 -31160 0
-31158 31159 31160 0
31806 -31649 0
31806 -31185 0
-31806 31649 31185 0
31164 -31174 0
31164 -31181 0
-31164 31174 31181 0
31808 -31652 0
31808 -31185 0
-31808 31652 31185 0
31170 -31183 0
31170 -31181 0
-31170 31183 31181 0
31173 -31174 0
31173 -31175 0
-31173 31174 31175 0
31810 -31655 0
31810 -31185 0
-31810 31655 31185 0
31179 -31180 0
31179 -31181 0
-31179 31180 31181 0
31182 -31183 0
31182 -31184 0
-31182 31183 31184 0
31185 -31647 0
31185 -31187 0
-31185 31647 31187 0
31188 31610 0
31188 31202 0
-31188 -31610 -31202 0
31191 31616 0
31191 31202 0
-31191 -31616 -31202 0
31194 31622 0
31194 31202 0
-31194 -31622 -31202 0
31197 31628 0
31197 31202 0
-31197 -31628 -31202 0
31200 31634 0
31200 31202 0
-31200 -31634 -31202 0
31203 31206 0
31203 31205 0
-31203 -31206 -31205 0
31206 31384 0
31206 31208 0
-31206 -31384 -31208 0
31209 31212 0
31209 31211 0
-31209 -31212 -31211 0
31212 31213 0
31212 31214 0
-31212 -31213 -31214 0
31215 31218 0
31215 31217 0
-31215 -31218 -31217 0
31218 31219 0
31218 31220 0
-31218 -31219 -31220 0
31221 31224 0
31221 31223 0
-31221 -31224 -31223 0
31224 31225 0
31224 31226 0
-31224 -31225 -31226 0
31227 31230 0
31227 31229 0
-31227 -31230 -31229 0
31230 31231 0
31230 31232 0
-31230 -31231 -31232 0
31233 31236 0
31233 31235 0
-31233 -31236 -31235 0
31236 31515 0
31236 31238 0
-31236 -31515 -31238 0
31239 31242 0
31239 31241 0
-31239 -31242 -31241 0
31242 31243 0
31242 31244 0
-31242 -31243 -31244 0
31245 31259 0
31245 31247 0
-31245 -31259 -31247 0
31258 31641 0
31258 31250 0
-31258 -31641 -31250 0
31257 31252 0
31257 31295 0
31257 31641 0
-31257 -31252 -31295 -31641 0
31255 31384 0
31255 31257 0
31255 31258 0
-31255 -31384 -31257 -31258 0
31259 31260 0
31259 31261 0
-31259 -31260 -31261 0
31483 31283 0
31483 31264 0
-31483 -31283 -31264 0
31482 31286 0
31482 31267 0
-31482 -31286 -31267 0
31480 31289 0
31480 31270 0
-31480 -31289 -31270 0
31479 31277 0
31479 31273 0
-31479 -31277 -31273 0
31478 31280 0
31478 31276 0
-31478 -31280 -31276 0
31277 31470 0
31277 31279 0
-31277 -31470 -31279 0
31280 31476 0
31280 31282 0
-31280 -31476 -31282 0
31283 31452 0
31283 31285 0
-31283 -31452 -31285 0
31286 31458 0
31286 31288 0
-31286 -31458 -31288 0
31289 31464 0
31289 31291 0
-31289 -31464 -31291 0
31296 31477 0
31296 31481 0
-31296 -31477 -31481 0
31295 31296 0
31295 31384 0
-31295 -31296 -31384 0
31485 31299 0
31485 31300 0
31485 31301 0
31485 31302 0
-31485 -31299 -31300 -31301 -31302 0
31308 31304 0
31308 31305 0
-31308 -31304 -31305 0
31306 31307 0
31306 31308 0
-31306 -31307 -31308 0
31309 31310 0
31309 31379 0
-31309 -31310 -31379 0
31380 31324 0
31380 31314 0
-31380 -31324 -31314 0
31381 31327 0
31381 31317 0
-31381 -31327 -31317 0
31382 31330 0
31382 31320 0
-31382 -31330 -31320 0
31383 31333 0
31383 31323 0
-31383 -31333 -31323 0
31324 31602 0
31324 31582 0
-31324 -31602 -31582 0
31327 31603 0
31327 31588 0
-31327 -31603 -31588 0
31330 31604 0
31330 31594 0
-31330 -31604 -31594 0
31333 31601 0
31333 31600 0
-31333 -31601 -31600 0
31336 31343 0
31336 31346 0
31336 31349 0
-31336 -31343 -31346 -31349 0
31340 31352 0
31340 31355 0
-31340 -31352 -31355 0
31343 31358 0
31343 31345 0
-31343 -31358 -31345 0
31346 31361 0
31346 31348 0
-31346 -31361 -31348 0
31349 31364 0
31349 31351 0
-31349 -31364 -31351 0
31352 31367 0
31352 31354 0
-31352 -31367 -31354 0
31355 31370 0
31355 31357 0
-31355 -31370 -31357 0
31358 31636 0
31358 31610 0
-31358 -31636 -31610 0
31361 31637 0
31361 31616 0
-31361 -31637 -31616 0
31364 31638 0
31364 31622 0
-31364 -31638 -31622 0
31367 31639 0
31367 31628 0
-31367 -31639 -31628 0
31370 31635 0
31370 31634 0
-31370 -31635 -31634 0
31645 31374 0
31645 31375 0
-31645 -31374 -31375 0
31644 31641 0
31644 31378 0
-31644 -31641 -31378 0
31379 31380 0
31379 31381 0
31379 31382 0
31379 31383 0
-31379 -31380 -31381 -31382 -31383 0
31384 31385 0
31384 31386 0
-31384 -31385 -31386 0
-31387 -31390 0
-31387 -31389 0
31387 31390 31389 0
-31390 -31391 0
-31390 -31392 0
31390 31391 31392 0
-31393 -31396 0
-31393 -31395 0
31393 31396 31395 0
-31396 -31397 0
-31396 -31398 0
31396 31397 31398 0
-31399 -31402 0
-31399 -31401 0
31399 31402 31401 0
-31402 -31403 0
-31402 -31404 0
31402 31403 31404 0
-31405 -31408 0
-31405 -31407 0
31405 31408 31407 0
-31408 -31409 0
-31408 -31410 0
31408 31409 31410 0
-31411 -31414 0
-31411 -31413 0
31411 31414 31413 0
-31414 -31415 0
-31414 -31416 0
31414 31415 31416 0
-31417 -31420 0
-31417 -31419 0
31417 31420 31419 0
-31420 -31421 0
-31420 -31422 0
31420 31421 31422 0
-31423 -31426 0
-31423 -31425 0
31423 31426 31425 0
-31426 -31427 0
-31426 -31428 0
31426 31427 31428 0
-31429 -31432 0
-31429 -31431 0
31429 31432 31431 0
-31432 -31433 0
-31432 -31434 0
31432 31433 31434 0
-31435 -31438 0
-31435 -31437 0
31435 31438 31437 0
-31438 -31439 0
-31438 -31440 0
31438 31439 31440 0
-31441 -31444 0
-31441 -31443 0
31441 31444 31443 0
-31444 -31445 0
-31444 -31446 0
31444 31445 31446 0
-31447 -31450 0
-31447 -31449 0
31447 31450 31449 0
-31450 -31484 0
-31450 -31452 0
31450 31484 31452 0
-31453 -31456 0
-31453 -31455 0
31453 31456 31455 0
-31456 -31457 0
-31456 -31458 0
31456 31457 31458 0
-31459 -31462 0
-31459 -31461 0
31459 31462 31461 0
-31462 -31463 0
-31462 -31464 0
31462 31463 31464 0
-31465 -31468 0
-31465 -31467 0
31465 31468 31467 0
-31468 -31469 0
-31468 -31470 0
31468 31469 31470 0
-31471 -31474 0
-31471 -31473 0
31471 31474 31473 0
-31474 -31475 0
-31474 -31476 0
31474 31475 31476 0
-31477 -31478 0
-31477 -31479 0
-31477 -31480 0
31477 31478 31479 31480 0
-31481 -31482 0
-31481 -31483 0
31481 31482 31483 0
-31484 -31485 0
-31484 -31490 0
31484 31485 31490 0
-31492 -31488 0
-31492 -31489 0
31492 31488 31489 0
-31490 -31491 0
-31490 -31492 0
31490 31491 31492 0
-31493 -31496 0
-31493 -31495 0
31493 31496 31495 0
-31496 -31497 0
-31496 -31498 0
31496 31497 31498 0
-31499 -31502 0
-31499 -31501 0
31499 31502 31501 0
-31502 -31503 0
-31502 -31504 0
31502 31503 31504 0
-31505 -31508 0
-31505 -31507 0
31505 31508 31507 0
-31508 -31509 0
-31508 -31510 0
31508 31509 31510 0
-31511 -31514 0
-31511 -31513 0
31511 31514 31513 0
-31514 -31515 0
-31514 -31516 0
31514 31515 31516 0
-31517 -31520 0
-31517 -31519 0
31517 31520 31519 0
-31520 -31521 0
-31520 -31522 0
31520 31521 31522 0
-31523 -31526 0
-31523 -31525 0
31523 31526 31525 0
-31526 -31527 0
-31526 -31528 0
31526 31527 31528 0
-31529 -31532 0
-31529 -31531 0
31529 31532 31531 0
-31532 -31533 0
-31532 -31534 0
31532 31533 31534 0
-31535 -31538 0
-31535 -31537 0
31535 31538 31537 0
-31538 -31539 0
-31538 -31540 0
31538 31539 31540 0
-31541 -31544 0
-31541 -31543 0
31541 31544 31543 0
-31544 -31545 0
-31544 -31546 0
31544 31545 31546 0
-31547 -31550 0
-31547 -31549 0
31547 31550 31549 0
-31550 -31551 0
-31550 -31552 0
31550 31551 31552 0
-31553 -31556 0
-31553 -31555 0
31553 31556 31555 0
-31556 -31557 0
-31556 -31558 0
31556 31557 31558 0
-31559 -31562 0
-31559 -31561 0
31559 31562 31561 0
-31562 -31563 0
-31562 -31564 0
31562 31563 31564 0
-31565 -31566 0
-31565 -31568 0
31565 31566 31568 0
-31568 -31575 0
-31568 -31570 0
31568 31575 31570 0
-31571 -31572 0
-31571 -31574 0
31571 31572 31574 0
-31574 -31575 0
-31574 -31576 0
31574 31575 31576 0
-31577 -31580 0
-31577 -31579 0
31577 31580 31579 0
-31580 -31581 0
-31580 -31582 0
31580 31581 31582 0
-31583 -31586 0
-31583 -31585 0
31583 31586 31585 0
-31586 -31587 0
-31586 -31588 0
31586 31587 31588 0
-31589 -31592 0
-31589 -31591 0
31589 31592 31591 0
-31592 -31593 0
-31592 -31594 0
31592 31593 31594 0
-31595 -31598 0
-31595 -31597 0
31595 31598 31597 0
-31598 -31599 0
-31598 -31600 0
31598 31599 31600 0
-31601 -31602 0
-31601 -31603 0
-31601 -31604 0
31601 31602 31603 31604 0
-31605 -31608 0
-31605 -31607 0
31605 31608 31607 0
-31608 -31609 0
-31608 -31610 0
31608 31609 31610 0
-31611 -31614 0
-31611 -31613 0
31611 31614 31613 0
-31614 -31615 0
-31614 -31616 0
31614 31615 31616 0
-31617 -31620 0
-31617 -31619 0
31617 31620 31619 0
-31620 -31621 0
-31620 -31622 0
31620 31621 31622 0
-31623 -31626 0
-31623 -31625 0
31623 31626 31625 0
-31626 -31627 0
-31626 -31628 0
31626 31627 31628 0
-31629 -31632 0
-31629 -31631 0
31629 31632 31631 0
-31632 -31633 0
-31632 -31634 0
31632 31633 31634 0
-31635 -31636 0
-31635 -31637 0
-31635 -31638 0
-31635 -31639 0
31635 31636 31637 31638 31639 0
-31640 -31641 0
-31640 -31642 0
31640 31641 31642 0
-31643 -31644 0
-31643 -31645 0
31643 31644 31645 0
-31657 -31647 0
-31657 -31648 0
31657 31647 31648 0
-31649 -31650 0
-31649 -31657 0
31649 31650 31657 0
-31652 -31653 0
-31652 -31657 0
31652 31653 31657 0
-31655 -31656 0
-31655 -31657 0
31655 31656 31657 0
-31658 -31659 0
-31658 -31660 0
-31658 -31661 0
-31658 -31662 0
31658 31659 31660 31661 31662 0
-31663 -31664 0
-31663 -31666 0
31663 31664 31666 0
-31666 -31667 0
-31666 -31668 0
31666 31667 31668 0
-31670 33262 0
31670 -33262 0
-31672 33446 0
31672 -33446 0
-31674 31828 0
31674 -31828 0
-31676 33349 0
31676 -33349 0
-31678 33355 0
31678 -33355 0
-31680 31836 0
31680 -31836 0
-31682 33361 0
31682 -33361 0
-31684 31842 0
31684 -31842 0
-31686 33367 0
31686 -33367 0
-31688 33373 0
31688 -33373 0
-31690 33379 0
31690 -33379 0
-31692 33385 0
31692 -33385 0
-31694 32243 0
31694 -32243 0
-31696 32879 0
31696 -32879 0
-31698 31866 0
31698 -31866 0
-31700 33391 0
31700 -33391 0
-31702 33397 0
31702 -33397 0
-31704 31876 0
31704 -31876 0
-31706 31880 0
31706 -31880 0
-31708 33403 0
31708 -33403 0
-31710 33409 0
31710 -33409 0
-31712 33415 0
31712 -33415 0
-31714 33421 0
31714 -33421 0
-31716 33427 0
31716 -33427 0
-31718 33433 0
31718 -33433 0
-31720 33259 0
31720 -33259 0
-31722 33258 0
31722 -33258 0
-31724 33257 0
31724 -33257 0
-31726 33256 0
31726 -33256 0
-31728 33455 0
31728 -33455 0
-31730 33461 0
31730 -33461 0
-31732 33467 0
31732 -33467 0
-31734 33473 0
31734 -33473 0
-31736 33479 0
31736 -33479 0
-31738 33485 0
31738 -33485 0
-31740 33491 0
31740 -33491 0
-31742 33497 0
31742 -33497 0
-31744 33503 0
31744 -33503 0
-31746 33509 0
31746 -33509 0
-31748 33515 0
31748 -33515 0
-31750 33521 0
31750 -33521 0
-31752 32907 0
31752 -32907 0
-31754 33527 0
31754 -33527 0
-31756 32910 0
31756 -32910 0
-31758 33533 0
31758 -33533 0
-31760 33539 0
31760 -33539 0
-31762 33545 0
31762 -33545 0
-31764 33551 0
31764 -33551 0
-31766 33557 0
31766 -33557 0
-31768 33559 0
31768 -33559 0
-31770 33560 0
31770 -33560 0
-31772 33561 0
31772 -33561 0
-31774 33567 0
31774 -33567 0
-31776 33573 0
31776 -33573 0
-31778 33579 0
31778 -33579 0
-31780 33585 0
31780 -33585 0
-31782 33591 0
31782 -33591 0
-31784 33593 0
31784 -33593 0
-31786 33594 0
31786 -33594 0
-31788 33595 0
31788 -33595 0
-31790 33596 0
31790 -33596 0
-31792 33335 0
31792 -33335 0
-31794 33026 0
31794 -33026 0
-31796 33035 0
31796 -33035 0
-31798 33605 0
31798 -33605 0
-31800 33110 0
31800 -33110 0
-31802 33116 0
31802 -33116 0
-31804 33113 0
31804 -33113 0
-31806 32685 0
31806 -32685 0
-31808 32688 0
31808 -32688 0
-31810 31862 0
31810 -31862 0
-31812 32138 0
31812 -32138 0
-31814 33625 0
31814 -33625 0
-31816 32144 0
31816 -32144 0
31820 33263 0
-31820 -33263 0
33627 31820 0
-33627 -31820 0
31824 33447 0
-31824 -33447 0
33629 31824 0
-33629 -31824 0
32162 33144 0
-32162 -33144 0
33165 31828 0
-33165 -31828 0
32165 33144 0
-32165 -33144 0
32171 33144 0
-32171 -33144 0
32177 33144 0
-32177 -33144 0
33171 31836 0
-33171 -31836 0
32180 33144 0
-32180 -33144 0
32198 33144 0
-32198 -33144 0
33177 31842 0
-33177 -31842 0
32201 33144 0
-32201 -33144 0
32207 33144 0
-32207 -33144 0
32213 33144 0
-32213 -33144 0
32219 33144 0
-32219 -33144 0
32225 33144 0
-32225 -33144 0
32246 33144 0
-32246 -33144 0
32245 32879 0
-32245 -32879 0
33183 32243 0
-33183 -32243 0
32752 33137 0
-32752 -33137 0
33137 31862 0
-33137 -31862 0
32252 33144 0
-32252 -33144 0
33189 31866 0
-33189 -31866 0
32255 33144 0
-32255 -33144 0
32261 33144 0
-32261 -33144 0
32293 33397 0
-32293 -33397 0
32273 33144 0
-32273 -33144 0
33195 31876 0
-33195 -31876 0
32276 33144 0
-32276 -33144 0
33201 31880 0
-33201 -31880 0
32279 33144 0
-32279 -33144 0
32309 32331 0
-32309 -32331 0
32315 32331 0
-32315 -32331 0
32321 32331 0
-32321 -32331 0
32327 32331 0
-32327 -32331 0
32336 32331 0
-32336 -32331 0
33209 33253 0
-33209 -33253 0
32366 33144 0
-32366 -33144 0
32823 32841 0
-32823 -32841 0
32372 33144 0
-32372 -33144 0
32829 32841 0
-32829 -32841 0
32378 33144 0
-32378 -33144 0
32835 32841 0
-32835 -32841 0
32384 33144 0
-32384 -33144 0
32844 32841 0
-32844 -32841 0
32856 32886 0
-32856 -32886 0
32862 32886 0
-32862 -32886 0
32868 33140 0
-32868 -33140 0
32874 33140 0
-32874 -33140 0
33140 32688 0
-33140 -32688 0
32880 33131 0
-32880 -33131 0
32889 32886 0
-32889 -32886 0
32408 32890 0
-32408 -32890 0
32414 32890 0
-32414 -32890 0
32420 32890 0
-32420 -32890 0
32436 32893 0
-32436 -32893 0
32442 32893 0
-32442 -32893 0
32448 32893 0
-32448 -32893 0
32460 32896 0
-32460 -32896 0
32466 32896 0
-32466 -32896 0
32472 33144 0
-32472 -33144 0
32487 32899 0
-32487 -32899 0
32493 32899 0
-32493 -32899 0
32499 33144 0
-32499 -33144 0
32520 33144 0
-32520 -33144 0
32523 33144 0
-32523 -33144 0
32535 32910 0
-32535 -32910 0
32529 33144 0
-32529 -33144 0
32538 33533 0
-32538 -33533 0
32532 33144 0
-32532 -33144 0
32537 33095 0
-32537 -33095 0
32542 33266 0
-32542 -33266 0
32548 33266 0
-32548 -33266 0
32554 33266 0
-32554 -33266 0
32560 33266 0
-32560 -33266 0
33267 33144 0
-33267 -33144 0
32919 32931 0
-32919 -32931 0
32925 32931 0
-32925 -32931 0
32934 32931 0
-32934 -32931 0
32940 32949 0
-32940 -32949 0
32946 32949 0
-32946 -32949 0
32952 32949 0
-32952 -32949 0
32949 32907 0
-32949 -32907 0
32593 32645 0
-32593 -32645 0
32599 32645 0
-32599 -32645 0
32605 32645 0
-32605 -32645 0
32611 32645 0
-32611 -32645 0
32617 32645 0
-32617 -32645 0
32979 33036 0
-32979 -33036 0
32985 33036 0
-32985 -33036 0
32991 33036 0
-32991 -33036 0
32997 33036 0
-32997 -33036 0
32650 32645 0
-32650 -32645 0
32653 33597 0
-32653 -33597 0
33159 33602 0
-33159 -33602 0
33023 33021 0
-33023 -33021 0
33030 33036 0
-33030 -33036 0
33039 33036 0
-33039 -33036 0
33047 33527 0
-33047 -33527 0
33532 33336 0
-33532 -33336 0
33045 33131 0
-33045 -33131 0
33051 33131 0
-33051 -33131 0
33057 33131 0
-33057 -33131 0
33063 33131 0
-33063 -33131 0
33069 33131 0
-33069 -33131 0
33075 33131 0
-33075 -33131 0
33081 33131 0
-33081 -33131 0
33087 33131 0
-33087 -33131 0
33093 33131 0
-33093 -33131 0
33099 33131 0
-33099 -33131 0
33131 32685 0
-33131 -32685 0
32692 33144 0
-32692 -33144 0
33604 32691 0
-33604 -32691 0
32050 32048 0
-32050 -32048 0
32691 32050 0
-32691 -32050 0
33104 33625 0
-33104 -33625 0
32695 33144 0
-32695 -33144 0
33105 33624 0
-33105 -33624 0
32701 33144 0
-32701 -33144 0
33111 33624 0
-33111 -33624 0
32707 33144 0
-32707 -33144 0
33117 33624 0
-33117 -33624 0
32068 32066 0
-32068 -32066 0
33624 32068 0
-33624 -32068 0
32713 33138 0
-32713 -33138 0
33132 33138 0
-33132 -33138 0
33141 33138 0
-33141 -33138 0
32078 32076 0
-32078 -32076 0
33138 32078 0
-33138 -32078 0
32092 32080 0
-32092 -32080 0
32081 32092 0
-32081 -32092 0
32722 33144 0
-32722 -33144 0
32725 33144 0
-32725 -33144 0
32731 33144 0
-32731 -33144 0
33144 32090 0
-33144 -32090 0
32850 32092 0
-32850 -32092 0
32096 32094 0
-32096 -32094 0
33044 32096 0
-33044 -32096 0
32100 32098 0
-32100 -32098 0
33056 32100 0
-33056 -32100 0
32104 32102 0
-32104 -32102 0
33050 32104 0
-33050 -32104 0
32108 32106 0
-32108 -32106 0
33062 32108 0
-33062 -32108 0
32112 32110 0
-32112 -32110 0
32822 32112 0
-32822 -32112 0
32116 32114 0
-32116 -32114 0
33068 32116 0
-33068 -32116 0
32120 32118 0
-32120 -32118 0
33074 32120 0
-33074 -32120 0
32124 32122 0
-32124 -32122 0
33080 32124 0
-33080 -32124 0
32128 32126 0
-32128 -32126 0
33086 32128 0
-33086 -32128 0
32132 32130 0
-32132 -32130 0
33092 32132 0
-33092 -32132 0
32136 32134 0
-32136 -32134 0
33098 32136 0
-33098 -32136 0
32137 32138 0
-32137 -32138 0
32142 32140 0
-32142 -32140 0
32539 32142 0
-32539 -32142 0
32143 32144 0
-32143 -32144 0
-33242 33064 0
-33242 33067 0
33242 -33064 -33067 0
-33245 33070 0
-33245 33073 0
33245 -33070 -33073 0
-33248 33076 0
-33248 33079 0
33248 -33076 -33079 0
-33236 33082 0
-33236 33085 0
33236 -33082 -33085 0
-33239 33088 0
-33239 33091 0
33239 -33088 -33091 0
-33631 33160 0
-33631 32162 0
33631 -33160 -32162 0
-33633 33344 0
-33633 32165 0
33633 -33344 -32165 0
-33346 33348 0
-33346 33349 0
33346 -33348 -33349 0
-33635 33350 0
-33635 32171 0
33635 -33350 -32171 0
-33352 33354 0
-33352 33355 0
33352 -33354 -33355 0
-33637 33166 0
-33637 32177 0
33637 -33166 -32177 0
-33639 33356 0
-33639 32180 0
33639 -33356 -32180 0
-33358 33360 0
-33358 33361 0
33358 -33360 -33361 0
-33348 33341 0
-33348 33165 0
33348 -33341 -33165 0
-33354 33348 0
-33354 33349 0
33354 -33348 -33349 0
-33170 33354 0
-33170 33355 0
33170 -33354 -33355 0
-33360 33170 0
-33360 33171 0
33360 -33170 -33171 0
-33641 33172 0
-33641 32198 0
33641 -33172 -32198 0
-33643 33362 0
-33643 32201 0
33643 -33362 -32201 0
-33364 33366 0
-33364 33367 0
33364 -33366 -33367 0
-33645 33368 0
-33645 32207 0
33645 -33368 -32207 0
-33370 33372 0
-33370 33373 0
33370 -33372 -33373 0
-33647 33374 0
-33647 32213 0
33647 -33374 -32213 0
-33376 33378 0
-33376 33379 0
33376 -33378 -33379 0
-33649 33380 0
-33649 32219 0
33649 -33380 -32219 0
-33382 33384 0
-33382 33385 0
33382 -33384 -33385 0
-33651 33178 0
-33651 32225 0
33651 -33178 -32225 0
-33366 33176 0
-33366 33177 0
33366 -33176 -33177 0
-33372 33366 0
-33372 33367 0
33372 -33366 -33367 0
-33378 33372 0
-33378 33373 0
33378 -33372 -33373 0
-33384 33378 0
-33384 33379 0
33384 -33378 -33379 0
-33182 33384 0
-33182 33385 0
33182 -33384 -33385 0
-32758 33182 0
-32758 32243 0
32758 -33182 -32243 0
-33653 32245 0
-33653 32246 0
33653 -32245 -32246 0
-32861 32747 0
-32861 32750 0
32861 -32747 -32750 0
-33655 33184 0
-33655 32252 0
33655 -33184 -32252 0
-33657 33386 0
-33657 32255 0
33657 -33386 -32255 0
-33388 33390 0
-33388 33391 0
33388 -33390 -33391 0
-33659 33392 0
-33659 32261 0
33659 -33392 -32261 0
-33394 33396 0
-33394 33397 0
33394 -33396 -33397 0
-33390 33188 0
-33390 33189 0
33390 -33188 -33189 0
-33396 33390 0
-33396 33391 0
33396 -33390 -33391 0
-33661 33190 0
-33661 32273 0
33661 -33190 -32273 0
-33663 33196 0
-33663 32276 0
33663 -33196 -32276 0
-33665 33398 0
-33665 32279 0
33665 -33398 -32279 0
-33400 33402 0
-33400 33403 0
33400 -33402 -33403 0
-33200 33472 0
-33200 33195 0
33200 -33472 -33195 0
-33402 33200 0
-33402 33201 0
33402 -33200 -33201 0
-32852 33396 0
-32852 33397 0
32852 -33396 -33397 0
-32885 32293 0
-32885 33396 0
32885 -32293 -33396 0
-32746 33360 0
-32746 33361 0
32746 -33360 -33361 0
-32755 33182 0
-32755 33183 0
32755 -33182 -33183 0
-32967 33402 0
-32967 33403 0
32967 -33402 -33403 0
-32864 33520 0
-32864 33521 0
32864 -33520 -33521 0
-33667 33404 0
-33667 32309 0
33667 -33404 -32309 0
-33406 33441 0
-33406 33409 0
33406 -33441 -33409 0
-33669 33410 0
-33669 32315 0
33669 -33410 -32315 0
-33412 33414 0
-33412 33415 0
33412 -33414 -33415 0
-33671 33416 0
-33671 32321 0
33671 -33416 -32321 0
-33418 33420 0
-33418 33421 0
33418 -33420 -33421 0
-33673 33422 0
-33673 32327 0
33673 -33422 -32327 0
-33424 33426 0
-33424 33427 0
33424 -33426 -33427 0
-32331 33052 0
-32331 33055 0
32331 -33052 -33055 0
-33675 33428 0
-33675 32336 0
33675 -33428 -32336 0
-33430 33432 0
-33430 33433 0
33430 -33432 -33433 0
-33414 33441 0
-33414 33409 0
33414 -33441 -33409 0
-33420 33414 0
-33420 33415 0
33420 -33414 -33415 0
-33426 33420 0
-33426 33421 0
33426 -33420 -33421 0
-33432 33426 0
-33432 33427 0
33432 -33426 -33427 0
-32779 32771 0
-32779 33440 0
32779 -32771 -33440 0
-32785 32774 0
-32785 32777 0
32785 -32774 -32777 0
-32791 32780 0
-32791 32783 0
32791 -32780 -32783 0
-32797 32786 0
-32797 32789 0
32797 -32786 -32789 0
-33677 32367 0
-33677 32366 0
33677 -32367 -32366 0
-32367 32818 0
-32367 32821 0
32367 -32818 -32821 0
-33679 32373 0
-33679 32372 0
33679 -32373 -32372 0
-32373 32824 0
-32373 32827 0
32373 -32824 -32827 0
-33681 32379 0
-33681 32378 0
33681 -32379 -32378 0
-32379 32830 0
-32379 32833 0
32379 -32830 -32833 0
-33683 32385 0
-33683 32384 0
33683 -32385 -32384 0
-32385 32839 0
-32385 32842 0
32385 -32839 -32842 0
-33448 33265 0
-33448 32850 0
33448 -33265 -32850 0
-33445 33263 0
-33445 32850 0
33445 -33263 -32850 0
-33490 32851 0
-33490 32854 0
33490 -32851 -32854 0
-32903 32863 0
-32903 32866 0
32903 -32863 -32866 0
-32876 32869 0
-32876 32872 0
32876 -32869 -32872 0
-33508 33454 0
-33508 33467 0
33508 -33454 -33467 0
-33685 33450 0
-33685 32408 0
33685 -33450 -32408 0
-33452 33454 0
-33452 33455 0
33452 -33454 -33455 0
-33687 33456 0
-33687 32414 0
33687 -33456 -32414 0
-33458 33460 0
-33458 33461 0
33458 -33460 -33461 0
-33689 33462 0
-33689 32420 0
33689 -33462 -32420 0
-33464 33466 0
-33464 33467 0
33464 -33466 -33467 0
-33460 33454 0
-33460 33455 0
33460 -33454 -33455 0
-33466 33460 0
-33466 33461 0
33466 -33460 -33461 0
-32895 33472 0
-32895 33473 0
-32895 33485 0
32895 -33472 -33473 -33485 0
-33691 33468 0
-33691 32436 0
33691 -33468 -32436 0
-33470 33472 0
-33470 33473 0
33470 -33472 -33473 0
-33693 33474 0
-33693 32442 0
33693 -33474 -32442 0
-33476 33478 0
-33476 33479 0
33476 -33478 -33479 0
-33695 33480 0
-33695 32448 0
33695 -33480 -32448 0
-33482 33484 0
-33482 33485 0
33482 -33484 -33485 0
-33478 33472 0
-33478 33473 0
33478 -33472 -33473 0
-33484 33478 0
-33484 33479 0
33484 -33478 -33479 0
-33697 33486 0
-33697 32460 0
33697 -33486 -32460 0
-33488 33490 0
-33488 33491 0
33488 -33490 -33491 0
-33699 33492 0
-33699 32466 0
33699 -33492 -32466 0
-33494 33496 0
-33494 33497 0
33494 -33496 -33497 0
-33701 33498 0
-33701 32472 0
33701 -33498 -32472 0
-33500 33502 0
-33500 33503 0
33500 -33502 -33503 0
-33496 33490 0
-33496 33491 0
33496 -33490 -33491 0
-33502 33490 0
-33502 33497 0
33502 -33490 -33497 0
-32970 33502 0
-32970 33503 0
32970 -33502 -33503 0
-33703 33504 0
-33703 32487 0
33703 -33504 -32487 0
-33506 33508 0
-33506 33509 0
33506 -33508 -33509 0
-33705 33510 0
-33705 32493 0
33705 -33510 -32493 0
-33512 33514 0
-33512 33515 0
33512 -33514 -33515 0
-33707 33516 0
-33707 32499 0
33707 -33516 -32499 0
-33518 33520 0
-33518 33521 0
33518 -33520 -33521 0
-33514 33508 0
-33514 33509 0
33514 -33508 -33509 0
-33520 33508 0
-33520 33515 0
33520 -33508 -33515 0
-32658 32884 0
-32658 32887 0
32658 -32884 -32887 0
-33598 32857 0
-33598 32860 0
33598 -32857 -32860 0
-33218 32875 0
-33218 32878 0
33218 -32875 -32878 0
-33709 32905 0
-33709 32520 0
33709 -32905 -32520 0
-33711 33522 0
-33711 32523 0
33711 -33522 -32523 0
-33523 33532 0
-33523 32949 0
33523 -33532 -32949 0
-33713 32908 0
-33713 32529 0
33713 -32908 -32529 0
-33715 33528 0
-33715 32532 0
33715 -33528 -32532 0
-33529 33532 0
-33529 32535 0
33529 -33532 -32535 0
-33041 32537 0
-33041 32538 0
-33041 32539 0
33041 -32537 -32538 -32539 0
-33717 33534 0
-33717 32542 0
33717 -33534 -32542 0
-33536 33538 0
-33536 33539 0
33536 -33538 -33539 0
-33719 33540 0
-33719 32548 0
33719 -33540 -32548 0
-33542 33544 0
-33542 33545 0
33542 -33544 -33545 0
-33721 33546 0
-33721 32554 0
33721 -33546 -32554 0
-33548 33550 0
-33548 33551 0
33548 -33550 -33551 0
-33723 33552 0
-33723 32560 0
33723 -33552 -32560 0
-33554 33556 0
-33554 33557 0
33554 -33556 -33557 0
-33544 33538 0
-33544 33539 0
33544 -33538 -33539 0
-33550 33544 0
-33550 33545 0
33550 -33544 -33545 0
-33556 33550 0
-33556 33551 0
33556 -33550 -33551 0
-32918 32935 0
-32918 32938 0
32918 -32935 -32938 0
-32924 32941 0
-32924 32944 0
32924 -32941 -32944 0
-32933 32947 0
-32933 32950 0
32933 -32947 -32950 0
-33725 32914 0
-33725 32917 0
33725 -32914 -32917 0
-33727 32920 0
-33727 32923 0
33727 -32920 -32923 0
-33729 32929 0
-33729 32932 0
33729 -32929 -32932 0
-33731 33562 0
-33731 32593 0
33731 -33562 -32593 0
-33564 33566 0
-33564 33567 0
33564 -33566 -33567 0
-33733 33568 0
-33733 32599 0
33733 -33568 -32599 0
-33570 33572 0
-33570 33573 0
33570 -33572 -33573 0
-33735 33574 0
-33735 32605 0
33735 -33574 -32605 0
-33576 33578 0
-33576 33579 0
33576 -33578 -33579 0
-33737 33580 0
-33737 32611 0
33737 -33580 -32611 0
-33582 33584 0
-33582 33585 0
33582 -33584 -33585 0
-33739 33586 0
-33739 32617 0
33739 -33586 -32617 0
-33588 33590 0
-33588 33591 0
33588 -33590 -33591 0
-33572 33566 0
-33572 33567 0
33572 -33566 -33567 0
-33578 33572 0
-33578 33573 0
33578 -33572 -33573 0
-33584 33578 0
-33584 33579 0
33584 -33578 -33579 0
-33590 33584 0
-33590 33585 0
33590 -33584 -33585 0
-33741 32974 0
-33741 32977 0
33741 -32974 -32977 0
-33743 32980 0
-33743 32983 0
33743 -32980 -32983 0
-33745 32986 0
-33745 32989 0
33745 -32986 -32989 0
-33747 32992 0
-33747 32995 0
33747 -32992 -32995 0
-32645 33058 0
-32645 33061 0
32645 -33058 -33061 0
-33749 33013 0
-33749 32650 0
33749 -33013 -32650 0
-33014 33016 0
-33014 32653 0
33014 -33016 -32653 0
-33021 33046 0
-33021 33049 0
33021 -33046 -33049 0
-33566 32658 0
-33566 33599 0
33566 -32658 -33599 0
-33751 33025 0
-33751 33028 0
33751 -33025 -33028 0
-33753 33034 0
-33753 33037 0
33753 -33034 -33037 0
-33207 33094 0
-33207 33097 0
33207 -33094 -33097 0
-33217 33040 0
-33217 33043 0
33217 -33040 -33043 0
-33616 32746 0
-33616 33104 0
33616 -32746 -33104 0
-33617 32755 0
-33617 33110 0
33617 -32755 -33110 0
-33618 32967 0
-33618 33116 0
33618 -32967 -33116 0
-33619 32864 0
-33619 33113 0
33619 -32864 -33113 0
-32927 32685 0
-32927 33266 0
32927 -32685 -33266 0
-33032 32688 0
-33032 33266 0
33032 -32688 -33266 0
-33755 32691 0
-33755 32692 0
33755 -32691 -32692 0
-33757 32696 0
-33757 32695 0
33757 -32696 -32695 0
-32696 33100 0
-32696 33103 0
32696 -33100 -33103 0
-33759 32702 0
-33759 32701 0
33759 -32702 -32701 0
-32702 33106 0
-32702 33109 0
32702 -33106 -33109 0
-33761 32708 0
-33761 32707 0
33761 -32708 -32707 0
-32708 33112 0
-32708 33115 0
32708 -33112 -33115 0
-33607 33121 0
-33607 32713 0
33607 -33121 -32713 0
-33610 33127 0
-33610 33130 0
33610 -33127 -33130 0
-33613 33136 0
-33613 33139 0
33613 -33136 -33139 0
-33769 33202 0
-33769 32722 0
33769 -33202 -32722 0
-33771 33620 0
-33771 32725 0
33771 -33620 -32725 0
-33621 33624 0
-33621 33113 0
33621 -33624 -33113 0
-33773 33600 0
-33773 32731 0
33773 -33600 -32731 0
33162 -33341 0
33162 -33165 0
-33162 33341 33165 0
33168 -33170 0
33168 -33171 0
-33168 33170 33171 0
33174 -33176 0
33174 -33177 0
-33174 33176 33177 0
33180 -33182 0
33180 -33183 0
-33180 33182 33183 0
33176 -33137 0
33176 -32746 0
-33176 33137 32746 0
32747 -33183 0
32747 -33137 0
-32747 33183 33137 0
32750 -32879 0
32750 -32752 0
-32750 32879 32752 0
33472 -33137 0
33472 -32755 0
-33472 33137 32755 0
32888 -33137 0
32888 -32758 0
-32888 33137 32758 0
33186 -33188 0
33186 -33189 0
-33186 33188 33189 0
33192 -33472 0
33192 -33195 0
-33192 33472 33195 0
33198 -33200 0
33198 -33201 0
-33198 33200 33201 0
33204 -33217 0
33204 -33212 0
-33204 33217 33212 0
32771 -33242 0
32771 -33409 0
-32771 33242 33409 0
32774 -33245 0
32774 -33415 0
-32774 33245 33415 0
32777 -33439 0
32777 -32779 0
-32777 33439 32779 0
32780 -33248 0
32780 -33421 0
-32780 33248 33421 0
32783 -33437 0
32783 -32785 0
-32783 33437 32785 0
32786 -33236 0
32786 -33427 0
-32786 33236 33427 0
32789 -33436 0
32789 -32791 0
-32789 33436 32791 0
33342 -33239 0
33342 -33433 0
-33342 33239 33433 0
33343 -33435 0
33343 -32797 0
-33343 33435 32797 0
33221 -33409 0
33221 -33242 0
-33221 33409 33242 0
33224 -33415 0
33224 -33245 0
-33224 33415 33245 0
33227 -33421 0
33227 -33248 0
-33227 33421 33248 0
33230 -33427 0
33230 -33236 0
-33230 33427 33236 0
33233 -33433 0
33233 -33239 0
-33233 33433 33239 0
32846 -33256 0
32846 -33257 0
32846 -33258 0
32846 -33259 0
-32846 33256 33257 33258 33259 0
32818 -33259 0
32818 -32841 0
-32818 33259 32841 0
32821 -32822 0
32821 -32823 0
-32821 32822 32823 0
32824 -33258 0
32824 -32841 0
-32824 33258 32841 0
32827 -33259 0
32827 -32829 0
-32827 33259 32829 0
32830 -33257 0
32830 -32841 0
-32830 33257 32841 0
32833 -33258 0
32833 -32835 0
-32833 33258 32835 0
32841 -32895 0
32841 -33140 0
-32841 32895 33140 0
32839 -33256 0
32839 -32841 0
-32839 33256 32841 0
32842 -33257 0
32842 -32844 0
-32842 33257 32844 0
33261 -32846 0
33261 -32850 0
-33261 32846 32850 0
33264 -33442 0
33264 -32850 0
-33264 33442 32850 0
32851 -32852 0
32851 -32886 0
-32851 32852 32886 0
32854 -33472 0
32854 -32856 0
-32854 33472 32856 0
32857 -33397 0
32857 -32886 0
-32857 33397 32886 0
32860 -32861 0
32860 -32862 0
-32860 32861 32862 0
32863 -32864 0
32863 -33140 0
-32863 32864 33140 0
32866 -32970 0
32866 -32868 0
-32866 32970 32868 0
32869 -33521 0
32869 -33140 0
-32869 33521 33140 0
32872 -33503 0
32872 -32874 0
-32872 33503 32874 0
32875 -32876 0
32875 -33131 0
-32875 32876 33131 0
32878 -32879 0
32878 -32880 0
-32878 32879 32880 0
32886 -33041 0
32886 -33131 0
-32886 33041 33131 0
32884 -32885 0
32884 -32886 0
-32884 32885 32886 0
32887 -32888 0
32887 -32889 0
-32887 32888 32889 0
32890 -33144 0
32890 -33508 0
-32890 33144 33508 0
32893 -33144 0
32893 -32895 0
-32893 33144 32895 0
32896 -33144 0
32896 -33502 0
-32896 33144 33502 0
32899 -33144 0
32899 -33520 0
-32899 33144 33520 0
33538 -32903 0
33538 -33131 0
-33538 32903 33131 0
32905 -33598 0
32905 -32907 0
-32905 33598 32907 0
32908 -33532 0
32908 -32910 0
-32908 33532 32910 0
33095 -33335 0
33095 -33599 0
-33095 33335 33599 0
32914 -33559 0
32914 -32931 0
-32914 33559 32931 0
32917 -32918 0
32917 -32919 0
-32917 32918 32919 0
32920 -33560 0
32920 -32931 0
-32920 33560 32931 0
32923 -32924 0
32923 -32925 0
-32923 32924 32925 0
32931 -32927 0
32931 -33144 0
-32931 32927 33144 0
32929 -33561 0
32929 -32931 0
-32929 33561 32931 0
32932 -32933 0
32932 -32934 0
-32932 32933 32934 0
32935 -33086 0
32935 -32949 0
-32935 33086 32949 0
32938 -33068 0
32938 -32940 0
-32938 33068 32940 0
32941 -33092 0
32941 -32949 0
-32941 33092 32949 0
32944 -33074 0
32944 -32946 0
-32944 33074 32946 0
32947 -33098 0
32947 -32949 0
-32947 33098 32949 0
32950 -33080 0
32950 -32952 0
-32950 33080 32952 0
33271 -33559 0
33271 -33539 0
-33271 33559 33539 0
33274 -33560 0
33274 -33545 0
-33274 33560 33545 0
33277 -33561 0
33277 -33551 0
-33277 33561 33551 0
33280 -33558 0
33280 -33557 0
-33280 33558 33557 0
33188 -33140 0
33188 -32967 0
-33188 33140 32967 0
33454 -33140 0
33454 -32970 0
-33454 33140 32970 0
33599 -33293 0
33599 -33297 0
-33599 33293 33297 0
32974 -33593 0
32974 -33036 0
-32974 33593 33036 0
32977 -33044 0
32977 -32979 0
-32977 33044 32979 0
32980 -33594 0
32980 -33036 0
-32980 33594 33036 0
32983 -33056 0
32983 -32985 0
-32983 33056 32985 0
32986 -33595 0
32986 -33036 0
-32986 33595 33036 0
32989 -33050 0
32989 -32991 0
-32989 33050 32991 0
32992 -33596 0
32992 -33036 0
-32992 33596 33036 0
32995 -33062 0
32995 -32997 0
-32995 33062 32997 0
33302 -33593 0
33302 -33567 0
-33302 33593 33567 0
33305 -33594 0
33305 -33573 0
-33305 33594 33573 0
33308 -33595 0
33308 -33579 0
-33308 33595 33579 0
33311 -33596 0
33311 -33585 0
-33311 33596 33585 0
33314 -33592 0
33314 -33591 0
-33314 33592 33591 0
33013 -33014 0
33013 -33566 0
-33013 33014 33566 0
33016 -33335 0
33016 -33597 0
-33016 33335 33597 0
33331 -33035 0
33331 -33021 0
-33331 33035 33021 0
33332 -33023 0
33332 -33026 0
-33332 33023 33026 0
33025 -33026 0
33025 -33036 0
-33025 33026 33036 0
33028 -33138 0
33028 -33030 0
-33028 33138 33030 0
33036 -33032 0
33036 -33144 0
-33036 33032 33144 0
33034 -33035 0
33034 -33036 0
-33034 33035 33036 0
33037 -33624 0
33037 -33039 0
-33037 33624 33039 0
33040 -33041 0
33040 -33131 0
-33040 33041 33131 0
33043 -33044 0
33043 -33045 0
-33043 33044 33045 0
33046 -33047 0
33046 -33131 0
-33046 33047 33131 0
33049 -33050 0
33049 -33051 0
-33049 33050 33051 0
33052 -33266 0
33052 -33131 0
-33052 33266 33131 0
33055 -33056 0
33055 -33057 0
-33055 33056 33057 0
33058 -33266 0
33058 -33131 0
-33058 33266 33131 0
33061 -33062 0
33061 -33063 0
-33061 33062 33063 0
33064 -33145 0
33064 -33131 0
-33064 33145 33131 0
33067 -33068 0
33067 -33069 0
-33067 33068 33069 0
33070 -33148 0
33070 -33131 0
-33070 33148 33131 0
33073 -33074 0
33073 -33075 0
-33073 33074 33075 0
33076 -33151 0
33076 -33131 0
-33076 33151 33131 0
33079 -33080 0
33079 -33081 0
-33079 33080 33081 0
33082 -33154 0
33082 -33131 0
-33082 33154 33131 0
33085 -33086 0
33085 -33087 0
-33085 33086 33087 0
33088 -33157 0
33088 -33131 0
-33088 33157 33131 0
33091 -33092 0
33091 -33093 0
-33091 33092 33093 0
33094 -33095 0
33094 -33131 0
-33094 33095 33131 0
33097 -33098 0
33097 -33099 0
-33097 33098 33099 0
33100 -33110 0
33100 -33624 0
-33100 33110 33624 0
33103 -33104 0
33103 -33105 0
-33103 33104 33105 0
33106 -33116 0
33106 -33624 0
-33106 33116 33624 0
33109 -33110 0
33109 -33111 0
-33109 33110 33111 0
33112 -33113 0
33112 -33624 0
-33112 33113 33624 0
33115 -33116 0
33115 -33117 0
-33115 33116 33117 0
33763 -33606 0
33763 -33142 0
-33763 33606 33142 0
33121 -33131 0
33121 -33138 0
-33121 33131 33138 0
33765 -33609 0
33765 -33142 0
-33765 33609 33142 0
33127 -33140 0
33127 -33138 0
-33127 33140 33138 0
33130 -33131 0
33130 -33132 0
-33130 33131 33132 0
33767 -33612 0
33767 -33142 0
-33767 33612 33142 0
33136 -33137 0
33136 -33138 0
-33136 33137 33138 0
33139 -33140 0
33139 -33141 0
-33139 33140 33141 0
33142 -33604 0
33142 -33144 0
-33142 33604 33144 0
33145 33567 0
33145 33159 0
-33145 -33567 -33159 0
33148 33573 0
33148 33159 0
-33148 -33573 -33159 0
33151 33579 0
33151 33159 0
-33151 -33579 -33159 0
33154 33585 0
33154 33159 0
-33154 -33585 -33159 0
33157 33591 0
33157 33159 0
-33157 -33591 -33159 0
33160 33163 0
33160 33162 0
-33160 -33163 -33162 0
33163 33341 0
33163 33165 0
-33163 -33341 -33165 0
33166 33169 0
33166 33168 0
-33166 -33169 -33168 0
33169 33170 0
33169 33171 0
-33169 -33170 -33171 0
33172 33175 0
33172 33174 0
-33172 -33175 -33174 0
33175 33176 0
33175 33177 0
-33175 -33176 -33177 0
33178 33181 0
33178 33180 0
-33178 -33181 -33180 0
33181 33182 0
33181 33183 0
-33181 -33182 -33183 0
33184 33187 0
33184 33186 0
-33184 -33187 -33186 0
33187 33188 0
33187 33189 0
-33187 -33188 -33189 0
33190 33193 0
33190 33192 0
-33190 -33193 -33192 0
33193 33472 0
33193 33195 0
-33193 -33472 -33195 0
33196 33199 0
33196 33198 0
-33196 -33199 -33198 0
33199 33200 0
33199 33201 0
-33199 -33200 -33201 0
33202 33216 0
33202 33204 0
-33202 -33216 -33204 0
33215 33598 0
33215 33207 0
-33215 -33598 -33207 0
33214 33209 0
33214 33252 0
33214 33598 0
-33214 -33209 -33252 -33598 0
33212 33341 0
33212 33214 0
33212 33215 0
-33212 -33341 -33214 -33215 0
33216 33217 0
33216 33218 0
-33216 -33217 -33218 0
33440 33240 0
33440 33221 0
-33440 -33240 -33221 0
33439 33243 0
33439 33224 0
-33439 -33243 -33224 0
33437 33246 0
33437 33227 0
-33437 -33246 -33227 0
33436 33234 0
33436 33230 0
-33436 -33234 -33230 0
33435 33237 0
33435 33233 0
-33435 -33237 -33233 0
33234 33427 0
33234 33236 0
-33234 -33427 -33236 0
33237 33433 0
33237 33239 0
-33237 -33433 -33239 0
33240 33409 0
33240 33242 0
-33240 -33409 -33242 0
33243 33415 0
33243 33245 0
-33243 -33415 -33245 0
33246 33421 0
33246 33248 0
-33246 -33421 -33248 0
33253 33434 0
33253 33438 0
-33253 -33434 -33438 0
33252 33253 0
33252 33341 0
-33252 -33253 -33341 0
33442 33256 0
33442 33257 0
33442 33258 0
33442 33259 0
-33442 -33256 -33257 -33258 -33259 0
33265 33261 0
33265 33262 0
-33265 -33261 -33262 0
33263 33264 0
33263 33265 0
-33263 -33264 -33265 0
33266 33267 0
33266 33336 0
-33266 -33267 -33336 0
33337 33281 0
33337 33271 0
-33337 -33281 -33271 0
33338 33284 0
33338 33274 0
-33338 -33284 -33274 0
33339 33287 0
33339 33277 0
-33339 -33287 -33277 0
33340 33290 0
33340 33280 0
-33340 -33290 -33280 0
33281 33559 0
33281 33539 0
-33281 -33559 -33539 0
33284 33560 0
33284 33545 0
-33284 -33560 -33545 0
33287 33561 0
33287 33551 0
-33287 -33561 -33551 0
33290 33558 0
33290 33557 0
-33290 -33558 -33557 0
33293 33300 0
33293 33303 0
33293 33306 0
-33293 -33300 -33303 -33306 0
33297 33309 0
33297 33312 0
-33297 -33309 -33312 0
33300 33315 0
33300 33302 0
-33300 -33315 -33302 0
33303 33318 0
33303 33305 0
-33303 -33318 -33305 0
33306 33321 0
33306 33308 0
-33306 -33321 -33308 0
33309 33324 0
33309 33311 0
-33309 -33324 -33311 0
33312 33327 0
33312 33314 0
-33312 -33327 -33314 0
33315 33593 0
33315 33567 0
-33315 -33593 -33567 0
33318 33594 0
33318 33573 0
-33318 -33594 -33573 0
33321 33595 0
33321 33579 0
-33321 -33595 -33579 0
33324 33596 0
33324 33585 0
-33324 -33596 -33585 0
33327 33592 0
33327 33591 0
-33327 -33592 -33591 0
33602 33331 0
33602 33332 0
-33602 -33331 -33332 0
33601 33598 0
33601 33335 0
-33601 -33598 -33335 0
33336 33337 0
33336 33338 0
33336 33339 0
33336 33340 0
-33336 -33337 -33338 -33339 -33340 0
33341 33342 0
33341 33343 0
-33341 -33342 -33343 0
-33344 -33347 0
-33344 -33346 0
33344 33347 33346 0
-33347 -33348 0
-33347 -33349 0
33347 33348 33349 0
-33350 -33353 0
-33350 -33352 0
33350 33353 33352 0
-33353 -33354 0
-33353 -33355 0
33353 33354 33355 0
-33356 -33359 0
-33356 -33358 0
33356 33359 33358 0
-33359 -33360 0
-33359 -33361 0
33359 33360 33361 0
-33362 -33365 0
-33362 -33364 0
33362 33365 33364 0
-33365 -33366 0
-33365 -33367 0
33365 33366 33367 0
-33368 -33371 0
-33368 -33370 0
33368 33371 33370 0
-33371 -33372 0
-33371 -33373 0
33371 33372 33373 0
-33374 -33377 0
-33374 -33376 0
33374 33377 33376 0
-33377 -33378 0
-33377 -33379 0
33377 33378 33379 0
-33380 -33383 0
-33380 -33382 0
33380 33383 33382 0
-33383 -33384 0
-33383 -33385 0
33383 33384 33385 0
-33386 -33389 0
-33386 -33388 0
33386 33389 33388 0
-33389 -33390 0
-33389 -33391 0
33389 33390 33391 0
-33392 -33395 0
-33392 -33394 0
33392 33395 33394 0
-33395 -33396 0
-33395 -33397 0
33395 33396 33397 0
-33398 -33401 0
-33398 -33400 0
33398 33401 33400 0
-33401 -33402 0
-33401 -33403 0
33401 33402 33403 0
-33404 -33407 0
-33404 -33406 0
33404 33407 33406 0
-33407 -33441 0
-33407 -33409 0
33407 33441 33409 0
-33410 -33413 0
-33410 -33412 0
33410 33413 33412 0
-33413 -33414 0
-33413 -33415 0
33413 33414 33415 0
-33416 -33419 0
-33416 -33418 0
33416 33419 33418 0
-33419 -33420 0
-33419 -33421 0
33419 33420 33421 0
-33422 -33425 0
-33422 -33424 0
33422 33425 33424 0
-33425 -33426 0
-33425 -33427 0
33425 33426 33427 0
-33428 -33431 0
-33428 -33430 0
33428 33431 33430 0
-33431 -33432 0
-33431 -33433 0
33431 33432 33433 0
-33434 -33435 0
-33434 -33436 0
-33434 -33437 0
33434 33435 33436 33437 0
-33438 -33439 0
-33438 -33440 0
33438 33439 33440 0
-33441 -33442 0
-33441 -33447 0
33441 33442 33447 0
-33449 -33445 0
-33449 -33446 0
33449 33445 33446 0
-33447 -33448 0
-33447 -33449 0
33447 33448 33449 0
-33450 -33453 0
-33450 -33452 0
33450 33453 33452 0
-33453 -33454 0
-33453 -33455 0
33453 33454 33455 0
-33456 -33459 0
-33456 -33458 0
33456 33459 33458 0
-33459 -33460 0
-33459 -33461 0
33459 33460 33461 0
-33462 -33465 0
-33462 -33464 0
33462 33465 33464 0
-33465 -33466 0
-33465 -33467 0
33465 33466 33467 0
-33468 -33471 0
-33468 -33470 0
33468 33471 33470 0
-33471 -33472 0
-33471 -33473 0
33471 33472 33473 0
-33474 -33477 0
-33474 -33476 0
33474 33477 33476 0
-33477 -33478 0
-33477 -33479 0
33477 33478 33479 0
-33480 -33483 0
-33480 -33482 0
33480 33483 33482 0
-33483 -33484 0
-33483 -33485 0
33483 33484 33485 0
-33486 -33489 0
-33486 -33488 0
33486 33489 33488 0
-33489 -33490 0
-33489 -33491 0
33489 33490 33491 0
-33492 -33495 0
-33492 -33494 0
33492 33495 33494 0
-33495 -33496 0
-33495 -33497 0
33495 33496 33497 0
-33498 -33501 0
-33498 -33500 0
33498 33501 33500 0
-33501 -33502 0
-33501 -33503 0
33501 33502 33503 0
-33504 -33507 0
-33504 -33506 0
33504 33507 33506 0
-33507 -33508 0
-33507 -33509 0
33507 33508 33509 0
-33510 -33513 0
-33510 -33512 0
33510 33513 33512 0
-33513 -33514 0
-33513 -33515 0
33513 33514 33515 0
-33516 -33519 0
-33516 -33518 0
33516 33519 33518 0
-33519 -33520 0
-33519 -33521 0
33519 33520 33521 0
-33522 -33523 0
-33522 -33525 0
33522 33523 33525 0
-33525 -33532 0
-33525 -33527 0
33525 33532 33527 0
-33528 -33529 0
-33528 -33531 0
33528 33529 33531 0
-33531 -33532 0
-33531 -33533 0
33531 33532 33533 0
-33534 -33537 0
-33534 -33536 0
33534 33537 33536 0
-33537 -33538 0
-33537 -33539 0
33537 33538 33539 0
-33540 -33543 0
-33540 -33542 0
33540 33543 33542 0
-33543 -33544 0
-33543 -33545 0
33543 33544 33545 0
-33546 -33549 0
-33546 -33548 0
33546 33549 33548 0
-33549 -33550 0
-33549 -33551 0
33549 33550 33551 0
-33552 -33555 0
-33552 -33554 0
33552 33555 33554 0
-33555 -33556 0
-33555 -33557 0
33555 33556 33557 0
-33558 -33559 0
-33558 -33560 0
-33558 -33561 0
33558 33559 33560 33561 0
-33562 -33565 0
-33562 -33564 0
33562 33565 33564 0
-33565 -33566 0
-33565 -33567 0
33565 33566 33567 0
-33568 -33571 0
-33568 -33570 0
33568 33571 33570 0
-33571 -33572 0
-33571 -33573 0
33571 33572 33573 0
-33574 -33577 0
-33574 -33576 0
33574 33577 33576 0
-33577 -33578 0
-33577 -33579 0
33577 33578 33579 0
-33580 -33583 0
-33580 -33582 0
33580 33583 33582 0
-33583 -33584 0
-33583 -33585 0
33583 33584 33585 0
-33586 -33589 0
-33586 -33588 0
33586 33589 33588 0
-33589 -33590 0
-33589 -33591 0
33589 33590 33591 0
-33592 -33593 0
-33592 -33594 0
-33592 -33595 0
-33592 -33596 0
33592 33593 33594 33595 33596 0
-33597 -33598 0
-33597 -33599 0
33597 33598 33599 0
-33600 -33601 0
-33600 -33602 0
33600 33601 33602 0
-33614 -33604 0
-33614 -33605 0
33614 33604 33605 0
-33606 -33607 0
-33606 -33614 0
33606 33607 33614 0
-33609 -33610 0
-33609 -33614 0
33609 33610 33614 0
-33612 -33613 0
-33612 -33614 0
33612 33613 33614 0
-33615 -33616 0
-33615 -33617 0
-33615 -33618 0
-33615 -33619 0
33615 33616 33617 33618 33619 0
-33620 -33621 0
-33620 -33623 0
33620 33621 33623 0
-33623 -33624 0
-33623 -33625 0
33623 33624 33625 0
-33627 35219 0
33627 -35219 0
-33629 35403 0
33629 -35403 0
-33631 33785 0
33631 -33785 0
-33633 35306 0
33633 -35306 0
-33635 35312 0
33635 -35312 0
-33637 33793 0
33637 -33793 0
-33639 35318 0
33639 -35318 0
-33641 33799 0
33641 -33799 0
-33643 35324 0
33643 -35324 0
-33645 35330 0
33645 -35330 0
-33647 35336 0
33647 -35336 0
-33649 35342 0
33649 -35342 0
-33651 34200 0
33651 -34200 0
-33653 34836 0
33653 -34836 0
-33655 33823 0
33655 -33823 0
-33657 35348 0
33657 -35348 0
-33659 35354 0
33659 -35354 0
-33661 33833 0
33661 -33833 0
-33663 33837 0
33663 -33837 0
-33665 35360 0
33665 -35360 0
-33667 35366 0
33667 -35366 0
-33669 35372 0
33669 -35372 0
-33671 35378 0
33671 -35378 0
-33673 35384 0
33673 -35384 0
-33675 35390 0
33675 -35390 0
-33677 35216 0
33677 -35216 0
-33679 35215 0
33679 -35215 0
-33681 35214 0
33681 -35214 0
-33683 35213 0
33683 -35213 0
-33685 35412 0
33685 -35412 0
-33687 35418 0
33687 -35418 0
-33689 35424 0
33689 -35424 0
-33691 35430 0
33691 -35430 0
-33693 35436 0
33693 -35436 0
-33695 35442 0
33695 -35442 0
-33697 35448 0
33697 -35448 0
-33699 35454 0
33699 -35454 0
-33701 35460 0
33701 -35460 0
-33703 35466 0
33703 -35466 0
-33705 35472 0
33705 -35472 0
-33707 35478 0
33707 -35478 0
-33709 34864 0
33709 -34864 0
-33711 35484 0
33711 -35484 0
-33713 34867 0
33713 -34867 0
-33715 35490 0
33715 -35490 0
-33717 35496 0
33717 -35496 0
-33719 35502 0
33719 -35502 0
-33721 35508 0
33721 -35508 0
-33723 35514 0
33723 -35514 0
-33725 35516 0
33725 -35516 0
-33727 35517 0
33727 -35517 0
-33729 35518 0
33729 -35518 0
-33731 35524 0
33731 -35524 0
-33733 35530 0
33733 -35530 0
-33735 35536 0
33735 -35536 0
-33737 35542 0
33737 -35542 0
-33739 35548 0
33739 -35548 0
-33741 35550 0
33741 -35550 0
-33743 35551 0
33743 -35551 0
-33745 35552 0
33745 -35552 0
-33747 35553 0
33747 -35553 0
-33749 35292 0
33749 -35292 0
-33751 34983 0
33751 -34983 0
-33753 34992 0
33753 -34992 0
-33755 35562 0
33755 -35562 0
-33757 35067 0
33757 -35067 0
-33759 35073 0
33759 -35073 0
-33761 35070 0
33761 -35070 0
-33763 34642 0
33763 -34642 0
-33765 34645 0
33765 -34645 0
-33767 33819 0
33767 -33819 0
-33769 34095 0
33769 -34095 0
-33771 35582 0
33771 -35582 0
-33773 34101 0
33773 -34101 0
33777 35220 0
-33777 -35220 0
35584 33777 0
-35584 -33777 0
33781 35404 0
-33781 -35404 0
35586 33781 0
-35586 -33781 0
34119 35101 0
-34119 -35101 0
35122 33785 0
-35122 -33785 0
34122 35101 0
-34122 -35101 0
34128 35101 0
-34128 -35101 0
34134 35101 0
-34134 -35101 0
35128 33793 0
-35128 -33793 0
34137 35101 0
-34137 -35101 0
34155 35101 0
-34155 -35101 0
35134 33799 0
-35134 -33799 0
34158 35101 0
-34158 -35101 0
34164 35101 0
-34164 -35101 0
34170 35101 0
-34170 -35101 0
34176 35101 0
-34176 -35101 0
34182 35101 0
-34182 -35101 0
34203 35101 0
-34203 -35101 0
34202 34836 0
-34202 -34836 0
35140 34200 0
-35140 -34200 0
34709 35094 0
-34709 -35094 0
35094 33819 0
-35094 -33819 0
34209 35101 0
-34209 -35101 0
35146 33823 0
-35146 -33823 0
34212 35101 0
-34212 -35101 0
34218 35101 0
-34218 -35101 0
34250 35354 0
-34250 -35354 0
34230 35101 0
-34230 -35101 0
35152 33833 0
-35152 -33833 0
34233 35101 0
-34233 -35101 0
35158 33837 0
-35158 -33837 0
34236 35101 0
-34236 -35101 0
34266 34288 0
-34266 -34288 0
34272 34288 0
-34272 -34288 0
34278 34288 0
-34278 -34288 0
34284 34288 0
-34284 -34288 0
34293 34288 0
-34293 -34288 0
35166 35210 0
-35166 -35210 0
34323 35101 0
-34323 -35101 0
34780 34798 0
-34780 -34798 0
34329 35101 0
-34329 -35101 0
34786 34798 0
-34786 -34798 0
34335 35101 0
-34335 -35101 0
34792 34798 0
-34792 -34798 0
34341 35101 0
-34341 -35101 0
34801 34798 0
-34801 -34798 0
34813 34843 0
-34813 -34843 0
34819 34843 0
-34819 -34843 0
34825 35097 0
-34825 -35097 0
34831 35097 0
-34831 -35097 0
35097 34645 0
-35097 -34645 0
34837 35088 0
-34837 -35088 0
34846 34843 0
-34846 -34843 0
34365 34847 0
-34365 -34847 0
34371 34847 0
-34371 -34847 0
34377 34847 0
-34377 -34847 0
34393 34850 0
-34393 -34850 0
34399 34850 0
-34399 -34850 0
34405 34850 0
-34405 -34850 0
34417 34853 0
-34417 -34853 0
34423 34853 0
-34423 -34853 0
34429 35101 0
-34429 -35101 0
34444 34856 0
-34444 -34856 0
34450 34856 0
-34450 -34856 0
34456 35101 0
-34456 -35101 0
34477 35101 0
-34477 -35101 0
34480 35101 0
-34480 -35101 0
34492 34867 0
-34492 -34867 0
34486 35101 0
-34486 -35101 0
34495 35490 0
-34495 -35490 0
34489 35101 0
-34489 -35101 0
34494 35052 0
-34494 -35052 0
34499 35223 0
-34499 -35223 0
34505 35223 0
-34505 -35223 0
34511 35223 0
-34511 -35223 0
34517 35223 0
-34517 -35223 0
35224 35101 0
-35224 -35101 0
34876 34888 0
-34876 -34888 0
34882 34888 0
-34882 -34888 0
34891 34888 0
-34891 -34888 0
34897 34906 0
-34897 -34906 0
34903 34906 0
-34903 -34906 0
34909 34906 0
-34909 -34906 0
34906 34864 0
-34906 -34864 0
34550 34602 0
-34550 -34602 0
34556 34602 0
-34556 -34602 0
34562 34602 0
-34562 -34602 0
34568 34602 0
-34568 -34602 0
34574 34602 0
-34574 -34602 0
34936 34993 0
-34936 -34993 0
34942 34993 0
-34942 -34993 0
34948 34993 0
-34948 -34993 0
34954 34993 0
-34954 -34993 0
34607 34602 0
-34607 -34602 0
34610 35554 0
-34610 -35554 0
35116 35559 0
-35116 -35559 0
34980 34978 0
-34980 -34978 0
34987 34993 0
-34987 -34993 0
34996 34993 0
-34996 -34993 0
35004 35484 0
-35004 -35484 0
35489 35293 0
-35489 -35293 0
35002 35088 0
-35002 -35088 0
35008 35088 0
-35008 -35088 0
35014 35088 0
-35014 -35088 0
35020 35088 0
-35020 -35088 0
35026 35088 0
-35026 -35088 0
35032 35088 0
-35032 -35088 0
35038 35088 0
-35038 -35088 0
35044 35088 0
-35044 -35088 0
35050 35088 0
-35050 -35088 0
35056 35088 0
-35056 -35088 0
35088 34642 0
-35088 -34642 0
34649 35101 0
-34649 -35101 0
35561 34648 0
-35561 -34648 0
34007 34005 0
-34007 -34005 0
34648 34007 0
-34648 -34007 0
35061 35582 0
-35061 -35582 0
34652 35101 0
-34652 -35101 0
35062 35581 0
-35062 -35581 0
34658 35101 0
-34658 -35101 0
35068 35581 0
-35068 -35581 0
34664 35101 0
-34664 -35101 0
35074 35581 0
-35074 -35581 0
34025 34023 0
-34025 -34023 0
35581 34025 0
-35581 -34025 0
34670 35095 0
-34670 -35095 0
35089 35095 0
-35089 -35095 0
35098 35095 0
-35098 -35095 0
34035 34033 0
-34035 -34033 0
35095 34035 0
-35095 -34035 0
34049 34037 0
-34049 -34037 0
34038 34049 0
-34038 -34049 0
34679 35101 0
-34679 -35101 0
34682 35101 0
-34682 -35101 0
34688 35101 0
-34688 -35101 0
35101 34047 0
-35101 -34047 0
34807 34049 0
-34807 -34049 0
34053 34051 0
-34053 -34051 0
35001 34053 0
-35001 -34053 0
34057 34055 0
-34057 -34055 0
35013 34057 0
-35013 -34057 0
34061 34059 0
-34061 -34059 0
35007 34061 0
-35007 -34061 0
34065 34063 0
-34065 -34063 0
35019 34065 0
-35019 -34065 0
34069 34067 0
-34069 -34067 0
34779 34069 0
-34779 -34069 0
34073 34071 0
-34073 -34071 0
35025 34073 0
-35025 -34073 0
34077 34075 0
-34077 -34075 0
35031 34077 0
-35031 -34077 0
34081 34079 0
-34081 -34079 0
35037 34081 0
-35037 -34081 0
34085 34083 0
-34085 -34083 0
35043 34085 0
-35043 -34085 0
34089 34087 0
-34089 -34087 0
35049 34089 0
-35049 -34089 0
34093 34091 0
-34093 -34091 0
35055 34093 0
-35055 -34093 0
34094 34095 0
-34094 -34095 0
34099 34097 0
-34099 -34097 0
34496 34099 0
-34496 -34099 0
34100 34101 0
-34100 -34101 0
-35199 35021 0
-35199 35024 0
35199 -35021 -35024 0
-35202 35027 0
-35202 35030 0
35202 -35027 -35030 0
-35205 35033 0
-35205 35036 0
35205 -35033 -35036 0
-35193 35039 0
-35193 35042 0
35193 -35039 -35042 0
-35196 35045 0
-35196 35048 0
35196 -35045 -35048 0
-35588 35117 0
-35588 34119 0
35588 -35117 -34119 0
-35590 35301 0
-35590 34122 0
35590 -35301 -34122 0
-35303 35305 0
-35303 35306 0
35303 -35305 -35306 0
-35592 35307 0
-35592 34128 0
35592 -35307 -34128 0
-35309 35311 0
-35309 35312 0
35309 -35311 -35312 0
-35594 35123 0
-35594 34134 0
35594 -35123 -34134 0
-35596 35313 0
-35596 34137 0
35596 -35313 -34137 0
-35315 35317 0
-35315 35318 0
35315 -35317 -35318 0
-35305 35298 0
-35305 35122 0
35305 -35298 -35122 0
-35311 35305 0
-35311 35306 0
35311 -35305 -35306 0
-35127 35311 0
-35127 35312 0
35127 -35311 -35312 0
-35317 35127 0
-35317 35128 0
35317 -35127 -35128 0
-35598 35129 0
-35598 34155 0
35598 -35129 -34155 0
-35600 35319 0
-35600 34158 0
35600 -35319 -34158 0
-35321 35323 0
-35321 35324 0
35321 -35323 -35324 0
-35602 35325 0
-35602 34164 0
35602 -35325 -34164 0
-35327 35329 0
-35327 35330 0
35327 -35329 -35330 0
-35604 35331 0
-35604 34170 0
35604 -35331 -34170 0
-35333 35335 0
-35333 35336 0
35333 -35335 -35336 0
-35606 35337 0
-35606 34176 0
35606 -35337 -34176 0
-35339 35341 0
-35339 35342 0
35339 -35341 -35342 0
-35608 35135 0
-35608 34182 0
35608 -35135 -34182 0
-35323 35133 0
-35323 35134 0
35323 -35133 -35134 0
-35329 35323 0
-35329 35324 0
35329 -35323 -35324 0
-35335 35329 0
-35335 35330 0
35335 -35329 -35330 0
-35341 35335 0
-35341 35336 0
35341 -35335 -35336 0
-35139 35341 0
-35139 35342 0
35139 -35341 -35342 0
-34715 35139 0
-34715 34200 0
34715 -35139 -34200 0
-35610 34202 0
-35610 34203 0
35610 -34202 -34203 0
-34818 34704 0
-34818 34707 0
34818 -34704 -34707 0
-35612 35141 0
-35612 34209 0
35612 -35141 -34209 0
-35614 35343 0
-35614 34212 0
35614 -35343 -34212 0
-35345 35347 0
-35345 35348 0
35345 -35347 -35348 0
-35616 35349 0
-35616 34218 0
35616 -35349 -34218 0
-35351 35353 0
-35351 35354 0
35351 -35353 -35354 0
-35347 35145 0
-35347 35146 0
35347 -35145 -35146 0
-35353 35347 0
-35353 35348 0
35353 -35347 -35348 0
-35618 35147 0
-35618 34230 0
35618 -35147 -34230 0
-35620 35153 0
-35620 34233 0
35620 -35153 -34233 0
-35622 35355 0
-35622 34236 0
35622 -35355 -34236 0
-35357 35359 0
-35357 35360 0
35357 -35359 -35360 0
-35157 35429 0
-35157 35152 0
35157 -35429 -35152 0
-35359 35157 0
-35359 35158 0
35359 -35157 -35158 0
-34809 35353 0
-34809 35354 0
34809 -35353 -35354 0
-34842 34250 0
-34842 35353 0
34842 -34250 -35353 0
-34703 35317 0
-34703 35318 0
34703 -35317 -35318 0
-34712 35139 0
-34712 35140 0
34712 -35139 -35140 0
-34924 35359 0
-34924 35360 0
34924 -35359 -35360 0
-34821 35477 0
-34821 35478 0
34821 -35477 -35478 0
-35624 35361 0
-35624 34266 0
35624 -35361 -34266 0
-35363 35398 0
-35363 35366 0
35363 -35398 -35366 0
-35626 35367 0
-35626 34272 0
35626 -35367 -34272 0
-35369 35371 0
-35369 35372 0
35369 -35371 -35372 0
-35628 35373 0
-35628 34278 0
35628 -35373 -34278 0
-35375 35377 0
-35375 35378 0
35375 -35377 -35378 0
-35630 35379 0
-35630 34284 0
35630 -35379 -34284 0
-35381 35383 0
-35381 35384 0
35381 -35383 -35384 0
-34288 35009 0
-34288 35012 0
34288 -35009 -35012 0
-35632 35385 0
-35632 34293 0
35632 -35385 -34293 0
-35387 35389 0
-35387 35390 0
35387 -35389 -35390 0
-35371 35398 0
-35371 35366 0
35371 -35398 -35366 0
-35377 35371 0
-35377 35372 0
35377 -35371 -35372 0
-35383 35377 0
-35383 35378 0
35383 -35377 -35378 0
-35389 35383 0
-35389 35384 0
35389 -35383 -35384 0
-34736 34728 0
-34736 35397 0
34736 -34728 -35397 0
-34742 34731 0
-34742 34734 0
34742 -34731 -34734 0
-34748 34737 0
-34748 34740 0
34748 -34737 -34740 0
-34754 34743 0
-34754 34746 0
34754 -34743 -34746 0
-35634 34324 0
-35634 34323 0
35634 -34324 -34323 0
-34324 34775 0
-34324 34778 0
34324 -34775 -34778 0
-35636 34330 0
-35636 34329 0
35636 -34330 -34329 0
-34330 34781 0
-34330 34784 0
34330 -34781 -34784 0
-35638 34336 0
-35638 34335 0
35638 -34336 -34335 0
-34336 34787 0
-34336 34790 0
34336 -34787 -34790 0
-35640 34342 0
-35640 34341 0
35640 -34342 -34341 0
-34342 34796 0
-34342 34799 0
34342 -34796 -34799 0
-35405 35222 0
-35405 34807 0
35405 -35222 -34807 0
-35402 35220 0
-35402 34807 0
35402 -35220 -34807 0
-35447 34808 0
-35447 34811 0
35447 -34808 -34811 0
-34860 34820 0
-34860 34823 0
34860 -34820 -34823 0
-34833 34826 0
-34833 34829 0
34833 -34826 -34829 0
-35465 35411 0
-35465 35424 0
35465 -35411 -35424 0
-35642 35407 0
-35642 34365 0
35642 -35407 -34365 0
-35409 35411 0
-35409 35412 0
35409 -35411 -35412 0
-35644 35413 0
-35644 34371 0
35644 -35413 -34371 0
-35415 35417 0
-35415 35418 0
35415 -35417 -35418 0
-35646 35419 0
-35646 34377 0
35646 -35419 -34377 0
-35421 35423 0
-35421 35424 0
35421 -35423 -35424 0
-35417 35411 0
-35417 35412 0
35417 -35411 -35412 0
-35423 35417 0
-35423 35418 0
35423 -35417 -35418 0
-34852 35429 0
-34852 35430 0
-34852 35442 0
34852 -35429 -35430 -35442 0
-35648 35425 0
-35648 34393 0
35648 -35425 -34393 0
-35427 35429 0
-35427 35430 0
35427 -35429 -35430 0
-35650 35431 0
-35650 34399 0
35650 -35431 -34399 0
-35433 35435 0
-35433 35436 0
35433 -35435 -35436 0
-35652 35437 0
-35652 34405 0
35652 -35437 -34405 0
-35439 35441 0
-35439 35442 0
35439 -35441 -35442 0
-35435 35429 0
-35435 35430 0
35435 -35429 -35430 0
-35441 35435 0
-35441 35436 0
35441 -35435 -35436 0
-35654 35443 0
-35654 34417 0
35654 -35443 -34417 0
-35445 35447 0
-35445 35448 0
35445 -35447 -35448 0
-35656 35449 0
-35656 34423 0
35656 -35449 -34423 0
-35451 35453 0
-35451 35454 0
35451 -35453 -35454 0
-35658 35455 0
-35658 34429 0
35658 -35455 -34429 0
-35457 35459 0
-35457 35460 0
35457 -35459 -35460 0
-35453 35447 0
-35453 35448 0
35453 -35447 -35448 0
-35459 35447 0
-35459 35454 0
35459 -35447 -35454 0
-34927 35459 0
-34927 35460 0
34927 -35459 -35460 0
-35660 35461 0
-35660 34444 0
35660 -35461 -34444 0
-35463 35465 0
-35463 35466 0
35463 -35465 -35466 0
-35662 35467 0
-35662 34450 0
35662 -35467 -34450 0
-35469 35471 0
-35469 35472 0
35469 -35471 -35472 0
-35664 35473 0
-35664 34456 0
35664 -35473 -34456 0
-35475 35477 0
-35475 35478 0
35475 -35477 -35478 0
-35471 35465 0
-35471 35466 0
35471 -35465 -35466 0
-35477 35465 0
-35477 35472 0
35477 -35465 -35472 0
-34615 34841 0
-34615 34844 0
34615 -34841 -34844 0
-35555 34814 0
-35555 34817 0
35555 -34814 -34817 0
-35175 34832 0
-35175 34835 0
35175 -34832 -34835 0
-35666 34862 0
-35666 34477 0
35666 -34862 -34477 0
-35668 35479 0
-35668 34480 0
35668 -35479 -34480 0
-35480 35489 0
-35480 34906 0
35480 -35489 -34906 0
-35670 34865 0
-35670 34486 0
35670 -34865 -34486 0
-35672 35485 0
-35672 34489 0
35672 -35485 -34489 0
-35486 35489 0
-35486 34492 0
35486 -35489 -34492 0
-34998 34494 0
-34998 34495 0
-34998 34496 0
34998 -34494 -34495 -34496 0
-35674 35491 0
-35674 34499 0
35674 -35491 -34499 0
-35493 35495 0
-35493 35496 0
35493 -35495 -35496 0
-35676 35497 0
-35676 34505 0
35676 -35497 -34505 0
-35499 35501 0
-35499 35502 0
35499 -35501 -35502 0
-35678 35503 0
-35678 34511 0
35678 -35503 -34511 0
-35505 35507 0
-35505 35508 0
35505 -35507 -35508 0
-35680 35509 0
-35680 34517 0
35680 -35509 -34517 0
-35511 35513 0
-35511 35514 0
35511 -35513 -35514 0
-35501 35495 0
-35501 35496 0
35501 -35495 -35496 0
-35507 35501 0
-35507 35502 0
35507 -35501 -35502 0
-35513 35507 0
-35513 35508 0
35513 -35507 -35508 0
-34875 34892 0
-34875 34895 0
34875 -34892 -34895 0
-34881 34898 0
-34881 34901 0
34881 -34898 -34901 0
-34890 34904 0
-34890 34907 0
34890 -34904 -34907 0
-35682 34871 0
-35682 34874 0
35682 -34871 -34874 0
-35684 34877 0
-35684 34880 0
35684 -34877 -34880 0
-35686 34886 0
-35686 34889 0
35686 -34886 -34889 0
-35688 35519 0
-35688 34550 0
35688 -35519 -34550 0
-35521 35523 0
-35521 35524 0
35521 -35523 -35524 0
-35690 35525 0
-35690 34556 0
35690 -35525 -34556 0
-35527 35529 0
-35527 35530 0
35527 -35529 -35530 0
-35692 35531 0
-35692 34562 0
35692 -35531 -34562 0
-35533 35535 0
-35533 35536 0
35533 -35535 -35536 0
-35694 35537 0
-35694 34568 0
35694 -35537 -34568 0
-35539 35541 0
-35539 35542 0
35539 -35541 -35542 0
-35696 35543 0
-35696 34574 0
35696 -35543 -34574 0
-35545 35547 0
-35545 35548 0
35545 -35547 -35548 0
-35529 35523 0
-35529 35524 0
35529 -35523 -35524 0
-35535 35529 0
-35535 35530 0
35535 -35529 -35530 0
-35541 35535 0
-35541 35536 0
35541 -35535 -35536 0
-35547 35541 0
-35547 35542 0
35547 -35541 -35542 0
-35698 34931 0
-35698 34934 0
35698 -34931 -34934 0
-35700 34937 0
-35700 34940 0
35700 -34937 -34940 0
-35702 34943 0
-35702 34946 0
35702 -34943 -34946 0
-35704 34949 0
-35704 34952 0
35704 -34949 -34952 0
-34602 35015 0
-34602 35018 0
34602 -35015 -35018 0
-35706 34970 0
-35706 34607 0
35706 -34970 -34607 0
-34971 34973 0
-34971 34610 0
34971 -34973 -34610 0
-34978 35003 0
-34978 35006 0
34978 -35003 -35006 0
-35523 34615 0
-35523 35556 0
35523 -34615 -35556 0
-35708 34982 0
-35708 34985 0
35708 -34982 -34985 0
-35710 34991 0
-35710 34994 0
35710 -34991 -34994 0
-35164 35051 0
-35164 35054 0
35164 -35051 -35054 0
-35174 34997 0
-35174 35000 0
35174 -34997 -35000 0
-35573 34703 0
-35573 35061 0
35573 -34703 -35061 0
-35574 34712 0
-35574 35067 0
35574 -34712 -35067 0
-35575 34924 0
-35575 35073 0
35575 -34924 -35073 0
-35576 34821 0
-35576 35070 0
35576 -34821 -35070 0
-34884 34642 0
-34884 35223 0
34884 -34642 -35223 0
-34989 34645 0
-34989 35223 0
34989 -34645 -35223 0
-35712 34648 0
-35712 34649 0
35712 -34648 -34649 0
-35714 34653 0
-35714 34652 0
35714 -34653 -34652 0
-34653 35057 0
-34653 35060 0
34653 -35057 -35060 0
-35716 34659 0
-35716 34658 0
35716 -34659 -34658 0
-34659 35063 0
-34659 35066 0
34659 -35063 -35066 0
-35718 34665 0
-35718 34664 0
35718 -34665 -34664 0
-34665 35069 0
-34665 35072 0
34665 -35069 -35072 0
-35564 35078 0
-35564 34670 0
35564 -35078 -34670 0
-35567 35084 0
-35567 35087 0
35567 -35084 -35087 0
-35570 35093 0
-35570 35096 0
35570 -35093 -35096 0
-35726 35159 0
-35726 34679 0
35726 -35159 -34679 0
-35728 35577 0
-35728 34682 0
35728 -35577 -34682 0
-35578 35581 0
-35578 35070 0
35578 -35581 -35070 0
-35730 35557 0
-35730 34688 0
35730 -35557 -34688 0
35119 -35298 0
35119 -35122 0
-35119 35298 35122 0
35125 -35127 0
35125 -35128 0
-35125 35127 35128 0
35131 -35133 0
35131 -35134 0
-35131 35133 35134 0
35137 -35139 0
35137 -35140 0
-35137 35139 35140 0
35133 -35094 0
35133 -34703 0
-35133 35094 34703 0
34704 -35140 0
34704 -35094 0
-34704 35140 35094 0
34707 -34836 0
34707 -34709 0
-34707 34836 34709 0
35429 -35094 0
35429 -34712 0
-35429 35094 34712 0
34845 -35094 0
34845 -34715 0
-34845 35094 34715 0
35143 -35145 0
35143 -35146 0
-35143 35145 35146 0
35149 -35429 0
35149 -35152 0
-35149 35429 35152 0
35155 -35157 0
35155 -35158 0
-35155 35157 35158 0
35161 -35174 0
35161 -35169 0
-35161 35174 35169 0
34728 -35199 0
34728 -35366 0
-34728 35199 35366 0
34731 -35202 0
34731 -35372 0
-34731 35202 35372 0
34734 -35396 0
34734 -34736 0
-34734 35396 34736 0
34737 -35205 0
34737 -35378 0
-34737 35205 35378 0
34740 -35394 0
34740 -34742 0
-34740 35394 34742 0
34743 -35193 0
34743 -35384 0
-34743 35193 35384 0
34746 -35393 0
34746 -34748 0
-34746 35393 34748 0
35299 -35196 0
35299 -35390 0
-35299 35196 35390 0
35300 -35392 0
35300 -34754 0
-35300 35392 34754 0
35178 -35366 0
35178 -35199 0
-35178 35366 35199 0
35181 -35372 0
35181 -35202 0
-35181 35372 35202 0
35184 -35378 0
35184 -35205 0
-35184 35378 35205 0
35187 -35384 0
35187 -35193 0
-35187 35384 35193 0
35190 -35390 0
35190 -35196 0
-35190 35390 35196 0
34803 -35213 0
34803 -35214 0
34803 -35215 0
34803 -35216 0
-34803 35213 35214 35215 35216 0
34775 -35216 0
34775 -34798 0
-34775 35216 34798 0
34778 -34779 0
34778 -34780 0
-34778 34779 34780 0
34781 -35215 0
34781 -34798 0
-34781 35215 34798 0
34784 -35216 0
34784 -34786 0
-34784 35216 34786 0
34787 -35214 0
34787 -34798 0
-34787 35214 34798 0
34790 -35215 0
34790 -34792 0
-34790 35215 34792 0
34798 -34852 0
34798 -35097 0
-34798 34852 35097 0
34796 -35213 0
34796 -34798 0
-34796 35213 34798 0
34799 -35214 0
34799 -34801 0
-34799 35214 34801 0
35218 -34803 0
35218 -34807 0
-35218 34803 34807 0
35221 -35399 0
35221 -34807 0
-35221 35399 34807 0
34808 -34809 0
34808 -34843 0
-34808 34809 34843 0
34811 -35429 0
34811 -34813 0
-34811 35429 34813 0
34814 -35354 0
34814 -34843 0
-34814 35354 34843 0
34817 -34818 0
34817 -34819 0
-34817 34818 34819 0
34820 -34821 0
34820 -35097 0
-34820 34821 35097 0
34823 -34927 0
34823 -34825 0
-34823 34927 34825 0
34826 -35478 0
34826 -35097 0
-34826 35478 35097 0
34829 -35460 0
34829 -34831 0
-34829 35460 34831 0
34832 -34833 0
34832 -35088 0
-34832 34833 35088 0
34835 -34836 0
34835 -34837 0
-34835 34836 34837 0
34843 -34998 0
34843 -35088 0
-34843 34998 35088 0
34841 -34842 0
34841 -34843 0
-34841 34842 34843 0
34844 -34845 0
34844 -34846 0
-34844 34845 34846 0
34847 -35101 0
34847 -35465 0
-34847 35101 35465 0
34850 -35101 0
34850 -34852 0
-34850 35101 34852 0
34853 -35101 0
34853 -35459 0
-34853 35101 35459 0
34856 -35101 0
34856 -35477 0
-34856 35101 35477 0
35495 -34860 0
35495 -35088 0
-35495 34860 35088 0
34862 -35555 0
34862 -34864 0
-34862 35555 34864 0
34865 -35489 0
34865 -34867 0
-34865 35489 34867 0
35052 -35292 0
35052 -35556 0
-35052 35292 35556 0
34871 -35516 0
34871 -34888 0
-34871 35516 34888 0
34874 -34875 0
34874 -34876 0
-34874 34875 34876 0
34877 -35517 0
34877 -34888 0
-34877 35517 34888 0
34880 -34881 0
34880 -34882 0
-34880 34881 34882 0
34888 -34884 0
34888 -35101 0
-34888 34884 35101 0
34886 -35518 0
34886 -34888 0
-34886 35518 34888 0
34889 -34890 0
34889 -34891 0
-34889 34890 34891 0
34892 -35043 0
34892 -34906 0
-34892 35043 34906 0
34895 -35025 0
34895 -34897 0
-34895 35025 34897 0
34898 -35049 0
34898 -34906 0
-34898 35049 34906 0
34901 -35031 0
34901 -34903 0
-34901 35031 34903 0
34904 -35055 0
34904 -34906 0
-34904 35055 34906 0
34907 -35037 0
34907 -34909 0
-34907 35037 34909 0
35228 -35516 0
35228 -35496 0
-35228 35516 35496 0
35231 -35517 0
35231 -35502 0
-35231 35517 35502 0
35234 -35518 0
35234 -35508 0
-35234 35518 35508 0
35237 -35515 0
35237 -35514 0
-35237 35515 35514 0
35145 -35097 0
35145 -34924 0
-35145 35097 34924 0
35411 -35097 0
35411 -34927 0
-35411 35097 34927 0
35556 -35250 0
35556 -35254 0
-35556 35250 35254 0
34931 -35550 0
34931 -34993 0
-34931 35550 34993 0
34934 -35001 0
34934 -34936 0
-34934 35001 34936 0
34937 -35551 0
34937 -34993 0
-34937 35551 34993 0
34940 -35013 0
34940 -34942 0
-34940 35013 34942 0
34943 -35552 0
34943 -34993 0
-34943 35552 34993 0
34946 -35007 0
34946 -34948 0
-34946 35007 34948 0
34949 -35553 0
34949 -34993 0
-34949 35553 34993 0
34952 -35019 0
34952 -34954 0
-34952 35019 34954 0
35259 -35550 0
35259 -35524 0
-35259 35550 35524 0
35262 -35551 0
35262 -35530 0
-35262 35551 35530 0
35265 -35552 0
35265 -35536 0
-35265 35552 35536 0
35268 -35553 0
35268 -35542 0
-35268 35553 35542 0
35271 -35549 0
35271 -35548 0
-35271 35549 35548 0
34970 -34971 0
34970 -35523 0
-34970 34971 35523 0
34973 -35292 0
34973 -35554 0
-34973 35292 35554 0
35288 -34992 0
35288 -34978 0
-35288 34992 34978 0
35289 -34980 0
35289 -34983 0
-35289 34980 34983 0
34982 -34983 0
34982 -34993 0
-34982 34983 34993 0
34985 -35095 0
34985 -34987 0
-34985 35095 34987 0
34993 -34989 0
34993 -35101 0
-34993 34989 35101 0
34991 -34992 0
34991 -34993 0
-34991 34992 34993 0
34994 -35581 0
34994 -34996 0
-34994 35581 34996 0
34997 -34998 0
34997 -35088 0
-34997 34998 35088 0
35000 -35001 0
35000 -35002 0
-35000 35001 35002 0
35003 -35004 0
35003 -35088 0
-35003 35004 35088 0
35006 -35007 0
35006 -35008 0
-35006 35007 35008 0
35009 -35223 0
35009 -35088 0
-35009 35223 35088 0
35012 -35013 0
35012 -35014 0
-35012 35013 35014 0
35015 -35223 0
35015 -35088 0
-35015 35223 35088 0
35018 -35019 0
35018 -35020 0
-35018 35019 35020 0
35021 -35102 0
35021 -35088 0
-35021 35102 35088 0
35024 -35025 0
35024 -35026 0
-35024 35025 35026 0
35027 -35105 0
35027 -35088 0
-35027 35105 35088 0
35030 -35031 0
35030 -35032 0
-35030 35031 35032 0
35033 -35108 0
35033 -35088 0
-35033 35108 35088 0
35036 -35037 0
35036 -35038 0
-35036 35037 35038 0
35039 -35111 0
35039 -35088 0
-35039 35111 35088 0
35042 -35043 0
35042 -35044 0
-35042 35043 35044 0
35045 -35114 0
35045 -35088 0
-35045 35114 35088 0
35048 -35049 0
35048 -35050 0
-35048 35049 35050 0
35051 -35052 0
35051 -35088 0
-35051 35052 35088 0
35054 -35055 0
35054 -35056 0
-35054 35055 35056 0
35057 -35067 0
35057 -35581 0
-35057 35067 35581 0
35060 -35061 0
35060 -35062 0
-35060 35061 35062 0
35063 -35073 0
35063 -35581 0
-35063 35073 35581 0
35066 -35067 0
35066 -35068 0
-35066 35067 35068 0
35069 -35070 0
35069 -35581 0
-35069 35070 35581 0
35072 -35073 0
35072 -35074 0
-35072 35073 35074 0
35720 -35563 0
35720 -35099 0
-35720 35563 35099 0
35078 -35088 0
35078 -35095 0
-35078 35088 35095 0
35722 -35566 0
35722 -35099 0
-35722 35566 35099 0
35084 -35097 0
35084 -35095 0
-35084 35097 35095 0
35087 -35088 0
35087 -35089 0
-35087 35088 35089 0
35724 -35569 0
35724 -35099 0
-35724 35569 35099 0
35093 -35094 0
35093 -35095 0
-35093 35094 35095 0
35096 -35097 0
35096 -35098 0
-35096 35097 35098 0
35099 -35561 0
35099 -35101 0
-35099 35561 35101 0
35102 35524 0
35102 35116 0
-35102 -35524 -35116 0
35105 35530 0
35105 35116 0
-35105 -35530 -35116 0
35108 35536 0
35108 35116 0
-35108 -35536 -35116 0
35111 35542 0
35111 35116 0
-35111 -35542 -35116 0
35114 35548 0
35114 35116 0
-35114 -35548 -35116 0
35117 35120 0
35117 35119 0
-35117 -35120 -35119 0
35120 35298 0
35120 35122 0
-35120 -35298 -35122 0
35123 35126 0
35123 35125 0
-35123 -35126 -35125 0
35126 35127 0
35126 35128 0
-35126 -35127 -35128 0
35129 35132 0
35129 35131 0
-35129 -35132 -35131 0
35132 35133 0
35132 35134 0
-35132 -35133 -35134 0
35135 35138 0
35135 35137 0
-35135 -35138 -35137 0
35138 35139 0
35138 35140 0
-35138 -35139 -35140 0
35141 35144 0
35141 35143 0
-35141 -35144 -35143 0
35144 35145 0
35144 35146 0
-35144 -35145 -35146 0
35147 35150 0
35147 35149 0
-35147 -35150 -35149 0
35150 35429 0
35150 35152 0
-35150 -35429 -35152 0
35153 35156 0
35153 35155 0
-35153 -35156 -35155 0
35156 35157 0
35156 35158 0
-35156 -35157 -35158 0
35159 35173 0
35159 35161 0
-35159 -35173 -35161 0
35172 35555 0
35172 35164 0
-35172 -35555 -35164 0
35171 35166 0
35171 35209 0
35171 35555 0
-35171 -35166 -35209 -35555 0
35169 35298 0
35169 35171 0
35169 35172 0
-35169 -35298 -35171 -35172 0
35173 35174 0
35173 35175 0
-35173 -35174 -35175 0
35397 35197 0
35397 35178 0
-35397 -35197 -35178 0
35396 35200 0
35396 35181 0
-35396 -35200 -35181 0
35394 35203 0
35394 35184 0
-35394 -35203 -35184 0
35393 35191 0
35393 35187 0
-35393 -35191 -35187 0
35392 35194 0
35392 35190 0
-35392 -35194 -35190 0
35191 35384 0
35191 35193 0
-35191 -35384 -35193 0
35194 35390 0
35194 35196 0
-35194 -35390 -35196 0
35197 35366 0
35197 35199 0
-35197 -35366 -35199 0
35200 35372 0
35200 35202 0
-35200 -35372 -35202 0
35203 35378 0
35203 35205 0
-35203 -35378 -35205 0
35210 35391 0
35210 35395 0
-35210 -35391 -35395 0
35209 35210 0
35209 35298 0
-35209 -35210 -35298 0
35399 35213 0
35399 35214 0
35399 35215 0
35399 35216 0
-35399 -35213 -35214 -35215 -35216 0
35222 35218 0
35222 35219 0
-35222 -35218 -35219 0
35220 35221 0
35220 35222 0
-35220 -35221 -35222 0
35223 35224 0
35223 35293 0
-35223 -35224 -35293 0
35294 35238 0
35294 35228 0
-35294 -35238 -35228 0
35295 35241 0
35295 35231 0
-35295 -35241 -35231 0
35296 35244 0
35296 35234 0
-35296 -35244 -35234 0
35297 35247 0
35297 35237 0
-35297 -35247 -35237 0
35238 35516 0
35238 35496 0
-35238 -35516 -35496 0
35241 35517 0
35241 35502 0
-35241 -35517 -35502 0
35244 35518 0
35244 35508 0
-35244 -35518 -35508 0
35247 35515 0
35247 35514 0
-35247 -35515 -35514 0
35250 35257 0
35250 35260 0
35250 35263 0
-35250 -35257 -35260 -35263 0
35254 35266 0
35254 35269 0
-35254 -35266 -35269 0
35257 35272 0
35257 35259 0
-35257 -35272 -35259 0
35260 35275 0
35260 35262 0
-35260 -35275 -35262 0
35263 35278 0
35263 35265 0
-35263 -35278 -35265 0
35266 35281 0
35266 35268 0
-35266 -35281 -35268 0
35269 35284 0
35269 35271 0
-35269 -35284 -35271 0
35272 35550 0
35272 35524 0
-35272 -35550 -35524 0
35275 35551 0
35275 35530 0
-35275 -35551 -35530 0
35278 35552 0
35278 35536 0
-35278 -35552 -35536 0
35281 35553 0
35281 35542 0
-35281 -35553 -35542 0
35284 35549 0
35284 35548 0
-35284 -35549 -35548 0
35559 35288 0
35559 35289 0
-35559 -35288 -35289 0
35558 35555 0
35558 35292 0
-35558 -35555 -35292 0
35293 35294 0
35293 35295 0
35293 35296 0
35293 35297 0
-35293 -35294 -35295 -35296 -35297 0
35298 35299 0
35298 35300 0
-35298 -35299 -35300 0
-35301 -35304 0
-35301 -35303 0
35301 35304 35303 0
-35304 -35305 0
-35304 -35306 0
35304 35305 35306 0
-35307 -35310 0
-35307 -35309 0
35307 35310 35309 0
-35310 -35311 0
-35310 -35312 0
35310 35311 35312 0
-35313 -35316 0
-35313 -35315 0
35313 35316 35315 0
-35316 -35317 0
-35316 -35318 0
35316 35317 35318 0
-35319 -35322 0
-35319 -35321 0
35319 35322 35321 0
-35322 -35323 0
-35322 -35324 0
35322 35323 35324 0
-35325 -35328 0
-35325 -35327 0
35325 35328 35327 0
-35328 -35329 0
-35328 -35330 0
35328 35329 35330 0
-35331 -35334 0
-35331 -35333 0
35331 35334 35333 0
-35334 -35335 0
-35334 -35336 0
35334 35335 35336 0
-35337 -35340 0
-35337 -35339 0
35337 35340 35339 0
-35340 -35341 0
-35340 -35342 0
35340 35341 35342 0
-35343 -35346 0
-35343 -35345 0
35343 35346 35345 0
-35346 -35347 0
-35346 -35348 0
35346 35347 35348 0
-35349 -35352 0
-35349 -35351 0
35349 35352 35351 0
-35352 -35353 0
-35352 -35354 0
35352 35353 35354 0
-35355 -35358 0
-35355 -35357 0
35355 35358 35357 0
-35358 -35359 0
-35358 -35360 0
35358 35359 35360 0
-35361 -35364 0
-35361 -35363 0
35361 35364 35363 0
-35364 -35398 0
-35364 -35366 0
35364 35398 35366 0
-35367 -35370 0
-35367 -35369 0
35367 35370 35369 0
-35370 -35371 0
-35370 -35372 0
35370 35371 35372 0
-35373 -35376 0
-35373 -35375 0
35373 35376 35375 0
-35376 -35377 0
-35376 -35378 0
35376 35377 35378 0
-35379 -35382 0
-35379 -35381 0
35379 35382 35381 0
-35382 -35383 0
-35382 -35384 0
35382 35383 35384 0
-35385 -35388 0
-35385 -35387 0
35385 35388 35387 0
-35388 -35389 0
-35388 -35390 0
35388 35389 35390 0
-35391 -35392 0
-35391 -35393 0
-35391 -35394 0
35391 35392 35393 35394 0
-35395 -35396 0
-35395 -35397 0
35395 35396 35397 0
-35398 -35399 0
-35398 -35404 0
35398 35399 35404 0
-35406 -35402 0
-35406 -35403 0
35406 35402 35403 0
-35404 -35405 0
-35404 -35406 0
35404 35405 35406 0
-35407 -35410 0
-35407 -35409 0
35407 35410 35409 0
-35410 -35411 0
-35410 -35412 0
35410 35411 35412 0
-35413 -35416 0
-35413 -35415 0
35413 35416 35415 0
-35416 -35417 0
-35416 -35418 0
35416 35417 35418 0
-35419 -35422 0
-35419 -35421 0
35419 35422 35421 0
-35422 -35423 0
-35422 -35424 0
35422 35423 35424 0
-35425 -35428 0
-35425 -35427 0
35425 35428 35427 0
-35428 -35429 0
-35428 -35430 0
35428 35429 35430 0
-35431 -35434 0
-35431 -35433 0
35431 35434 35433 0
-35434 -35435 0
-35434 -35436 0
35434 35435 35436 0
-35437 -35440 0
-35437 -35439 0
35437 35440 35439 0
-35440 -35441 0
-35440 -35442 0
35440 35441 35442 0
-35443 -35446 0
-35443 -35445 0
35443 35446 35445 0
-35446 -35447 0
-35446 -35448 0
35446 35447 35448 0
-35449 -35452 0
-35449 -35451 0
35449 35452 35451 0
-35452 -35453 0
-35452 -35454 0
35452 35453 35454 0
-35455 -35458 0
-35455 -35457 0
35455 35458 35457 0
-35458 -35459 0
-35458 -35460 0
35458 35459 35460 0
-35461 -35464 0
-35461 -35463 0
35461 35464 35463 0
-35464 -35465 0
-35464 -35466 0
35464 35465 35466 0
-35467 -35470 0
-35467 -35469 0
35467 35470 35469 0
-35470 -35471 0
-35470 -35472 0
35470 35471 35472 0
-35473 -35476 0
-35473 -35475 0
35473 35476 35475 0
-35476 -35477 0
-35476 -35478 0
35476 35477 35478 0
-35479 -35480 0
-35479 -35482 0
35479 35480 35482 0
-35482 -35489 0
-35482 -35484 0
35482 35489 35484 0
-35485 -35486 0
-35485 -35488 0
35485 35486 35488 0
-35488 -35489 0
-35488 -35490 0
35488 35489 35490 0
-35491 -35494 0
-35491 -35493 0
35491 35494 35493 0
-35494 -35495 0
-35494 -35496 0
35494 35495 35496 0
-35497 -35500 0
-35497 -35499 0
35497 35500 35499 0
-35500 -35501 0
-35500 -35502 0
35500 35501 35502 0
-35503 -35506 0
-35503 -35505 0
35503 35506 35505 0
-35506 -35507 0
-35506 -35508 0
35506 35507 35508 0
-35509 -35512 0
-35509 -35511 0
35509 35512 35511 0
-35512 -35513 0
-35512 -35514 0
35512 35513 35514 0
-35515 -35516 0
-35515 -35517 0
-35515 -35518 0
35515 35516 35517 35518 0
-35519 -35522 0
-35519 -35521 0
35519 35522 35521 0
-35522 -35523 0
-35522 -35524 0
35522 35523 35524 0
-35525 -35528 0
-35525 -35527 0
35525 35528 35527 0
-35528 -35529 0
-35528 -35530 0
35528 35529 35530 0
-35531 -35534 0
-35531 -35533 0
35531 35534 35533 0
-35534 -35535 0
-35534 -35536 0
35534 35535 35536 0
-35537 -35540 0
-35537 -35539 0
35537 35540 35539 0
-35540 -35541 0
-35540 -35542 0
35540 35541 35542 0
-35543 -35546 0
-35543 -35545 0
35543 35546 35545 0
-35546 -35547 0
-35546 -35548 0
35546 35547 35548 0
-35549 -35550 0
-35549 -35551 0
-35549 -35552 0
-35549 -35553 0
35549 35550 35551 35552 35553 0
-35554 -35555 0
-35554 -35556 0
35554 35555 35556 0
-35557 -35558 0
-35557 -35559 0
35557 35558 35559 0
-35571 -35561 0
-35571 -35562 0
35571 35561 35562 0
-35563 -35564 0
-35563 -35571 0
35563 35564 35571 0
-35566 -35567 0
-35566 -35571 0
35566 35567 35571 0
-35569 -35570 0
-35569 -35571 0
35569 35570 35571 0
-35572 -35573 0
-35572 -35574 0
-35572 -35575 0
-35572 -35576 0
35572 35573 35574 35575 35576 0
-35577 -35578 0
-35577 -35580 0
35577 35578 35580 0
-35580 -35581 0
-35580 -35582 0
35580 35581 35582 0
-35584 37176 0
35584 -37176 0
-35586 37360 0
35586 -37360 0
-35588 35742 0
35588 -35742 0
-35590 37263 0
35590 -37263 0
-35592 37269 0
35592 -37269 0
-35594 35750 0
35594 -35750 0
-35596 37275 0
35596 -37275 0
-35598 35756 0
35598 -35756 0
-35600 37281 0
35600 -37281 0
-35602 37287 0
35602 -37287 0
-35604 37293 0
35604 -37293 0
-35606 37299 0
35606 -37299 0
-35608 36157 0
35608 -36157 0
-35610 36793 0
35610 -36793 0
-35612 35780 0
35612 -35780 0
-35614 37305 0
35614 -37305 0
-35616 37311 0
35616 -37311 0
-35618 35790 0
35618 -35790 0
-35620 35794 0
35620 -35794 0
-35622 37317 0
35622 -37317 0
-35624 37323 0
35624 -37323 0
-35626 37329 0
35626 -37329 0
-35628 37335 0
35628 -37335 0
-35630 37341 0
35630 -37341 0
-35632 37347 0
35632 -37347 0
-35634 37173 0
35634 -37173 0
-35636 37172 0
35636 -37172 0
-35638 37171 0
35638 -37171 0
-35640 37170 0
35640 -37170 0
-35642 37369 0
35642 -37369 0
-35644 37375 0
35644 -37375 0
-35646 37381 0
35646 -37381 0
-35648 37387 0
35648 -37387 0
-35650 37393 0
35650 -37393 0
-35652 37399 0
35652 -37399 0
-35654 37405 0
35654 -37405 0
-35656 37411 0
35656 -37411 0
-35658 37417 0
35658 -37417 0
-35660 37423 0
35660 -37423 0
-35662 37429 0
35662 -37429 0
-35664 37435 0
35664 -37435 0
-35666 36821 0
35666 -36821 0
-35668 37441 0
35668 -37441 0
-35670 36824 0
35670 -36824 0
-35672 37447 0
35672 -37447 0
-35674 37453 0
35674 -37453 0
-35676 37459 0
35676 -37459 0
-35678 37465 0
35678 -37465 0
-35680 37471 0
35680 -37471 0
-35682 37473 0
35682 -37473 0
-35684 37474 0
35684 -37474 0
-35686 37475 0
35686 -37475 0
-35688 37481 0
35688 -37481 0
-35690 37487 0
35690 -37487 0
-35692 37493 0
35692 -37493 0
-35694 37499 0
35694 -37499 0
-35696 37505 0
35696 -37505 0
-35698 37507 0
35698 -37507 0
-35700 37508 0
35700 -37508 0
-35702 37509 0
35702 -37509 0
-35704 37510 0
35704 -37510 0
-35706 37249 0
35706 -37249 0
-35708 36940 0
35708 -36940 0
-35710 36949 0
35710 -36949 0
-35712 37519 0
35712 -37519 0
-35714 37024 0
35714 -37024 0
-35716 37030 0
35716 -37030 0
-35718 37027 0
35718 -37027 0
-35720 36599 0
35720 -36599 0
-35722 36602 0
35722 -36602 0
-35724 35776 0
35724 -35776 0
-35726 36052 0
35726 -36052 0
-35728 37539 0
35728 -37539 0
-35730 36058 0
35730 -36058 0
35734 37177 0
-35734 -37177 0
37541 35734 0
-37541 -35734 0
35738 37361 0
-35738 -37361 0
37543 35738 0
-37543 -35738 0
36076 37058 0
-36076 -37058 0
37079 35742 0
-37079 -35742 0
36079 37058 0
-36079 -37058 0
36085 37058 0
-36085 -37058 0
36091 37058 0
-36091 -37058 0
37085 35750 0
-37085 -35750 0
36094 37058 0
-36094 -37058 0
36112 37058 0
-36112 -37058 0
37091 35756 0
-37091 -35756 0
36115 37058 0
-36115 -37058 0
36121 37058 0
-36121 -37058 0
36127 37058 0
-36127 -37058 0
36133 37058 0
-36133 -37058 0
36139 37058 0
-36139 -37058 0
36160 37058 0
-36160 -37058 0
36159 36793 0
-36159 -36793 0
37097 36157 0
-37097 -36157 0
36666 37051 0
-36666 -37051 0
37051 35776 0
-37051 -35776 0
36166 37058 0
-36166 -37058 0
37103 35780 0
-37103 -35780 0
36169 37058 0
-36169 -37058 0
36175 37058 0
-36175 -37058 0
36207 37311 0
-36207 -37311 0
36187 37058 0
-36187 -37058 0
37109 35790 0
-37109 -35790 0
36190 37058 0
-36190 -37058 0
37115 35794 0
-37115 -35794 0
36193 37058 0
-36193 -37058 0
36223 36245 0
-36223 -36245 0
36229 36245 0
-36229 -36245 0
36235 36245 0
-36235 -36245 0
36241 36245 0
-36241 -36245 0
36250 36245 0
-36250 -36245 0
37123 37167 0
-37123 -37167 0
36280 37058 0
-36280 -37058 0
36737 36755 0
-36737 -36755 0
36286 37058 0
-36286 -37058 0
36743 36755 0
-36743 -36755 0
36292 37058 0
-36292 -37058 0
36749 36755 0
-36749 -36755 0
36298 37058 0
-36298 -37058 0
36758 36755 0
-36758 -36755 0
36770 36800 0
-36770 -36800 0
36776 36800 0
-36776 -36800 0
36782 37054 0
-36782 -37054 0
36788 37054 0
-36788 -37054 0
37054 36602 0
-37054 -36602 0
36794 37045 0
-36794 -37045 0
36803 36800 0
-36803 -36800 0
36322 36804 0
-36322 -36804 0
36328 36804 0
-36328 -36804 0
36334 36804 0
-36334 -36804 0
36350 36807 0
-36350 -36807 0
36356 36807 0
-36356 -36807 0
36362 36807 0
-36362 -36807 0
36374 36810 0
-36374 -36810 0
36380 36810 0
-36380 -36810 0
36386 37058 0
-36386 -37058 0
36401 36813 0
-36401 -36813 0
36407 36813 0
-36407 -36813 0
36413 37058 0
-36413 -37058 0
36434 37058 0
-36434 -37058 0
36437 37058 0
-36437 -37058 0
36449 36824 0
-36449 -36824 0
36443 37058 0
-36443 -37058 0
36452 37447 0
-36452 -37447 0
36446 37058 0
-36446 -37058 0
36451 37009 0
-36451 -37009 0
36456 37180 0
-36456 -37180 0
36462 37180 0
-36462 -37180 0
36468 37180 0
-36468 -37180 0
36474 37180 0
-36474 -37180 0
37181 37058 0
-37181 -37058 0
36833 36845 0
-36833 -36845 0
36839 36845 0
-36839 -36845 0
36848 36845 0
-36848 -36845 0
36854 36863 0
-36854 -36863 0
36860 36863 0
-36860 -36863 0
36866 36863 0
-36866 -36863 0
36863 36821 0
-36863 -36821 0
36507 36559 0
-36507 -36559 0
36513 36559 0
-36513 -36559 0
36519 36559 0
-36519 -36559 0
36525 36559 0
-36525 -36559 0
36531 36559 0
-36531 -36559 0
36893 36950 0
-36893 -36950 0
36899 36950 0
-36899 -36950 0
36905 36950 0
-36905 -36950 0
36911 36950 0
-36911 -36950 0
36564 36559 0
-36564 -36559 0
36567 37511 0
-36567 -37511 0
37073 37516 0
-37073 -37516 0
36937 36935 0
-36937 -36935 0
36944 36950 0
-36944 -36950 0
36953 36950 0
-36953 -36950 0
36961 37441 0
-36961 -37441 0
37446 37250 0
-37446 -37250 0
36959 37045 0
-36959 -37045 0
36965 37045 0
-36965 -37045 0
36971 37045 0
-36971 -37045 0
36977 37045 0
-36977 -37045 0
36983 37045 0
-36983 -37045 0
36989 37045 0
-36989 -37045 0
36995 37045 0
-36995 -37045 0
37001 37045 0
-37001 -37045 0
37007 37045 0
-37007 -37045 0
37013 37045 0
-37013 -37045 0
37045 36599 0
-37045 -36599 0
36606 37058 0
-36606 -37058 0
37518 36605 0
-37518 -36605 0
35964 35962 0
-35964 -35962 0
36605 35964 0
-36605 -35964 0
37018 37539 0
-37018 -37539 0
36609 37058 0
-36609 -37058 0
37019 37538 0
-37019 -37538 0
36615 37058 0
-36615 -37058 0
37025 37538 0
-37025 -37538 0
36621 37058 0
-36621 -37058 0
37031 37538 0
-37031 -37538 0
35982 35980 0
-35982 -35980 0
37538 35982 0
-37538 -35982 0
36627 37052 0
-36627 -37052 0
37046 37052 0
-37046 -37052 0
37055 37052 0
-37055 -37052 0
35992 35990 0
-35992 -35990 0
37052 35992 0
-37052 -35992 0
36006 35994 0
-36006 -35994 0
35995 36006 0
-35995 -36006 0
36636 37058 0
-36636 -37058 0
36639 37058 0
-36639 -37058 0
36645 37058 0
-36645 -37058 0
37058 36004 0
-37058 -36004 0
36764 36006 0
-36764 -36006 0
36010 36008 0
-36010 -36008 0
36958 36010 0
-36958 -36010 0
36014 36012 0
-36014 -36012 0
36970 36014 0
-36970 -36014 0
36018 36016 0
-36018 -36016 0
36964 36018 0
-36964 -36018 0
36022 36020 0
-36022 -36020 0
36976 36022 0
-36976 -36022 0
36026 36024 0
-36026 -36024 0
36736 36026 0
-36736 -36026 0
36030 36028 0
-36030 -36028 0
36982 36030 0
-36982 -36030 0
36034 36032 0
-36034 -36032 0
36988 36034 0
-36988 -36034 0
36038 36036 0
-36038 -36036 0
36994 36038 0
-36994 -36038 0
36042 36040 0
-36042 -36040 0
37000 36042 0
-37000 -36042 0
36046 36044 0
-36046 -36044 0
37006 36046 0
-37006 -36046 0
36050 36048 0
-36050 -36048 0
37012 36050 0
-37012 -36050 0
36051 36052 0
-36051 -36052 0
36056 36054 0
-36056 -36054 0
36453 36056 0
-36453 -36056 0
36057 36058 0
-36057 -36058 0
-37156 36978 0
-37156 36981 0
37156 -36978 -36981 0
-37159 36984 0
-37159 36987 0
37159 -36984 -36987 0
-37162 36990 0
-37162 36993 0
37162 -36990 -36993 0
-37150 36996 0
-37150 36999 0
37150 -36996 -36999 0
-37153 37002 0
-37153 37005 0
37153 -37002 -37005 0
-37545 37074 0
-37545 36076 0
37545 -37074 -36076 0
-37547 37258 0
-37547 36079 0
37547 -37258 -36079 0
-37260 37262 0
-37260 37263 0
37260 -37262 -37263 0
-37549 37264 0
-37549 36085 0
37549 -37264 -36085 0
-37266 37268 0
-37266 37269 0
37266 -37268 -37269 0
-37551 37080 0
-37551 36091 0
37551 -37080 -36091 0
-37553 37270 0
-37553 36094 0
37553 -37270 -36094 0
-37272 37274 0
-37272 37275 0
37272 -37274 -37275 0
-37262 37255 0
-37262 37079 0
37262 -37255 -37079 0
-37268 37262 0
-37268 37263 0
37268 -37262 -37263 0
-37084 37268 0
-37084 37269 0
37084 -37268 -37269 0
-37274 37084 0
-37274 37085 0
37274 -37084 -37085 0
-37555 37086 0
-37555 36112 0
37555 -37086 -36112 0
-37557 37276 0
-37557 36115 0
37557 -37276 -36115 0
-37278 37280 0
-37278 37281 0
37278 -37280 -37281 0
-37559 37282 0
-37559 36121 0
37559 -37282 -36121 0
-37284 37286 0
-37284 37287 0
37284 -37286 -37287 0
-37561 37288 0
-37561 36127 0
37561 -37288 -36127 0
-37290 37292 0
-37290 37293 0
37290 -37292 -37293 0
-37563 37294 0
-37563 36133 0
37563 -37294 -36133 0
-37296 37298 0
-37296 37299 0
37296 -37298 -37299 0
-37565 37092 0
-37565 36139 0
37565 -37092 -36139 0
-37280 37090 0
-37280 37091 0
37280 -37090 -37091 0
-37286 37280 0
-37286 37281 0
37286 -37280 -37281 0
-37292 37286 0
-37292 37287 0
37292 -37286 -37287 0
-37298 37292 0
-37298 37293 0
37298 -37292 -37293 0
-37096 37298 0
-37096 37299 0
37096 -37298 -37299 0
-36672 37096 0
-36672 36157 0
36672 -37096 -36157 0
-37567 36159 0
-37567 36160 0
37567 -36159 -36160 0
-36775 36661 0
-36775 36664 0
36775 -36661 -36664 0
-37569 37098 0
-37569 36166 0
37569 -37098 -36166 0
-37571 37300 0
-37571 36169 0
37571 -37300 -36169 0
-37302 37304 0
-37302 37305 0
37302 -37304 -37305 0
-37573 37306 0
-37573 36175 0
37573 -37306 -36175 0
-37308 37310 0
-37308 37311 0
37308 -37310 -37311 0
-37304 37102 0
-37304 37103 0
37304 -37102 -37103 0
-37310 37304 0
-37310 37305 0
37310 -37304 -37305 0
-37575 37104 0
-37575 36187 0
37575 -37104 -36187 0
-37577 37110 0
-37577 36190 0
37577 -37110 -36190 0
-37579 37312 0
-37579 36193 0
37579 -37312 -36193 0
-37314 37316 0
-37314 37317 0
37314 -37316 -37317 0
-37114 37386 0
-37114 37109 0
37114 -37386 -37109 0
-37316 37114 0
-37316 37115 0
37316 -37114 -37115 0
-36766 37310 0
-36766 37311 0
36766 -37310 -37311 0
-36799 36207 0
-36799 37310 0
36799 -36207 -37310 0
-36660 37274 0
-36660 37275 0
36660 -37274 -37275 0
-36669 37096 0
-36669 37097 0
36669 -37096 -37097 0
-36881 37316 0
-36881 37317 0
36881 -37316 -37317 0
-36778 37434 0
-36778 37435 0
36778 -37434 -37435 0
-37581 37318 0
-37581 36223 0
37581 -37318 -36223 0
-37320 37355 0
-37320 37323 0
37320 -37355 -37323 0
-37583 37324 0
-37583 36229 0
37583 -37324 -36229 0
-37326 37328 0
-37326 37329 0
37326 -37328 -37329 0
-37585 37330 0
-37585 36235 0
37585 -37330 -36235 0
-37332 37334 0
-37332 37335 0
37332 -37334 -37335 0
-37587 37336 0
-37587 36241 0
37587 -37336 -36241 0
-37338 37340 0
-37338 37341 0
37338 -37340 -37341 0
-36245 36966 0
-36245 36969 0
36245 -36966 -36969 0
-37589 37342 0
-37589 36250 0
37589 -37342 -36250 0
-37344 37346 0
-37344 37347 0
37344 -37346 -37347 0
-37328 37355 0
-37328 37323 0
37328 -37355 -37323 0
-37334 37328 0
-37334 37329 0
37334 -37328 -37329 0
-37340 37334 0
-37340 37335 0
37340 -37334 -37335 0
-37346 37340 0
-37346 37341 0
37346 -37340 -37341 0
-36693 36685 0
-36693 37354 0
36693 -36685 -37354 0
-36699 36688 0
-36699 36691 0
36699 -36688 -36691 0
-36705 36694 0
-36705 36697 0
36705 -36694 -36697 0
-36711 36700 0
-36711 36703 0
36711 -36700 -36703 0
-37591 36281 0
-37591 36280 0
37591 -36281 -36280 0
-36281 36732 0
-36281 36735 0
36281 -36732 -36735 0
-37593 36287 0
-37593 36286 0
37593 -36287 -36286 0
-36287 36738 0
-36287 36741 0
36287 -36738 -36741 0
-37595 36293 0
-37595 36292 0
37595 -36293 -36292 0
-36293 36744 0
-36293 36747 0
36293 -36744 -36747 0
-37597 36299 0
-37597 36298 0
37597 -36299 -36298 0
-36299 36753 0
-36299 36756 0
36299 -36753 -36756 0
-37362 37179 0
-37362 36764 0
37362 -37179 -36764 0
-37359 37177 0
-37359 36764 0
37359 -37177 -36764 0
-37404 36765 0
-37404 36768 0
37404 -36765 -36768 0
-36817 36777 0
-36817 36780 0
36817 -36777 -36780 0
-36790 36783 0
-36790 36786 0
36790 -36783 -36786 0
-37422 37368 0
-37422 37381 0
37422 -37368 -37381 0
-37599 37364 0
-37599 36322 0
37599 -37364 -36322 0
-37366 37368 0
-37366 37369 0
37366 -37368 -37369 0
-37601 37370 0
-37601 36328 0
37601 -37370 -36328 0
-37372 37374 0
-37372 37375 0
37372 -37374 -37375 0
-37603 37376 0
-37603 36334 0
37603 -37376 -36334 0
-37378 37380 0
-37378 37381 0
37378 -37380 -37381 0
-37374 37368 0
-37374 37369 0
37374 -37368 -37369 0
-37380 37374 0
-37380 37375 0
37380 -37374 -37375 0
-36809 37386 0
-36809 37387 0
-36809 37399 0
36809 -37386 -37387 -37399 0
-37605 37382 0
-37605 36350 0
37605 -37382 -36350 0
-37384 37386 0
-37384 37387 0
37384 -37386 -37387 0
-37607 37388 0
-37607 36356 0
37607 -37388 -36356 0
-37390 37392 0
-37390 37393 0
37390 -37392 -37393 0
-37609 37394 0
-37609 36362 0
37609 -37394 -36362 0
-37396 37398 0
-37396 37399 0
37396 -37398 -37399 0
-37392 37386 0
-37392 37387 0
37392 -37386 -37387 0
-37398 37392 0
-37398 37393 0
37398 -37392 -37393 0
-37611 37400 0
-37611 36374 0
37611 -37400 -36374 0
-37402 37404 0
-37402 37405 0
37402 -37404 -37405 0
-37613 37406 0
-37613 36380 0
37613 -37406 -36380 0
-37408 37410 0
-37408 37411 0
37408 -37410 -37411 0
-37615 37412 0
-37615 36386 0
37615 -37412 -36386 0
-37414 37416 0
-37414 37417 0
37414 -37416 -37417 0
-37410 37404 0
-37410 37405 0
37410 -37404 -37405 0
-37416 37404 0
-37416 37411 0
37416 -37404 -37411 0
-36884 37416 0
-36884 37417 0
36884 -37416 -37417 0
-37617 37418 0
-37617 36401 0
37617 -37418 -36401 0
-37420 37422 0
-37420 37423 0
37420 -37422 -37423 0
-37619 37424 0
-37619 36407 0
37619 -37424 -36407 0
-37426 37428 0
-37426 37429 0
37426 -37428 -37429 0
-37621 37430 0
-37621 36413 0
37621 -37430 -36413 0
-37432 37434 0
-37432 37435 0
37432 -37434 -37435 0
-37428 37422 0
-37428 37423 0
37428 -37422 -37423 0
-37434 37422 0
-37434 37429 0
37434 -37422 -37429 0
-36572 36798 0
-36572 36801 0
36572 -36798 -36801 0
-37512 36771 0
-37512 36774 0
37512 -36771 -36774 0
-37132 36789 0
-37132 36792 0
37132 -36789 -36792 0
-37623 36819 0
-37623 36434 0
37623 -36819 -36434 0
-37625 37436 0
-37625 36437 0
37625 -37436 -36437 0
-37437 37446 0
-37437 36863 0
37437 -37446 -36863 0
-37627 36822 0
-37627 36443 0
37627 -36822 -36443 0
-37629 37442 0
-37629 36446 0
37629 -37442 -36446 0
-37443 37446 0
-37443 36449 0
37443 -37446 -36449 0
-36955 36451 0
-36955 36452 0
-36955 36453 0
36955 -36451 -36452 -36453 0
-37631 37448 0
-37631 36456 0
37631 -37448 -36456 0
-37450 37452 0
-37450 37453 0
37450 -37452 -37453 0
-37633 37454 0
-37633 36462 0
37633 -37454 -36462 0
-37456 37458 0
-37456 37459 0
37456 -37458 -37459 0
-37635 37460 0
-37635 36468 0
37635 -37460 -36468 0
-37462 37464 0
-37462 37465 0
37462 -37464 -37465 0
-37637 37466 0
-37637 36474 0
37637 -37466 -36474 0
-37468 37470 0
-37468 37471 0
37468 -37470 -37471 0
-37458 37452 0
-37458 37453 0
37458 -37452 -37453 0
-37464 37458 0
-37464 37459 0
37464 -37458 -37459 0
-37470 37464 0
-37470 37465 0
37470 -37464 -37465 0
-36832 36849 0
-36832 36852 0
36832 -36849 -36852 0
-36838 36855 0
-36838 36858 0
36838 -36855 -36858 0
-36847 36861 0
-36847 36864 0
36847 -36861 -36864 0
-37639 36828 0
-37639 36831 0
37639 -36828 -36831 0
-37641 36834 0
-37641 36837 0
37641 -36834 -36837 0
-37643 36843 0
-37643 36846 0
37643 -36843 -36846 0
-37645 37476 0
-37645 36507 0
37645 -37476 -36507 0
-37478 37480 0
-37478 37481 0
37478 -37480 -37481 0
-37647 37482 0
-37647 36513 0
37647 -37482 -36513 0
-37484 37486 0
-37484 37487 0
37484 -37486 -37487 0
-37649 37488 0
-37649 36519 0
37649 -37488 -36519 0
-37490 37492 0
-37490 37493 0
37490 -37492 -37493 0
-37651 37494 0
-37651 36525 0
37651 -37494 -36525 0
-37496 37498 0
-37496 37499 0
37496 -37498 -37499 0
-37653 37500 0
-37653 36531 0
37653 -37500 -36531 0
-37502 37504 0
-37502 37505 0
37502 -37504 -37505 0
-37486 37480 0
-37486 37481 0
37486 -37480 -37481 0
-37492 37486 0
-37492 37487 0
37492 -37486 -37487 0
-37498 37492 0
-37498 37493 0
37498 -37492 -37493 0
-37504 37498 0
-37504 37499 0
37504 -37498 -37499 0
-37655 36888 0
-37655 36891 0
37655 -36888 -36891 0
-37657 36894 0
-37657 36897 0
37657 -36894 -36897 0
-37659 36900 0
-37659 36903 0
37659 -36900 -36903 0
-37661 36906 0
-37661 36909 0
37661 -36906 -36909 0
-36559 36972 0
-36559 36975 0
36559 -36972 -36975 0
-37663 36927 0
-37663 36564 0
37663 -36927 -36564 0
-36928 36930 0
-36928 36567 0
36928 -36930 -36567 0
-36935 36960 0
-36935 36963 0
36935 -36960 -36963 0
-37480 36572 0
-37480 37513 0
37480 -36572 -37513 0
-37665 36939 0
-37665 36942 0
37665 -36939 -36942 0
-37667 36948 0
-37667 36951 0
37667 -36948 -36951 0
-37121 37008 0
-37121 37011 0
37121 -37008 -37011 0
-37131 36954 0
-37131 36957 0
37131 -36954 -36957 0
-37530 36660 0
-37530 37018 0
37530 -36660 -37018 0
-37531 36669 0
-37531 37024 0
37531 -36669 -37024 0
-37532 36881 0
-37532 37030 0
37532 -36881 -37030 0
-37533 36778 0
-37533 37027 0
37533 -36778 -37027 0
-36841 36599 0
-36841 37180 0
36841 -36599 -37180 0
-36946 36602 0
-36946 37180 0
36946 -36602 -37180 0
-37669 36605 0
-37669 36606 0
37669 -36605 -36606 0
-37671 36610 0
-37671 36609 0
37671 -36610 -36609 0
-36610 37014 0
-36610 37017 0
36610 -37014 -37017 0
-37673 36616 0
-37673 36615 0
37673 -36616 -36615 0
-36616 37020 0
-36616 37023 0
36616 -37020 -37023 0
-37675 36622 0
-37675 36621 0
37675 -36622 -36621 0
-36622 37026 0
-36622 37029 0
36622 -37026 -37029 0
-37521 37035 0
-37521 36627 0
37521 -37035 -36627 0
-37524 37041 0
-37524 37044 0
37524 -37041 -37044 0
-37527 37050 0
-37527 37053 0
37527 -37050 -37053 0
-37683 37116 0
-37683 36636 0
37683 -37116 -36636 0
-37685 37534 0
-37685 36639 0
37685 -37534 -36639 0
-37535 37538 0
-37535 37027 0
37535 -37538 -37027 0
-37687 37514 0
-37687 36645 0
37687 -37514 -36645 0
37076 -37255 0
37076 -37079 0
-37076 37255 37079 0
37082 -37084 0
37082 -37085 0
-37082 37084 37085 0
37088 -37090 0
37088 -37091 0
-37088 37090 37091 0
37094 -37096 0
37094 -37097 0
-37094 37096 37097 0
37090 -37051 0
37090 -36660 0
-37090 37051 36660 0
36661 -37097 0
36661 -37051 0
-36661 37097 37051 0
36664 -36793 0
36664 -36666 0
-36664 36793 36666 0
37386 -37051 0
37386 -36669 0
-37386 37051 36669 0
36802 -37051 0
36802 -36672 0
-36802 37051 36672 0
37100 -37102 0
37100 -37103 0
-37100 37102 37103 0
37106 -37386 0
37106 -37109 0
-37106 37386 37109 0
37112 -37114 0
37112 -37115 0
-37112 37114 37115 0
37118 -37131 0
37118 -37126 0
-37118 37131 37126 0
36685 -37156 0
36685 -37323 0
-36685 37156 37323 0
36688 -37159 0
36688 -37329 0
-36688 37159 37329 0
36691 -37353 0
36691 -36693 0
-36691 37353 36693 0
36694 -37162 0
36694 -37335 0
-36694 37162 37335 0
36697 -37351 0
36697 -36699 0
-36697 37351 36699 0
36700 -37150 0
36700 -37341 0
-36700 37150 37341 0
36703 -37350 0
36703 -36705 0
-36703 37350 36705 0
37256 -37153 0
37256 -37347 0
-37256 37153 37347 0
37257 -37349 0
37257 -36711 0
-37257 37349 36711 0
37135 -37323 0
37135 -37156 0
-37135 37323 37156 0
37138 -37329 0
37138 -37159 0
-37138 37329 37159 0
37141 -37335 0
37141 -37162 0
-37141 37335 37162 0
37144 -37341 0
37144 -37150 0
-37144 37341 37150 0
37147 -37347 0
37147 -37153 0
-37147 37347 37153 0
36760 -37170 0
36760 -37171 0
36760 -37172 0
36760 -37173 0
-36760 37170 37171 37172 37173 0
36732 -37173 0
36732 -36755 0
-36732 37173 36755 0
36735 -36736 0
36735 -36737 0
-36735 36736 36737 0
36738 -37172 0
36738 -36755 0
-36738 37172 36755 0
36741 -37173 0
36741 -36743 0
-36741 37173 36743 0
36744 -37171 0
36744 -36755 0
-36744 37171 36755 0
36747 -37172 0
36747 -36749 0
-36747 37172 36749 0
36755 -36809 0
36755 -37054 0
-36755 36809 37054 0
36753 -37170 0
36753 -36755 0
-36753 37170 36755 0
36756 -37171 0
36756 -36758 0
-36756 37171 36758 0
37175 -36760 0
37175 -36764 0
-37175 36760 36764 0
37178 -37356 0
37178 -36764 0
-37178 37356 36764 0
36765 -36766 0
36765 -36800 0
-36765 36766 36800 0
36768 -37386 0
36768 -36770 0
-36768 37386 36770 0
36771 -37311 0
36771 -36800 0
-36771 37311 36800 0
36774 -36775 0
36774 -36776 0
-36774 36775 36776 0
36777 -36778 0
36777 -37054 0
-36777 36778 37054 0
36780 -36884 0
36780 -36782 0
-36780 36884 36782 0
36783 -37435 0
36783 -37054 0
-36783 37435 37054 0
36786 -37417 0
36786 -36788 0
-36786 37417 36788 0
36789 -36790 0
36789 -37045 0
-36789 36790 37045 0
36792 -36793 0
36792 -36794 0
-36792 36793 36794 0
36800 -36955 0
36800 -37045 0
-36800 36955 37045 0
36798 -36799 0
36798 -36800 0
-36798 36799 36800 0
36801 -36802 0
36801 -36803 0
-36801 36802 36803 0
36804 -37058 0
36804 -37422 0
-36804 37058 37422 0
36807 -37058 0
36807 -36809 0
-36807 37058 36809 0
36810 -37058 0
36810 -37416 0
-36810 37058 37416 0
36813 -37058 0
36813 -37434 0
-36813 37058 37434 0
37452 -36817 0
37452 -37045 0
-37452 36817 37045 0
36819 -37512 0
36819 -36821 0
-36819 37512 36821 0
36822 -37446 0
36822 -36824 0
-36822 37446 36824 0
37009 -37249 0
37009 -37513 0
-37009 37249 37513 0
36828 -37473 0
36828 -36845 0
-36828 37473 36845 0
36831 -36832 0
36831 -36833 0
-36831 36832 36833 0
36834 -37474 0
36834 -36845 0
-36834 37474 36845 0
36837 -36838 0
36837 -36839 0
-36837 36838 36839 0
36845 -36841 0
36845 -37058 0
-36845 36841 37058 0
36843 -37475 0
36843 -36845 0
-36843 37475 36845 0
36846 -36847 0
36846 -36848 0
-36846 36847 36848 0
36849 -37000 0
36849 -36863 0
-36849 37000 36863 0
36852 -36982 0
36852 -36854 0
-36852 36982 36854 0
36855 -37006 0
36855 -36863 0
-36855 37006 36863 0
36858 -36988 0
36858 -36860 0
-36858 36988 36860 0
36861 -37012 0
36861 -36863 0
-36861 37012 36863 0
36864 -36994 0
36864 -36866 0
-36864 36994 36866 0
37185 -37473 0
37185 -37453 0
-37185 37473 37453 0
37188 -37474 0
37188 -37459 0
-37188 37474 37459 0
37191 -37475 0
37191 -37465 0
-37191 37475 37465 0
37194 -37472 0
37194 -37471 0
-37194 37472 37471 0
37102 -37054 0
37102 -36881 0
-37102 37054 36881 0
37368 -37054 0
37368 -36884 0
-37368 37054 36884 0
37513 -37207 0
37513 -37211 0
-37513 37207 37211 0
36888 -37507 0
36888 -36950 0
-36888 37507 36950 0
36891 -36958 0
36891 -36893 0
-36891 36958 36893 0
36894 -37508 0
36894 -36950 0
-36894 37508 36950 0
36897 -36970 0
36897 -36899 0
-36897 36970 36899 0
36900 -37509 0
36900 -36950 0
-36900 37509 36950 0
36903 -36964 0
36903 -36905 0
-36903 36964 36905 0
36906 -37510 0
36906 -36950 0
-36906 37510 36950 0
36909 -36976 0
36909 -36911 0
-36909 36976 36911 0
37216 -37507 0
37216 -37481 0
-37216 37507 37481 0
37219 -37508 0
37219 -37487 0
-37219 37508 37487 0
37222 -37509 0
37222 -37493 0
-37222 37509 37493 0
37225 -37510 0
37225 -37499 0
-37225 37510 37499 0
37228 -37506 0
37228 -37505 0
-37228 37506 37505 0
36927 -36928 0
36927 -37480 0
-36927 36928 37480 0
36930 -37249 0
36930 -37511 0
-36930 37249 37511 0
37245 -36949 0
37245 -36935 0
-37245 36949 36935 0
37246 -36937 0
37246 -36940 0
-37246 36937 36940 0
36939 -36940 0
36939 -36950 0
-36939 36940 36950 0
36942 -37052 0
36942 -36944 0
-36942 37052 36944 0
36950 -36946 0
36950 -37058 0
-36950 36946 37058 0
36948 -36949 0
36948 -36950 0
-36948 36949 36950 0
36951 -37538 0
36951 -36953 0
-36951 37538 36953 0
36954 -36955 0
36954 -37045 0
-36954 36955 37045 0
36957 -36958 0
36957 -36959 0
-36957 36958 36959 0
36960 -36961 0
36960 -37045 0
-36960 36961 37045 0
36963 -36964 0
36963 -36965 0
-36963 36964 36965 0
36966 -37180 0
36966 -37045 0
-36966 37180 37045 0
36969 -36970 0
36969 -36971 0
-36969 36970 36971 0
36972 -37180 0
36972 -37045 0
-36972 37180 37045 0
36975 -36976 0
36975 -36977 0
-36975 36976 36977 0
36978 -37059 0
36978 -37045 0
-36978 37059 37045 0
36981 -36982 0
36981 -36983 0
-36981 36982 36983 0
36984 -37062 0
36984 -37045 0
-36984 37062 37045 0
36987 -36988 0
36987 -36989 0
-36987 36988 36989 0
36990 -37065 0
36990 -37045 0
-36990 37065 37045 0
36993 -36994 0
36993 -36995 0
-36993 36994 36995 0
36996 -37068 0
36996 -37045 0
-36996 37068 37045 0
36999 -37000 0
36999 -37001 0
-36999 37000 37001 0
37002 -37071 0
37002 -37045 0
-37002 37071 37045 0
37005 -37006 0
37005 -37007 0
-37005 37006 37007 0
37008 -37009 0
37008 -37045 0
-37008 37009 37045 0
37011 -37012 0
37011 -37013 0
-37011 37012 37013 0
37014 -37024 0
37014 -37538 0
-37014 37024 37538 0
37017 -37018 0
37017 -37019 0
-37017 37018 37019 0
37020 -37030 0
37020 -37538 0
-37020 37030 37538 0
37023 -37024 0
37023 -37025 0
-37023 37024 37025 0
37026 -37027 0
37026 -37538 0
-37026 37027 37538 0
37029 -37030 0
37029 -37031 0
-37029 37030 37031 0
37677 -37520 0
37677 -37056 0
-37677 37520 37056 0
37035 -37045 0
37035 -37052 0
-37035 37045 37052 0
37679 -37523 0
37679 -37056 0
-37679 37523 37056 0
37041 -37054 0
37041 -37052 0
-37041 37054 37052 0
37044 -37045 0
37044 -37046 0
-37044 37045 37046 0
37681 -37526 0
37681 -37056 0
-37681 37526 37056 0
37050 -37051 0
37050 -37052 0
-37050 37051 37052 0
37053 -37054 0
37053 -37055 0
-37053 37054 37055 0
37056 -37518 0
37056 -37058 0
-37056 37518 37058 0
37059 37481 0
37059 37073 0
-37059 -37481 -37073 0
37062 37487 0
37062 37073 0
-37062 -37487 -37073 0
37065 37493 0
37065 37073 0
-37065 -37493 -37073 0
37068 37499 0
37068 37073 0
-37068 -37499 -37073 0
37071 37505 0
37071 37073 0
-37071 -37505 -37073 0
37074 37077 0
37074 37076 0
-37074 -37077 -37076 0
37077 37255 0
37077 37079 0
-37077 -37255 -37079 0
37080 37083 0
37080 37082 0
-37080 -37083 -37082 0
37083 37084 0
37083 37085 0
-37083 -37084 -37085 0
37086 37089 0
37086 37088 0
-37086 -37089 -37088 0
37089 37090 0
37089 37091 0
-37089 -37090 -37091 0
37092 37095 0
37092 37094 0
-37092 -37095 -37094 0
37095 37096 0
37095 37097 0
-37095 -37096 -37097 0
37098 37101 0
37098 37100 0
-37098 -37101 -37100 0
37101 37102 0
37101 37103 0
-37101 -37102 -37103 0
37104 37107 0
37104 37106 0
-37104 -37107 -37106 0
37107 37386 0
37107 37109 0
-37107 -37386 -37109 0
37110 37113 0
37110 37112 0
-37110 -37113 -37112 0
37113 37114 0
37113 37115 0
-37113 -37114 -37115 0
37116 37130 0
37116 37118 0
-37116 -37130 -37118 0
37129 37512 0
37129 37121 0
-37129 -37512 -37121 0
37128 37123 0
37128 37166 0
37128 37512 0
-37128 -37123 -37166 -37512 0
37126 37255 0
37126 37128 0
37126 37129 0
-37126 -37255 -37128 -37129 0
37130 37131 0
37130 37132 0
-37130 -37131 -37132 0
37354 37154 0
37354 37135 0
-37354 -37154 -37135 0
37353 37157 0
37353 37138 0
-37353 -37157 -37138 0
37351 37160 0
37351 37141 0
-37351 -37160 -37141 0
37350 37148 0
37350 37144 0
-37350 -37148 -37144 0
37349 37151 0
37349 37147 0
-37349 -37151 -37147 0
37148 37341 0
37148 37150 0
-37148 -37341 -37150 0
37151 37347 0
37151 37153 0
-37151 -37347 -37153 0
37154 37323 0
37154 37156 0
-37154 -37323 -37156 0
37157 37329 0
37157 37159 0
-37157 -37329 -37159 0
37160 37335 0
37160 37162 0
-37160 -37335 -37162 0
37167 37348 0
37167 37352 0
-37167 -37348 -37352 0
37166 37167 0
37166 37255 0
-37166 -37167 -37255 0
37356 37170 0
37356 37171 0
37356 37172 0
37356 37173 0
-37356 -37170 -37171 -37172 -37173 0
37179 37175 0
37179 37176 0
-37179 -37175 -37176 0
37177 37178 0
37177 37179 0
-37177 -37178 -37179 0
37180 37181 0
37180 37250 0
-37180 -37181 -37250 0
37251 37195 0
37251 37185 0
-37251 -37195 -37185 0
37252 37198 0
37252 37188 0
-37252 -37198 -37188 0
37253 37201 0
37253 37191 0
-37253 -37201 -37191 0
37254 37204 0
37254 37194 0
-37254 -37204 -37194 0
37195 37473 0
37195 37453 0
-37195 -37473 -37453 0
37198 37474 0
37198 37459 0
-37198 -37474 -37459 0
37201 37475 0
37201 37465 0
-37201 -37475 -37465 0
37204 37472 0
37204 37471 0
-37204 -37472 -37471 0
37207 37214 0
37207 37217 0
37207 37220 0
-37207 -37214 -37217 -37220 0
37211 37223 0
37211 37226 0
-37211 -37223 -37226 0
37214 37229 0
37214 37216 0
-37214 -37229 -37216 0
37217 37232 0
37217 37219 0
-37217 -37232 -37219 0
37220 37235 0
37220 37222 0
-37220 -37235 -37222 0
37223 37238 0
37223 37225 0
-37223 -37238 -37225 0
37226 37241 0
37226 37228 0
-37226 -37241 -37228 0
37229 37507 0
37229 37481 0
-37229 -37507 -37481 0
37232 37508 0
37232 37487 0
-37232 -37508 -37487 0
37235 37509 0
37235 37493 0
-37235 -37509 -37493 0
37238 37510 0
37238 37499 0
-37238 -37510 -37499 0
37241 37506 0
37241 37505 0
-37241 -37506 -37505 0
37516 37245 0
37516 37246 0
-37516 -37245 -37246 0
37515 37512 0
37515 37249 0
-37515 -37512 -37249 0
37250 37251 0
37250 37252 0
37250 37253 0
37250 37254 0
-37250 -37251 -37252 -37253 -37254 0
37255 37256 0
37255 37257 0
-37255 -37256 -37257 0
-37258 -37261 0
-37258 -37260 0
37258 37261 37260 0
-37261 -37262 0
-37261 -37263 0
37261 37262 37263 0
-37264 -37267 0
-37264 -37266 0
37264 37267 37266 0
-37267 -37268 0
-37267 -37269 0
37267 37268 37269 0
-37270 -37273 0
-37270 -37272 0
37270 37273 37272 0
-37273 -37274 0
-37273 -37275 0
37273 37274 37275 0
-37276 -37279 0
-37276 -37278 0
37276 37279 37278 0
-37279 -37280 0
-37279 -37281 0
37279 37280 37281 0
-37282 -37285 0
-37282 -37284 0
37282 37285 37284 0
-37285 -37286 0
-37285 -37287 0
37285 37286 37287 0
-37288 -37291 0
-37288 -37290 0
37288 37291 37290 0
-37291 -37292 0
-37291 -37293 0
37291 37292 37293 0
-37294 -37297 0
-37294 -37296 0
37294 37297 37296 0
-37297 -37298 0
-37297 -37299 0
37297 37298 37299 0
-37300 -37303 0
-37300 -37302 0
37300 37303 37302 0
-37303 -37304 0
-37303 -37305 0
37303 37304 37305 0
-37306 -37309 0
-37306 -37308 0
37306 37309 37308 0
-37309 -37310 0
-37309 -37311 0
37309 37310 37311 0
-37312 -37315 0
-37312 -37314 0
37312 37315 37314 0
-37315 -37316 0
-37315 -37317 0
37315 37316 37317 0
-37318 -37321 0
-37318 -37320 0
37318 37321 37320 0
-37321 -37355 0
-37321 -37323 0
37321 37355 37323 0
-37324 -37327 0
-37324 -37326 0
37324 37327 37326 0
-37327 -37328 0
-37327 -37329 0
37327 37328 37329 0
-37330 -37333 0
-37330 -37332 0
37330 37333 37332 0
-37333 -37334 0
-37333 -37335 0
37333 37334 37335 0
-37336 -37339 0
-37336 -37338 0
37336 37339 37338 0
-37339 -37340 0
-37339 -37341 0
37339 37340 37341 0
-37342 -37345 0
-37342 -37344 0
37342 37345 37344 0
-37345 -37346 0
-37345 -37347 0
37345 37346 37347 0
-37348 -37349 0
-37348 -37350 0
-37348 -37351 0
37348 37349 37350 37351 0
-37352 -37353 0
-37352 -37354 0
37352 37353 37354 0
-37355 -37356 0
-37355 -37361 0
37355 37356 37361 0
-37363 -37359 0
-37363 -37360 0
37363 37359 37360 0
-37361 -37362 0
-37361 -37363 0
37361 37362 37363 0
-37364 -37367 0
-37364 -37366 0
37364 37367 37366 0
-37367 -37368 0
-37367 -37369 0
37367 37368 37369 0
-37370 -37373 0
-37370 -37372 0
37370 37373 37372 0
-37373 -37374 0
-37373 -37375 0
37373 37374 37375 0
-37376 -37379 0
-37376 -37378 0
37376 37379 37378 0
-37379 -37380 0
-37379 -37381 0
37379 37380 37381 0
-37382 -37385 0
-37382 -37384 0
37382 37385 37384 0
-37385 -37386 0
-37385 -37387 0
37385 37386 37387 0
-37388 -37391 0
-37388 -37390 0
37388 37391 37390 0
-37391 -37392 0
-37391 -37393 0
37391 37392 37393 0
-37394 -37397 0
-37394 -37396 0
37394 37397 37396 0
-37397 -37398 0
-37397 -37399 0
37397 37398 37399 0
-37400 -37403 0
-37400 -37402 0
37400 37403 37402 0
-37403 -37404 0
-37403 -37405 0
37403 37404 37405 0
-37406 -37409 0
-37406 -37408 0
37406 37409 37408 0
-37409 -37410 0
-37409 -37411 0
37409 37410 37411 0
-37412 -37415 0
-37412 -37414 0
37412 37415 37414 0
-37415 -37416 0
-37415 -37417 0
37415 37416 37417 0
-37418 -37421 0
-37418 -37420 0
37418 37421 37420 0
-37421 -37422 0
-37421 -37423 0
37421 37422 37423 0
-37424 -37427 0
-37424 -37426 0
37424 37427 37426 0
-37427 -37428 0
-37427 -37429 0
37427 37428 37429 0
-37430 -37433 0
-37430 -37432 0
37430 37433 37432 0
-37433 -37434 0
-37433 -37435 0
37433 37434 37435 0
-37436 -37437 0
-37436 -37439 0
37436 37437 37439 0
-37439 -37446 0
-37439 -37441 0
37439 37446 37441 0
-37442 -37443 0
-37442 -37445 0
37442 37443 37445 0
-37445 -37446 0
-37445 -37447 0
37445 37446 37447 0
-37448 -37451 0
-37448 -37450 0
37448 37451 37450 0
-37451 -37452 0
-37451 -37453 0
37451 37452 37453 0
-37454 -37457 0
-37454 -37456 0
37454 37457 37456 0
-37457 -37458 0
-37457 -37459 0
37457 37458 37459 0
-37460 -37463 0
-37460 -37462 0
37460 37463 37462 0
-37463 -37464 0
-37463 -37465 0
37463 37464 37465 0
-37466 -37469 0
-37466 -37468 0
37466 37469 37468 0
-37469 -37470 0
-37469 -37471 0
37469 37470 37471 0
-37472 -37473 0
-37472 -37474 0
-37472 -37475 0
37472 37473 37474 37475 0
-37476 -37479 0
-37476 -37478 0
37476 37479 37478 0
-37479 -37480 0
-37479 -37481 0
37479 37480 37481 0
-37482 -37485 0
-37482 -37484 0
37482 37485 37484 0
-37485 -37486 0
-37485 -37487 0
37485 37486 37487 0
-37488 -37491 0
-37488 -37490 0
37488 37491 37490 0
-37491 -37492 0
-37491 -37493 0
37491 37492 37493 0
-37494 -37497 0
-37494 -37496 0
37494 37497 37496 0
-37497 -37498 0
-37497 -37499 0
37497 37498 37499 0
-37500 -37503 0
-37500 -37502 0
37500 37503 37502 0
-37503 -37504 0
-37503 -37505 0
37503 37504 37505 0
-37506 -37507 0
-37506 -37508 0
-37506 -37509 0
-37506 -37510 0
37506 37507 37508 37509 37510 0
-37511 -37512 0
-37511 -37513 0
37511 37512 37513 0
-37514 -37515 0
-37514 -37516 0
37514 37515 37516 0
-37528 -37518 0
-37528 -37519 0
37528 37518 37519 0
-37520 -37521 0
-37520 -37528 0
37520 37521 37528 0
-37523 -37524 0
-37523 -37528 0
37523 37524 37528 0
-37526 -37527 0
-37526 -37528 0
37526 37527 37528 0
-37529 -37530 0
-37529 -37531 0
-37529 -37532 0
-37529 -37533 0
37529 37530 37531 37532 37533 0
-37534 -37535 0
-37534 -37537 0
37534 37535 37537 0
-37537 -37538 0
-37537 -37539 0
37537 37538 37539 0
-37541 39133 0
37541 -39133 0
-37543 39317 0
37543 -39317 0
-37545 37699 0
37545 -37699 0
-37547 39220 0
37547 -39220 0
-37549 39226 0
37549 -39226 0
-37551 37707 0
37551 -37707 0
-37553 39232 0
37553 -39232 0
-37555 37713 0
37555 -37713 0
-37557 39238 0
37557 -39238 0
-37559 39244 0
37559 -39244 0
-37561 39250 0
37561 -39250 0
-37563 39256 0
37563 -39256 0
-37565 38114 0
37565 -38114 0
-37567 38750 0
37567 -38750 0
-37569 37737 0
37569 -37737 0
-37571 39262 0
37571 -39262 0
-37573 39268 0
37573 -39268 0
-37575 37747 0
37575 -37747 0
-37577 37751 0
37577 -37751 0
-37579 39274 0
37579 -39274 0
-37581 39280 0
37581 -39280 0
-37583 39286 0
37583 -39286 0
-37585 39292 0
37585 -39292 0
-37587 39298 0
37587 -39298 0
-37589 39304 0
37589 -39304 0
-37591 39130 0
37591 -39130 0
-37593 39129 0
37593 -39129 0
-37595 39128 0
37595 -39128 0
-37597 39127 0
37597 -39127 0
-37599 39326 0
37599 -39326 0
-37601 39332 0
37601 -39332 0
-37603 39338 0
37603 -39338 0
-37605 39344 0
37605 -39344 0
-37607 39350 0
37607 -39350 0
-37609 39356 0
37609 -39356 0
-37611 39362 0
37611 -39362 0
-37613 39368 0
37613 -39368 0
-37615 39374 0
37615 -39374 0
-37617 39380 0
37617 -39380 0
-37619 39386 0
37619 -39386 0
-37621 39392 0
37621 -39392 0
-37623 38778 0
37623 -38778 0
-37625 39398 0
37625 -39398 0
-37627 38781 0
37627 -38781 0
-37629 39404 0
37629 -39404 0
-37631 39410 0
37631 -39410 0
-37633 39416 0
37633 -39416 0
-37635 39422 0
37635 -39422 0
-37637 39428 0
37637 -39428 0
-37639 39430 0
37639 -39430 0
-37641 39431 0
37641 -39431 0
-37643 39432 0
37643 -39432 0
-37645 39438 0
37645 -39438 0
-37647 39444 0
37647 -39444 0
-37649 39450 0
37649 -39450 0
-37651 39456 0
37651 -39456 0
-37653 39462 0
37653 -39462 0
-37655 39464 0
37655 -39464 0
-37657 39465 0
37657 -39465 0
-37659 39466 0
37659 -39466 0
-37661 39467 0
37661 -39467 0
-37663 39206 0
37663 -39206 0
-37665 38897 0
37665 -38897 0
-37667 38906 0
37667 -38906 0
-37669 39476 0
37669 -39476 0
-37671 38981 0
37671 -38981 0
-37673 38987 0
37673 -38987 0
-37675 38984 0
37675 -38984 0
-37677 38556 0
37677 -38556 0
-37679 38559 0
37679 -38559 0
-37681 37733 0
37681 -37733 0
-37683 38009 0
37683 -38009 0
-37685 39496 0
37685 -39496 0
-37687 38015 0
37687 -38015 0
37691 39134 0
-37691 -39134 0
39498 37691 0
-39498 -37691 0
37695 39318 0
-37695 -39318 0
39500 37695 0
-39500 -37695 0
38033 39015 0
-38033 -39015 0
39036 37699 0
-39036 -37699 0
38036 39015 0
-38036 -39015 0
38042 39015 0
-38042 -39015 0
38048 39015 0
-38048 -39015 0
39042 37707 0
-39042 -37707 0
38051 39015 0
-38051 -39015 0
38069 39015 0
-38069 -39015 0
39048 37713 0
-39048 -37713 0
38072 39015 0
-38072 -39015 0
38078 39015 0
-38078 -39015 0
38084 39015 0
-38084 -39015 0
38090 39015 0
-38090 -39015 0
38096 39015 0
-38096 -39015 0
38117 39015 0
-38117 -39015 0
38116 38750 0
-38116 -38750 0
39054 38114 0
-39054 -38114 0
38623 39008 0
-38623 -39008 0
39008 37733 0
-39008 -37733 0
38123 39015 0
-38123 -39015 0
39060 37737 0
-39060 -37737 0
38126 39015 0
-38126 -39015 0
38132 39015 0
-38132 -39015 0
38164 39268 0
-38164 -39268 0
38144 39015 0
-38144 -39015 0
39066 37747 0
-39066 -37747 0
38147 39015 0
-38147 -39015 0
39072 37751 0
-39072 -37751 0
38150 39015 0
-38150 -39015 0
38180 38202 0
-38180 -38202 0
38186 38202 0
-38186 -38202 0
38192 38202 0
-38192 -38202 0
38198 38202 0
-38198 -38202 0
38207 38202 0
-38207 -38202 0
39080 39124 0
-39080 -39124 0
38237 39015 0
-38237 -39015 0
38694 38712 0
-38694 -38712 0
38243 39015 0
-38243 -39015 0
38700 38712 0
-38700 -38712 0
38249 39015 0
-38249 -39015 0
38706 38712 0
-38706 -38712 0
38255 39015 0
-38255 -39015 0
38715 38712 0
-38715 -38712 0
38727 38757 0
-38727 -38757 0
38733 38757 0
-38733 -38757 0
38739 39011 0
-38739 -39011 0
38745 39011 0
-38745 -39011 0
39011 38559 0
-39011 -38559 0
38751 39002 0
-38751 -39002 0
38760 38757 0
-38760 -38757 0
38279 38761 0
-38279 -38761 0
38285 38761 0
-38285 -38761 0
38291 38761 0
-38291 -38761 0
38307 38764 0
-38307 -38764 0
38313 38764 0
-38313 -38764 0
38319 38764 0
-38319 -38764 0
38331 38767 0
-38331 -38767 0
38337 38767 0
-38337 -38767 0
38343 39015 0
-38343 -39015 0
38358 38770 0
-38358 -38770 0
38364 38770 0
-38364 -38770 0
38370 39015 0
-38370 -39015 0
38391 39015 0
-38391 -39015 0
38394 39015 0
-38394 -39015 0
38406 38781 0
-38406 -38781 0
38400 39015 0
-38400 -39015 0
38409 39404 0
-38409 -39404 0
38403 39015 0
-38403 -39015 0
38408 38966 0
-38408 -38966 0
38413 39137 0
-38413 -39137 0
38419 39137 0
-38419 -39137 0
38425 39137 0
-38425 -39137 0
38431 39137 0
-38431 -39137 0
39138 39015 0
-39138 -39015 0
38790 38802 0
-38790 -38802 0
38796 38802 0
-38796 -38802 0
38805 38802 0
-38805 -38802 0
38811 38820 0
-38811 -38820 0
38817 38820 0
-38817 -38820 0
38823 38820 0
-38823 -38820 0
38820 38778 0
-38820 -38778 0
38464 38516 0
-38464 -38516 0
38470 38516 0
-38470 -38516 0
38476 38516 0
-38476 -38516 0
38482 38516 0
-38482 -38516 0
38488 38516 0
-38488 -38516 0
38850 38907 0
-38850 -38907 0
38856 38907 0
-38856 -38907 0
38862 38907 0
-38862 -38907 0
38868 38907 0
-38868 -38907 0
38521 38516 0
-38521 -38516 0
38524 39468 0
-38524 -39468 0
39030 39473 0
-39030 -39473 0
38894 38892 0
-38894 -38892 0
38901 38907 0
-38901 -38907 0
38910 38907 0
-38910 -38907 0
38918 39398 0
-38918 -39398 0
39403 39207 0
-39403 -39207 0
38916 39002 0
-38916 -39002 0
38922 39002 0
-38922 -39002 0
38928 39002 0
-38928 -39002 0
38934 39002 0
-38934 -39002 0
38940 39002 0
-38940 -39002 0
38946 39002 0
-38946 -39002 0
38952 39002 0
-38952 -39002 0
38958 39002 0
-38958 -39002 0
38964 39002 0
-38964 -39002 0
38970 39002 0
-38970 -39002 0
39002 38556 0
-39002 -38556 0
38563 39015 0
-38563 -39015 0
39475 38562 0
-39475 -38562 0
37921 37919 0
-37921 -37919 0
38562 37921 0
-38562 -37921 0
38975 39496 0
-38975 -39496 0
38566 39015 0
-38566 -39015 0
38976 39495 0
-38976 -39495 0
38572 39015 0
-38572 -39015 0
38982 39495 0
-38982 -39495 0
38578 39015 0
-38578 -39015 0
38988 39495 0
-38988 -39495 0
37939 37937 0
-37939 -37937 0
39495 37939 0
-39495 -37939 0
38584 39009 0
-38584 -39009 0
39003 39009 0
-39003 -39009 0
39012 39009 0
-39012 -39009 0
37949 37947 0
-37949 -37947 0
39009 37949 0
-39009 -37949 0
37963 37951 0
-37963 -37951 0
37952 37963 0
-37952 -37963 0
38593 39015 0
-38593 -39015 0
38596 39015 0
-38596 -39015 0
38602 39015 0
-38602 -39015 0
39015 37961 0
-39015 -37961 0
38721 37963 0
-38721 -37963 0
37967 37965 0
-37967 -37965 0
38915 37967 0
-38915 -37967 0
37971 37969 0
-37971 -37969 0
38927 37971 0
-38927 -37971 0
37975 37973 0
-37975 -37973 0
38921 37975 0
-38921 -37975 0
37979 37977 0
-37979 -37977 0
38933 37979 0
-38933 -37979 0
37983 37981 0
-37983 -37981 0
38693 37983 0
-38693 -37983 0
37987 37985 0
-37987 -37985 0
38939 37987 0
-38939 -37987 0
37991 37989 0
-37991 -37989 0
38945 37991 0
-38945 -37991 0
37995 37993 0
-37995 -37993 0
38951 37995 0
-38951 -37995 0
37999 37997 0
-37999 -37997 0
38957 37999 0
-38957 -37999 0
38003 38001 0
-38003 -38001 0
38963 38003 0
-38963 -38003 0
38007 38005 0
-38007 -38005 0
38969 38007 0
-38969 -38007 0
38008 38009 0
-38008 -38009 0
38013 38011 0
-38013 -38011 0
38410 38013 0
-38410 -38013 0
38014 38015 0
-38014 -38015 0
-39113 38935 0
-39113 38938 0
39113 -38935 -38938 0
-39116 38941 0
-39116 38944 0
39116 -38941 -38944 0
-39119 38947 0
-39119 38950 0
39119 -38947 -38950 0
-39107 38953 0
-39107 38956 0
39107 -38953 -38956 0
-39110 38959 0
-39110 38962 0
39110 -38959 -38962 0
-39502 39031 0
-39502 38033 0
39502 -39031 -38033 0
-39504 39215 0
-39504 38036 0
39504 -39215 -38036 0
-39217 39219 0
-39217 39220 0
39217 -39219 -39220 0
-39506 39221 0
-39506 38042 0
39506 -39221 -38042 0
-39223 39225 0
-39223 39226 0
39223 -39225 -39226 0
-39508 39037 0
-39508 38048 0
39508 -39037 -38048 0
-39510 39227 0
-39510 38051 0
39510 -39227 -38051 0
-39229 39231 0
-39229 39232 0
39229 -39231 -39232 0
-39219 39212 0
-39219 39036 0
39219 -39212 -39036 0
-39225 39219 0
-39225 39220 0
39225 -39219 -39220 0
-39041 39225 0
-39041 39226 0
39041 -39225 -39226 0
-39231 39041 0
-39231 39042 0
39231 -39041 -39042 0
-39512 39043 0
-39512 38069 0
39512 -39043 -38069 0
-39514 39233 0
-39514 38072 0
39514 -39233 -38072 0
-39235 39237 0
-39235 39238 0
39235 -39237 -39238 0
-39516 39239 0
-39516 38078 0
39516 -39239 -38078 0
-39241 39243 0
-39241 39244 0
39241 -39243 -39244 0
-39518 39245 0
-39518 38084 0
39518 -39245 -38084 0
-39247 39249 0
-39247 39250 0
39247 -39249 -39250 0
-39520 39251 0
-39520 38090 0
39520 -39251 -38090 0
-39253 39255 0
-39253 39256 0
39253 -39255 -39256 0
-39522 39049 0
-39522 38096 0
39522 -39049 -38096 0
-39237 39047 0
-39237 39048 0
39237 -39047 -39048 0
-39243 39237 0
-39243 39238 0
39243 -39237 -39238 0
-39249 39243 0
-39249 39244 0
39249 -39243 -39244 0
-39255 39249 0
-39255 39250 0
39255 -39249 -39250 0
-39053 39255 0
-39053 39256 0
39053 -39255 -39256 0
-38629 39053 0
-38629 38114 0
38629 -39053 -38114 0
-39524 38116 0
-39524 38117 0
39524 -38116 -38117 0
-38732 38618 0
-38732 38621 0
38732 -38618 -38621 0
-39526 39055 0
-39526 38123 0
39526 -39055 -38123 0
-39528 39257 0
-39528 38126 0
39528 -39257 -38126 0
-39259 39261 0
-39259 39262 0
39259 -39261 -39262 0
-39530 39263 0
-39530 38132 0
39530 -39263 -38132 0
-39265 39267 0
-39265 39268 0
39265 -39267 -39268 0
-39261 39059 0
-39261 39060 0
39261 -39059 -39060 0
-39267 39261 0
-39267 39262 0
39267 -39261 -39262 0
-39532 39061 0
-39532 38144 0
39532 -39061 -38144 0
-39534 39067 0
-39534 38147 0
39534 -39067 -38147 0
-39536 39269 0
-39536 38150 0
39536 -39269 -38150 0
-39271 39273 0
-39271 39274 0
39271 -39273 -39274 0
-39071 39343 0
-39071 39066 0
39071 -39343 -39066 0
-39273 39071 0
-39273 39072 0
39273 -39071 -39072 0
-38723 39267 0
-38723 39268 0
38723 -39267 -39268 0
-38756 38164 0
-38756 39267 0
38756 -38164 -39267 0
-38617 39231 0
-38617 39232 0
38617 -39231 -39232 0
-38626 39053 0
-38626 39054 0
38626 -39053 -39054 0
-38838 39273 0
-38838 39274 0
38838 -39273 -39274 0
-38735 39391 0
-38735 39392 0
38735 -39391 -39392 0
-39538 39275 0
-39538 38180 0
39538 -39275 -38180 0
-39277 39312 0
-39277 39280 0
39277 -39312 -39280 0
-39540 39281 0
-39540 38186 0
39540 -39281 -38186 0
-39283 39285 0
-39283 39286 0
39283 -39285 -39286 0
-39542 39287 0
-39542 38192 0
39542 -39287 -38192 0
-39289 39291 0
-39289 39292 0
39289 -39291 -39292 0
-39544 39293 0
-39544 38198 0
39544 -39293 -38198 0
-39295 39297 0
-39295 39298 0
39295 -39297 -39298 0
-38202 38923 0
-38202 38926 0
38202 -38923 -38926 0
-39546 39299 0
-39546 38207 0
39546 -39299 -38207 0
-39301 39303 0
-39301 39304 0
39301 -39303 -39304 0
-39285 39312 0
-39285 39280 0
39285 -39312 -39280 0
-39291 39285 0
-39291 39286 0
39291 -39285 -39286 0
-39297 39291 0
-39297 39292 0
39297 -39291 -39292 0
-39303 39297 0
-39303 39298 0
39303 -39297 -39298 0
-38650 38642 0
-38650 39311 0
38650 -38642 -39311 0
-38656 38645 0
-38656 38648 0
38656 -38645 -38648 0
-38662 38651 0
-38662 38654 0
38662 -38651 -38654 0
-38668 38657 0
-38668 38660 0
38668 -38657 -38660 0
-39548 38238 0
-39548 38237 0
39548 -38238 -38237 0
-38238 38689 0
-38238 38692 0
38238 -38689 -38692 0
-39550 38244 0
-39550 38243 0
39550 -38244 -38243 0
-38244 38695 0
-38244 38698 0
38244 -38695 -38698 0
-39552 38250 0
-39552 38249 0
39552 -38250 -38249 0
-38250 38701 0
-38250 38704 0
38250 -38701 -38704 0
-39554 38256 0
-39554 38255 0
39554 -38256 -38255 0
-38256 38710 0
-38256 38713 0
38256 -38710 -38713 0
-39319 39136 0
-39319 38721 0
39319 -39136 -38721 0
-39316 39134 0
-39316 38721 0
39316 -39134 -38721 0
-39361 38722 0
-39361 38725 0
39361 -38722 -38725 0
-38774 38734 0
-38774 38737 0
38774 -38734 -38737 0
-38747 38740 0
-38747 38743 0
38747 -38740 -38743 0
-39379 39325 0
-39379 39338 0
39379 -39325 -39338 0
-39556 39321 0
-39556 38279 0
39556 -39321 -38279 0
-39323 39325 0
-39323 39326 0
39323 -39325 -39326 0
-39558 39327 0
-39558 38285 0
39558 -39327 -38285 0
-39329 39331 0
-39329 39332 0
39329 -39331 -39332 0
-39560 39333 0
-39560 38291 0
39560 -39333 -38291 0
-39335 39337 0
-39335 39338 0
39335 -39337 -39338 0
-39331 39325 0
-39331 39326 0
39331 -39325 -39326 0
-39337 39331 0
-39337 39332 0
39337 -39331 -39332 0
-38766 39343 0
-38766 39344 0
-38766 39356 0
38766 -39343 -39344 -39356 0
-39562 39339 0
-39562 38307 0
39562 -39339 -38307 0
-39341 39343 0
-39341 39344 0
39341 -39343 -39344 0
-39564 39345 0
-39564 38313 0
39564 -39345 -38313 0
-39347 39349 0
-39347 39350 0
39347 -39349 -39350 0
-39566 39351 0
-39566 38319 0
39566 -39351 -38319 0
-39353 39355 0
-39353 39356 0
39353 -39355 -39356 0
-39349 39343 0
-39349 39344 0
39349 -39343 -39344 0
-39355 39349 0
-39355 39350 0
39355 -39349 -39350 0
-39568 39357 0
-39568 38331 0
39568 -39357 -38331 0
-39359 39361 0
-39359 39362 0
39359 -39361 -39362 0
-39570 39363 0
-39570 38337 0
39570 -39363 -38337 0
-39365 39367 0
-39365 39368 0
39365 -39367 -39368 0
-39572 39369 0
-39572 38343 0
39572 -39369 -38343 0
-39371 39373 0
-39371 39374 0
39371 -39373 -39374 0
-39367 39361 0
-39367 39362 0
39367 -39361 -39362 0
-39373 39361 0
-39373 39368 0
39373 -39361 -39368 0
-38841 39373 0
-38841 39374 0
38841 -39373 -39374 0
-39574 39375 0
-39574 38358 0
39574 -39375 -38358 0
-39377 39379 0
-39377 39380 0
39377 -39379 -39380 0
-39576 39381 0
-39576 38364 0
39576 -39381 -38364 0
-39383 39385 0
-39383 39386 0
39383 -39385 -39386 0
-39578 39387 0
-39578 38370 0
39578 -39387 -38370 0
-39389 39391 0
-39389 39392 0
39389 -39391 -39392 0
-39385 39379 0
-39385 39380 0
39385 -39379 -39380 0
-39391 39379 0
-39391 39386 0
39391 -39379 -39386 0
-38529 38755 0
-38529 38758 0
38529 -38755 -38758 0
-39469 38728 0
-39469 38731 0
39469 -38728 -38731 0
-39089 38746 0
-39089 38749 0
39089 -38746 -38749 0
-39580 38776 0
-39580 38391 0
39580 -38776 -38391 0
-39582 39393 0
-39582 38394 0
39582 -39393 -38394 0
-39394 39403 0
-39394 38820 0
39394 -39403 -38820 0
-39584 38779 0
-39584 38400 0
39584 -38779 -38400 0
-39586 39399 0
-39586 38403 0
39586 -39399 -38403 0
-39400 39403 0
-39400 38406 0
39400 -39403 -38406 0
-38912 38408 0
-38912 38409 0
-38912 38410 0
38912 -38408 -38409 -38410 0
-39588 39405 0
-39588 38413 0
39588 -39405 -38413 0
-39407 39409 0
-39407 39410 0
39407 -39409 -39410 0
-39590 39411 0
-39590 38419 0
39590 -39411 -38419 0
-39413 39415 0
-39413 39416 0
39413 -39415 -39416 0
-39592 39417 0
-39592 38425 0
39592 -39417 -38425 0
-39419 39421 0
-39419 39422 0
39419 -39421 -39422 0
-39594 39423 0
-39594 38431 0
39594 -39423 -38431 0
-39425 39427 0
-39425 39428 0
39425 -39427 -39428 0
-39415 39409 0
-39415 39410 0
39415 -39409 -39410 0
-39421 39415 0
-39421 39416 0
39421 -39415 -39416 0
-39427 39421 0
-39427 39422 0
39427 -39421 -39422 0
-38789 38806 0
-38789 38809 0
38789 -38806 -38809 0
-38795 38812 0
-38795 38815 0
38795 -38812 -38815 0
-38804 38818 0
-38804 38821 0
38804 -38818 -38821 0
-39596 38785 0
-39596 38788 0
39596 -38785 -38788 0
-39598 38791 0
-39598 38794 0
39598 -38791 -38794 0
-39600 38800 0
-39600 38803 0
39600 -38800 -38803 0
-39602 39433 0
-39602 38464 0
39602 -39433 -38464 0
-39435 39437 0
-39435 39438 0
39435 -39437 -39438 0
-39604 39439 0
-39604 38470 0
39604 -39439 -38470 0
-39441 39443 0
-39441 39444 0
39441 -39443 -39444 0
-39606 39445 0
-39606 38476 0
39606 -39445 -38476 0
-39447 39449 0
-39447 39450 0
39447 -39449 -39450 0
-39608 39451 0
-39608 38482 0
39608 -39451 -38482 0
-39453 39455 0
-39453 39456 0
39453 -39455 -39456 0
-39610 39457 0
-39610 38488 0
39610 -39457 -38488 0
-39459 39461 0
-39459 39462 0
39459 -39461 -39462 0
-39443 39437 0
-39443 39438 0
39443 -39437 -39438 0
-39449 39443 0
-39449 39444 0
39449 -39443 -39444 0
-39455 39449 0
-39455 39450 0
39455 -39449 -39450 0
-39461 39455 0
-39461 39456 0
39461 -39455 -39456 0
-39612 38845 0
-39612 38848 0
39612 -38845 -38848 0
-39614 38851 0
-39614 38854 0
39614 -38851 -38854 0
-39616 38857 0
-39616 38860 0
39616 -38857 -38860 0
-39618 38863 0
-39618 38866 0
39618 -38863 -38866 0
-38516 38929 0
-38516 38932 0
38516 -38929 -38932 0
-39620 38884 0
-39620 38521 0
39620 -38884 -38521 0
-38885 38887 0
-38885 38524 0
38885 -38887 -38524 0
-38892 38917 0
-38892 38920 0
38892 -38917 -38920 0
-39437 38529 0
-39437 39470 0
39437 -38529 -39470 0
-39622 38896 0
-39622 38899 0
39622 -38896 -38899 0
-39624 38905 0
-39624 38908 0
39624 -38905 -38908 0
-39078 38965 0
-39078 38968 0
39078 -38965 -38968 0
-39088 38911 0
-39088 38914 0
39088 -38911 -38914 0
-39487 38617 0
-39487 38975 0
39487 -38617 -38975 0
-39488 38626 0
-39488 38981 0
39488 -38626 -38981 0
-39489 38838 0
-39489 38987 0
39489 -38838 -38987 0
-39490 38735 0
-39490 38984 0
39490 -38735 -38984 0
-38798 38556 0
-38798 39137 0
38798 -38556 -39137 0
-38903 38559 0
-38903 39137 0
38903 -38559 -39137 0
-39626 38562 0
-39626 38563 0
39626 -38562 -38563 0
-39628 38567 0
-39628 38566 0
39628 -38567 -38566 0
-38567 38971 0
-38567 38974 0
38567 -38971 -38974 0
-39630 38573 0
-39630 38572 0
39630 -38573 -38572 0
-38573 38977 0
-38573 38980 0
38573 -38977 -38980 0
-39632 38579 0
-39632 38578 0
39632 -38579 -38578 0
-38579 38983 0
-38579 38986 0
38579 -38983 -38986 0
-39478 38992 0
-39478 38584 0
39478 -38992 -38584 0
-39481 38998 0
-39481 39001 0
39481 -38998 -39001 0
-39484 39007 0
-39484 39010 0
39484 -39007 -39010 0
-39640 39073 0
-39640 38593 0
39640 -39073 -38593 0
-39642 39491 0
-39642 38596 0
39642 -39491 -38596 0
-39492 39495 0
-39492 38984 0
39492 -39495 -38984 0
-39644 39471 0
-39644 38602 0
39644 -39471 -38602 0
39033 -39212 0
39033 -39036 0
-39033 39212 39036 0
39039 -39041 0
39039 -39042 0
-39039 39041 39042 0
39045 -39047 0
39045 -39048 0
-39045 39047 39048 0
39051 -39053 0
39051 -39054 0
-39051 39053 39054 0
39047 -39008 0
39047 -38617 0
-39047 39008 38617 0
38618 -39054 0
38618 -39008 0
-38618 39054 39008 0
38621 -38750 0
38621 -38623 0
-38621 38750 38623 0
39343 -39008 0
39343 -38626 0
-39343 39008 38626 0
38759 -39008 0
38759 -38629 0
-38759 39008 38629 0
39057 -39059 0
39057 -39060 0
-39057 39059 39060 0
39063 -39343 0
39063 -39066 0
-39063 39343 39066 0
39069 -39071 0
39069 -39072 0
-39069 39071 39072 0
39075 -39088 0
39075 -39083 0
-39075 39088 39083 0
38642 -39113 0
38642 -39280 0
-38642 39113 39280 0
38645 -39116 0
38645 -39286 0
-38645 39116 39286 0
38648 -39310 0
38648 -38650 0
-38648 39310 38650 0
38651 -39119 0
38651 -39292 0
-38651 39119 39292 0
38654 -39308 0
38654 -38656 0
-38654 39308 38656 0
38657 -39107 0
38657 -39298 0
-38657 39107 39298 0
38660 -39307 0
38660 -38662 0
-38660 39307 38662 0
39213 -39110 0
39213 -39304 0
-39213 39110 39304 0
39214 -39306 0
39214 -38668 0
-39214 39306 38668 0
39092 -39280 0
39092 -39113 0
-39092 39280 39113 0
39095 -39286 0
39095 -39116 0
-39095 39286 39116 0
39098 -39292 0
39098 -39119 0
-39098 39292 39119 0
39101 -39298 0
39101 -39107 0
-39101 39298 39107 0
39104 -39304 0
39104 -39110 0
-39104 39304 39110 0
38717 -39127 0
38717 -39128 0
38717 -39129 0
38717 -39130 0
-38717 39127 39128 39129 39130 0
38689 -39130 0
38689 -38712 0
-38689 39130 38712 0
38692 -38693 0
38692 -38694 0
-38692 38693 38694 0
38695 -39129 0
38695 -38712 0
-38695 39129 38712 0
38698 -39130 0
38698 -38700 0
-38698 39130 38700 0
38701 -39128 0
38701 -38712 0
-38701 39128 38712 0
38704 -39129 0
38704 -38706 0
-38704 39129 38706 0
38712 -38766 0
38712 -39011 0
-38712 38766 39011 0
38710 -39127 0
38710 -38712 0
-38710 39127 38712 0
38713 -39128 0
38713 -38715 0
-38713 39128 38715 0
39132 -38717 0
39132 -38721 0
-39132 38717 38721 0
39135 -39313 0
39135 -38721 0
-39135 39313 38721 0
38722 -38723 0
38722 -38757 0
-38722 38723 38757 0
38725 -39343 0
38725 -38727 0
-38725 39343 38727 0
38728 -39268 0
38728 -38757 0
-38728 39268 38757 0
38731 -38732 0
38731 -38733 0
-38731 38732 38733 0
38734 -38735 0
38734 -39011 0
-38734 38735 39011 0
38737 -38841 0
38737 -38739 0
-38737 38841 38739 0
38740 -39392 0
38740 -39011 0
-38740 39392 39011 0
38743 -39374 0
38743 -38745 0
-38743 39374 38745 0
38746 -38747 0
38746 -39002 0
-38746 38747 39002 0
38749 -38750 0
38749 -38751 0
-38749 38750 38751 0
38757 -38912 0
38757 -39002 0
-38757 38912 39002 0
38755 -38756 0
38755 -38757 0
-38755 38756 38757 0
38758 -38759 0
38758 -38760 0
-38758 38759 38760 0
38761 -39015 0
38761 -39379 0
-38761 39015 39379 0
38764 -39015 0
38764 -38766 0
-38764 39015 38766 0
38767 -39015 0
38767 -39373 0
-38767 39015 39373 0
38770 -39015 0
38770 -39391 0
-38770 39015 39391 0
39409 -38774 0
39409 -39002 0
-39409 38774 39002 0
38776 -39469 0
38776 -38778 0
-38776 39469 38778 0
38779 -39403 0
38779 -38781 0
-38779 39403 38781 0
38966 -39206 0
38966 -39470 0
-38966 39206 39470 0
38785 -39430 0
38785 -38802 0
-38785 39430 38802 0
38788 -38789 0
38788 -38790 0
-38788 38789 38790 0
38791 -39431 0
38791 -38802 0
-38791 39431 38802 0
38794 -38795 0
38794 -38796 0
-38794 38795 38796 0
38802 -38798 0
38802 -39015 0
-38802 38798 39015 0
38800 -39432 0
38800 -38802 0
-38800 39432 38802 0
38803 -38804 0
38803 -38805 0
-38803 38804 38805 0
38806 -38957 0
38806 -38820 0
-38806 38957 38820 0
38809 -38939 0
38809 -38811 0
-38809 38939 38811 0
38812 -38963 0
38812 -38820 0
-38812 38963 38820 0
38815 -38945 0
38815 -38817 0
-38815 38945 38817 0
38818 -38969 0
38818 -38820 0
-38818 38969 38820 0
38821 -38951 0
38821 -38823 0
-38821 38951 38823 0
39142 -39430 0
39142 -39410 0
-39142 39430 39410 0
39145 -39431 0
39145 -39416 0
-39145 39431 39416 0
39148 -39432 0
39148 -39422 0
-39148 39432 39422 0
39151 -39429 0
39151 -39428 0
-39151 39429 39428 0
39059 -39011 0
39059 -38838 0
-39059 39011 38838 0
39325 -39011 0
39325 -38841 0
-39325 39011 38841 0
39470 -39164 0
39470 -39168 0
-39470 39164 39168 0
38845 -39464 0
38845 -38907 0
-38845 39464 38907 0
38848 -38915 0
38848 -38850 0
-38848 38915 38850 0
38851 -39465 0
38851 -38907 0
-38851 39465 38907 0
38854 -38927 0
38854 -38856 0
-38854 38927 38856 0
38857 -39466 0
38857 -38907 0
-38857 39466 38907 0
38860 -38921 0
38860 -38862 0
-38860 38921 38862 0
38863 -39467 0
38863 -38907 0
-38863 39467 38907 0
38866 -38933 0
38866 -38868 0
-38866 38933 38868 0
39173 -39464 0
39173 -39438 0
-39173 39464 39438 0
39176 -39465 0
39176 -39444 0
-39176 39465 39444 0
39179 -39466 0
39179 -39450 0
-39179 39466 39450 0
39182 -39467 0
39182 -39456 0
-39182 39467 39456 0
39185 -39463 0
39185 -39462 0
-39185 39463 39462 0
38884 -38885 0
38884 -39437 0
-38884 38885 39437 0
38887 -39206 0
38887 -39468 0
-38887 39206 39468 0
39202 -38906 0
39202 -38892 0
-39202 38906 38892 0
39203 -38894 0
39203 -38897 0
-39203 38894 38897 0
38896 -38897 0
38896 -38907 0
-38896 38897 38907 0
38899 -39009 0
38899 -38901 0
-38899 39009 38901 0
38907 -38903 0
38907 -39015 0
-38907 38903 39015 0
38905 -38906 0
38905 -38907 0
-38905 38906 38907 0
38908 -39495 0
38908 -38910 0
-38908 39495 38910 0
38911 -38912 0
38911 -39002 0
-38911 38912 39002 0
38914 -38915 0
38914 -38916 0
-38914 38915 38916 0
38917 -38918 0
38917 -39002 0
-38917 38918 39002 0
38920 -38921 0
38920 -38922 0
-38920 38921 38922 0
38923 -39137 0
38923 -39002 0
-38923 39137 39002 0
38926 -38927 0
38926 -38928 0
-38926 38927 38928 0
38929 -39137 0
38929 -39002 0
-38929 39137 39002 0
38932 -38933 0
38932 -38934 0
-38932 38933 38934 0
38935 -39016 0
38935 -39002 0
-38935 39016 39002 0
38938 -38939 0
38938 -38940 0
-38938 38939 38940 0
38941 -39019 0
38941 -39002 0
-38941 39019 39002 0
38944 -38945 0
38944 -38946 0
-38944 38945 38946 0
38947 -39022 0
38947 -39002 0
-38947 39022 39002 0
38950 -38951 0
38950 -38952 0
-38950 38951 38952 0
38953 -39025 0
38953 -39002 0
-38953 39025 39002 0
38956 -38957 0
38956 -38958 0
-38956 38957 38958 0
38959 -39028 0
38959 -39002 0
-38959 39028 39002 0
38962 -38963 0
38962 -38964 0
-38962 38963 38964 0
38965 -38966 0
38965 -39002 0
-38965 38966 39002 0
38968 -38969 0
38968 -38970 0
-38968 38969 38970 0
38971 -38981 0
38971 -39495 0
-38971 38981 39495 0
38974 -38975 0
38974 -38976 0
-38974 38975 38976 0
38977 -38987 0
38977 -39495 0
-38977 38987 39495 0
38980 -38981 0
38980 -38982 0
-38980 38981 38982 0
38983 -38984 0
38983 -39495 0
-38983 38984 39495 0
38986 -38987 0
38986 -38988 0
-38986 38987 38988 0
39634 -39477 0
39634 -39013 0
-39634 39477 39013 0
38992 -39002 0
38992 -39009 0
-38992 39002 39009 0
39636 -39480 0
39636 -39013 0
-39636 39480 39013 0
38998 -39011 0
38998 -39009 0
-38998 39011 39009 0
39001 -39002 0
39001 -39003 0
-39001 39002 39003 0
39638 -39483 0
39638 -39013 0
-39638 39483 39013 0
39007 -39008 0
39007 -39009 0
-39007 39008 39009 0
39010 -39011 0
39010 -39012 0
-39010 39011 39012 0
39013 -39475 0
39013 -39015 0
-39013 39475 39015 0
39016 39438 0
39016 39030 0
-39016 -39438 -39030 0
39019 39444 0
39019 39030 0
-39019 -39444 -39030 0
39022 39450 0
39022 39030 0
-39022 -39450 -39030 0
39025 39456 0
39025 39030 0
-39025 -39456 -39030 0
39028 39462 0
39028 39030 0
-39028 -39462 -39030 0
39031 39034 0
39031 39033 0
-39031 -39034 -39033 0
39034 39212 0
39034 39036 0
-39034 -39212 -39036 0
39037 39040 0
39037 39039 0
-39037 -39040 -39039 0
39040 39041 0
39040 39042 0
-39040 -39041 -39042 0
39043 39046 0
39043 39045 0
-39043 -39046 -39045 0
39046 39047 0
39046 39048 0
-39046 -39047 -39048 0
39049 39052 0
39049 39051 0
-39049 -39052 -39051 0
39052 39053 0
39052 39054 0
-39052 -39053 -39054 0
39055 39058 0
39055 39057 0
-39055 -39058 -39057 0
39058 39059 0
39058 39060 0
-39058 -39059 -39060 0
39061 39064 0
39061 39063 0
-39061 -39064 -39063 0
39064 39343 0
39064 39066 0
-39064 -39343 -39066 0
39067 39070 0
39067 39069 0
-39067 -39070 -39069 0
39070 39071 0
39070 39072 0
-39070 -39071 -39072 0
39073 39087 0
39073 39075 0
-39073 -39087 -39075 0
39086 39469 0
39086 39078 0
-39086 -39469 -39078 0
39085 39080 0
39085 39123 0
39085 39469 0
-39085 -39080 -39123 -39469 0
39083 39212 0
39083 39085 0
39083 39086 0
-39083 -39212 -39085 -39086 0
39087 39088 0
39087 39089 0
-39087 -39088 -39089 0
39311 39111 0
39311 39092 0
-39311 -39111 -39092 0
39310 39114 0
39310 39095 0
-39310 -39114 -39095 0
39308 39117 0
39308 39098 0
-39308 -39117 -39098 0
39307 39105 0
39307 39101 0
-39307 -39105 -39101 0
39306 39108 0
39306 39104 0
-39306 -39108 -39104 0
39105 39298 0
39105 39107 0
-39105 -39298 -39107 0
39108 39304 0
39108 39110 0
-39108 -39304 -39110 0
39111 39280 0
39111 39113 0
-39111 -39280 -39113 0
39114 39286 0
39114 39116 0
-39114 -39286 -39116 0
39117 39292 0
39117 39119 0
-39117 -39292 -39119 0
39124 39305 0
39124 39309 0
-39124 -39305 -39309 0
39123 39124 0
39123 39212 0
-39123 -39124 -39212 0
39313 39127 0
39313 39128 0
39313 39129 0
39313 39130 0
-39313 -39127 -39128 -39129 -39130 0
39136 39132 0
39136 39133 0
-39136 -39132 -39133 0
39134 39135 0
39134 39136 0
-39134 -39135 -39136 0
39137 39138 0
39137 39207 0
-39137 -39138 -39207 0
39208 39152 0
39208 39142 0
-39208 -39152 -39142 0
39209 39155 0
39209 39145 0
-39209 -39155 -39145 0
39210 39158 0
39210 39148 0
-39210 -39158 -39148 0
39211 39161 0
39211 39151 0
-39211 -39161 -39151 0
39152 39430 0
39152 39410 0
-39152 -39430 -39410 0
39155 39431 0
39155 39416 0
-39155 -39431 -39416 0
39158 39432 0
39158 39422 0
-39158 -39432 -39422 0
39161 39429 0
39161 39428 0
-39161 -39429 -39428 0
39164 39171 0
39164 39174 0
39164 39177 0
-39164 -39171 -39174 -39177 0
39168 39180 0
39168 39183 0
-39168 -39180 -39183 0
39171 39186 0
39171 39173 0
-39171 -39186 -39173 0
39174 39189 0
39174 39176 0
-39174 -39189 -39176 0
39177 39192 0
39177 39179 0
-39177 -39192 -39179 0
39180 39195 0
39180 39182 0
-39180 -39195 -39182 0
39183 39198 0
39183 39185 0
-39183 -39198 -39185 0
39186 39464 0
39186 39438 0
-39186 -39464 -39438 0
39189 39465 0
39189 39444 0
-39189 -39465 -39444 0
39192 39466 0
39192 39450 0
-39192 -39466 -39450 0
39195 39467 0
39195 39456 0
-39195 -39467 -39456 0
39198 39463 0
39198 39462 0
-39198 -39463 -39462 0
39473 39202 0
39473 39203 0
-39473 -39202 -39203 0
39472 39469 0
39472 39206 0
-39472 -39469 -39206 0
39207 39208 0
39207 39209 0
39207 39210 0
39207 39211 0
-39207 -39208 -39209 -39210 -39211 0
39212 39213 0
39212 39214 0
-39212 -39213 -39214 0
-39215 -39218 0
-39215 -39217 0
39215 39218 39217 0
-39218 -39219 0
-39218 -39220 0
39218 39219 39220 0
-39221 -39224 0
-39221 -39223 0
39221 39224 39223 0
-39224 -39225 0
-39224 -39226 0
39224 39225 39226 0
-39227 -39230 0
-39227 -39229 0
39227 39230 39229 0
-39230 -39231 0
-39230 -39232 0
39230 39231 39232 0
-39233 -39236 0
-39233 -39235 0
39233 39236 39235 0
-39236 -39237 0
-39236 -39238 0
39236 39237 39238 0
-39239 -39242 0
-39239 -39241 0
39239 39242 39241 0
-39242 -39243 0
-39242 -39244 0
39242 39243 39244 0
-39245 -39248 0
-39245 -39247 0
39245 39248 39247 0
-39248 -39249 0
-39248 -39250 0
39248 39249 39250 0
-39251 -39254 0
-39251 -39253 0
39251 39254 39253 0
-39254 -39255 0
-39254 -39256 0
39254 39255 39256 0
-39257 -39260 0
-39257 -39259 0
39257 39260 39259 0
-39260 -39261 0
-39260 -39262 0
39260 39261 39262 0
-39263 -39266 0
-39263 -39265 0
39263 39266 39265 0
-39266 -39267 0
-39266 -39268 0
39266 39267 39268 0
-39269 -39272 0
-39269 -39271 0
39269 39272 39271 0
-39272 -39273 0
-39272 -39274 0
39272 39273 39274 0
-39275 -39278 0
-39275 -39277 0
39275 39278 39277 0
-39278 -39312 0
-39278 -39280 0
39278 39312 39280 0
-39281 -39284 0
-39281 -39283 0
39281 39284 39283 0
-39284 -39285 0
-39284 -39286 0
39284 39285 39286 0
-39287 -39290 0
-39287 -39289 0
39287 39290 39289 0
-39290 -39291 0
-39290 -39292 0
39290 39291 39292 0
-39293 -39296 0
-39293 -39295 0
39293 39296 39295 0
-39296 -39297 0
-39296 -39298 0
39296 39297 39298 0
-39299 -39302 0
-39299 -39301 0
39299 39302 39301 0
-39302 -39303 0
-39302 -39304 0
39302 39303 39304 0
-39305 -39306 0
-39305 -39307 0
-39305 -39308 0
39305 39306 39307 39308 0
-39309 -39310 0
-39309 -39311 0
39309 39310 39311 0
-39312 -39313 0
-39312 -39318 0
39312 39313 39318 0
-39320 -39316 0
-39320 -39317 0
39320 39316 39317 0
-39318 -39319 0
-39318 -39320 0
39318 39319 39320 0
-39321 -39324 0
-39321 -39323 0
39321 39324 39323 0
-39324 -39325 0
-39324 -39326 0
39324 39325 39326 0
-39327 -39330 0
-39327 -39329 0
39327 39330 39329 0
-39330 -39331 0
-39330 -39332 0
39330 39331 39332 0
-39333 -39336 0
-39333 -39335 0
39333 39336 39335 0
-39336 -39337 0
-39336 -39338 0
39336 39337 39338 0
-39339 -39342 0
-39339 -39341 0
39339 39342 39341 0
-39342 -39343 0
-39342 -39344 0
39342 39343 39344 0
-39345 -39348 0
-39345 -39347 0
39345 39348 39347 0
-39348 -39349 0
-39348 -39350 0
39348 39349 39350 0
-39351 -39354 0
-39351 -39353 0
39351 39354 39353 0
-39354 -39355 0
-39354 -39356 0
39354 39355 39356 0
-39357 -39360 0
-39357 -39359 0
39357 39360 39359 0
-39360 -39361 0
-39360 -39362 0
39360 39361 39362 0
-39363 -39366 0
-39363 -39365 0
39363 39366 39365 0
-39366 -39367 0
-39366 -39368 0
39366 39367 39368 0
-39369 -39372 0
-39369 -39371 0
39369 39372 39371 0
-39372 -39373 0
-39372 -39374 0
39372 39373 39374 0
-39375 -39378 0
-39375 -39377 0
39375 39378 39377 0
-39378 -39379 0
-39378 -39380 0
39378 39379 39380 0
-39381 -39384 0
-39381 -39383 0
39381 39384 39383 0
-39384 -39385 0
-39384 -39386 0
39384 39385 39386 0
-39387 -39390 0
-39387 -39389 0
39387 39390 39389 0
-39390 -39391 0
-39390 -39392 0
39390 39391 39392 0
-39393 -39394 0
-39393 -39396 0
39393 39394 39396 0
-39396 -39403 0
-39396 -39398 0
39396 39403 39398 0
-39399 -39400 0
-39399 -39402 0
39399 39400 39402 0
-39402 -39403 0
-39402 -39404 0
39402 39403 39404 0
-39405 -39408 0
-39405 -39407 0
39405 39408 39407 0
-39408 -39409 0
-39408 -39410 0
39408 39409 39410 0
-39411 -39414 0
-39411 -39413 0
39411 39414 39413 0
-39414 -39415 0
-39414 -39416 0
39414 39415 39416 0
-39417 -39420 0
-39417 -39419 0
39417 39420 39419 0
-39420 -39421 0
-39420 -39422 0
39420 39421 39422 0
-39423 -39426 0
-39423 -39425 0
39423 39426 39425 0
-39426 -39427 0
-39426 -39428 0
39426 39427 39428 0
-39429 -39430 0
-39429 -39431 0
-39429 -39432 0
39429 39430 39431 39432 0
-39433 -39436 0
-39433 -39435 0
39433 39436 39435 0
-39436 -39437 0
-39436 -39438 0
39436 39437 39438 0
-39439 -39442 0
-39439 -39441 0
39439 39442 39441 0
-39442 -39443 0
-39442 -39444 0
39442 39443 39444 0
-39445 -39448 0
-39445 -39447 0
39445 39448 39447 0
-39448 -39449 0
-39448 -39450 0
39448 39449 39450 0
-39451 -39454 0
-39451 -39453 0
39451 39454 39453 0
-39454 -39455 0
-39454 -39456 0
39454 39455 39456 0
-39457 -39460 0
-39457 -39459 0
39457 39460 39459 0
-39460 -39461 0
-39460 -39462 0
39460 39461 39462 0
-39463 -39464 0
-39463 -39465 0
-39463 -39466 0
-39463 -39467 0
39463 39464 39465 39466 39467 0
-39468 -39469 0
-39468 -39470 0
39468 39469 39470 0
-39471 -39472 0
-39471 -39473 0
39471 39472 39473 0
-39485 -39475 0
-39485 -39476 0
39485 39475 39476 0
-39477 -39478 0
-39477 -39485 0
39477 39478 39485 0
-39480 -39481 0
-39480 -39485 0
39480 39481 39485 0
-39483 -39484 0
-39483 -39485 0
39483 39484 39485 0
-39486 -39487 0
-39486 -39488 0
-39486 -39489 0
-39486 -39490 0
39486 39487 39488 39489 39490 0
-39491 -39492 0
-39491 -39494 0
39491 39492 39494 0
-39494 -39495 0
-39494 -39496 0
39494 39495 39496 0
-39498 41090 0
39498 -41090 0
-39500 41274 0
39500 -41274 0
-39502 39656 0
39502 -39656 0
-39504 41177 0
39504 -41177 0
-39506 41183 0
39506 -41183 0
-39508 39664 0
39508 -39664 0
-39510 41189 0
39510 -41189 0
-39512 39670 0
39512 -39670 0
-39514 41195 0
39514 -41195 0
-39516 41201 0
39516 -41201 0
-39518 41207 0
39518 -41207 0
-39520 41213 0
39520 -41213 0
-39522 40071 0
39522 -40071 0
-39524 40707 0
39524 -40707 0
-39526 39694 0
39526 -39694 0
-39528 41219 0
39528 -41219 0
-39530 41225 0
39530 -41225 0
-39532 39704 0
39532 -39704 0
-39534 39708 0
39534 -39708 0
-39536 41231 0
39536 -41231 0
-39538 41237 0
39538 -41237 0
-39540 41243 0
39540 -41243 0
-39542 41249 0
39542 -41249 0
-39544 41255 0
39544 -41255 0
-39546 41261 0
39546 -41261 0
-39548 41087 0
39548 -41087 0
-39550 41086 0
39550 -41086 0
-39552 41085 0
39552 -41085 0
-39554 41084 0
39554 -41084 0
-39556 41283 0
39556 -41283 0
-39558 41289 0
39558 -41289 0
-39560 41295 0
39560 -41295 0
-39562 41301 0
39562 -41301 0
-39564 41307 0
39564 -41307 0
-39566 41313 0
39566 -41313 0
-39568 41319 0
39568 -41319 0
-39570 41325 0
39570 -41325 0
-39572 41331 0
39572 -41331 0
-39574 41337 0
39574 -41337 0
-39576 41343 0
39576 -41343 0
-39578 41349 0
39578 -41349 0
-39580 40735 0
39580 -40735 0
-39582 41355 0
39582 -41355 0
-39584 40738 0
39584 -40738 0
-39586 41361 0
39586 -41361 0
-39588 41367 0
39588 -41367 0
-39590 41373 0
39590 -41373 0
-39592 41379 0
39592 -41379 0
-39594 41385 0
39594 -41385 0
-39596 41387 0
39596 -41387 0
-39598 41388 0
39598 -41388 0
-39600 41389 0
39600 -41389 0
-39602 41395 0
39602 -41395 0
-39604 41401 0
39604 -41401 0
-39606 41407 0
39606 -41407 0
-39608 41413 0
39608 -41413 0
-39610 41419 0
39610 -41419 0
-39612 41421 0
39612 -41421 0
-39614 41422 0
39614 -41422 0
-39616 41423 0
39616 -41423 0
-39618 41424 0
39618 -41424 0
-39620 41163 0
39620 -41163 0
-39622 40854 0
39622 -40854 0
-39624 40863 0
39624 -40863 0
-39626 41433 0
39626 -41433 0
-39628 40938 0
39628 -40938 0
-39630 40944 0
39630 -40944 0
-39632 40941 0
39632 -40941 0
-39634 40513 0
39634 -40513 0
-39636 40516 0
39636 -40516 0
-39638 39690 0
39638 -39690 0
-39640 39966 0
39640 -39966 0
-39642 41453 0
39642 -41453 0
-39644 39972 0
39644 -39972 0
39648 41091 0
-39648 -41091 0
41455 39648 0
-41455 -39648 0
39652 41275 0
-39652 -41275 0
41457 39652 0
-41457 -39652 0
39990 40972 0
-39990 -40972 0
40993 39656 0
-40993 -39656 0
39993 40972 0
-39993 -40972 0
39999 40972 0
-39999 -40972 0
40005 40972 0
-40005 -40972 0
40999 39664 0
-40999 -39664 0
40008 40972 0
-40008 -40972 0
40026 40972 0
-40026 -40972 0
41005 39670 0
-41005 -39670 0
40029 40972 0
-40029 -40972 0
40035 40972 0
-40035 -40972 0
40041 40972 0
-40041 -40972 0
40047 40972 0
-40047 -40972 0
40053 40972 0
-40053 -40972 0
40074 40972 0
-40074 -40972 0
40073 40707 0
-40073 -40707 0
41011 40071 0
-41011 -40071 0
40580 40965 0
-40580 -40965 0
40965 39690 0
-40965 -39690 0
40080 40972 0
-40080 -40972 0
41017 39694 0
-41017 -39694 0
40083 40972 0
-40083 -40972 0
40089 40972 0
-40089 -40972 0
40121 41225 0
-40121 -41225 0
40101 40972 0
-40101 -40972 0
41023 39704 0
-41023 -39704 0
40104 40972 0
-40104 -40972 0
41029 39708 0
-41029 -39708 0
40107 40972 0
-40107 -40972 0
40137 40159 0
-40137 -40159 0
40143 40159 0
-40143 -40159 0
40149 40159 0
-40149 -40159 0
40155 40159 0
-40155 -40159 0
40164 40159 0
-40164 -40159 0
41037 41081 0
-41037 -41081 0
40194 40972 0
-40194 -40972 0
40651 40669 0
-40651 -40669 0
40200 40972 0
-40200 -40972 0
40657 40669 0
-40657 -40669 0
40206 40972 0
-40206 -40972 0
40663 40669 0
-40663 -40669 0
40212 40972 0
-40212 -40972 0
40672 40669 0
-40672 -40669 0
40684 40714 0
-40684 -40714 0
40690 40714 0
-40690 -40714 0
40696 40968 0
-40696 -40968 0
40702 40968 0
-40702 -40968 0
40968 40516 0
-40968 -40516 0
40708 40959 0
-40708 -40959 0
40717 40714 0
-40717 -40714 0
40236 40718 0
-40236 -40718 0
40242 40718 0
-40242 -40718 0
40248 40718 0
-40248 -40718 0
40264 40721 0
-40264 -40721 0
40270 40721 0
-40270 -40721 0
40276 40721 0
-40276 -40721 0
40288 40724 0
-40288 -40724 0
40294 40724 0
-40294 -40724 0
40300 40972 0
-40300 -40972 0
40315 40727 0
-40315 -40727 0
40321 40727 0
-40321 -40727 0
40327 40972 0
-40327 -40972 0
40348 40972 0
-40348 -40972 0
40351 40972 0
-40351 -40972 0
40363 40738 0
-40363 -40738 0
40357 40972 0
-40357 -40972 0
40366 41361 0
-40366 -41361 0
40360 40972 0
-40360 -40972 0
40365 40923 0
-40365 -40923 0
40370 41094 0
-40370 -41094 0
40376 41094 0
-40376 -41094 0
40382 41094 0
-40382 -41094 0
40388 41094 0
-40388 -41094 0
41095 40972 0
-41095 -40972 0
40747 40759 0
-40747 -40759 0
40753 40759 0
-40753 -40759 0
40762 40759 0
-40762 -40759 0
40768 40777 0
-40768 -40777 0
40774 40777 0
-40774 -40777 0
40780 40777 0
-40780 -40777 0
40777 40735 0
-40777 -40735 0
40421 40473 0
-40421 -40473 0
40427 40473 0
-40427 -40473 0
40433 40473 0
-40433 -40473 0
40439 40473 0
-40439 -40473 0
40445 40473 0
-40445 -40473 0
40807 40864 0
-40807 -40864 0
40813 40864 0
-40813 -40864 0
40819 40864 0
-40819 -40864 0
40825 40864 0
-40825 -40864 0
40478 40473 0
-40478 -40473 0
40481 41425 0
-40481 -41425 0
40987 41430 0
-40987 -41430 0
40851 40849 0
-40851 -40849 0
40858 40864 0
-40858 -40864 0
40867 40864 0
-40867 -40864 0
40875 41355 0
-40875 -41355 0
41360 41164 0
-41360 -41164 0
40873 40959 0
-40873 -40959 0
40879 40959 0
-40879 -40959 0
40885 40959 0
-40885 -40959 0
40891 40959 0
-40891 -40959 0
40897 40959 0
-40897 -40959 0
40903 40959 0
-40903 -40959 0
40909 40959 0
-40909 -40959 0
40915 40959 0
-40915 -40959 0
40921 40959 0
-40921 -40959 0
40927 40959 0
-40927 -40959 0
40959 40513 0
-40959 -40513 0
40520 40972 0
-40520 -40972 0
41432 40519 0
-41432 -40519 0
39878 39876 0
-39878 -39876 0
40519 39878 0
-40519 -39878 0
40932 41453 0
-40932 -41453 0
40523 40972 0
-40523 -40972 0
40933 41452 0
-40933 -41452 0
40529 40972 0
-40529 -40972 0
40939 41452 0
-40939 -41452 0
40535 40972 0
-40535 -40972 0
40945 41452 0
-40945 -41452 0
39896 39894 0
-39896 -39894 0
41452 39896 0
-41452 -39896 0
40541 40966 0
-40541 -40966 0
40960 40966 0
-40960 -40966 0
40969 40966 0
-40969 -40966 0
39906 39904 0
-39906 -39904 0
40966 39906 0
-40966 -39906 0
39920 39908 0
-39920 -39908 0
39909 39920 0
-39909 -39920 0
40550 40972 0
-40550 -40972 0
40553 40972 0
-40553 -40972 0
40559 40972 0
-40559 -40972 0
40972 39918 0
-40972 -39918 0
40678 39920 0
-40678 -39920 0
39924 39922 0
-39924 -39922 0
40872 39924 0
-40872 -39924 0
39928 39926 0
-39928 -39926 0
40884 39928 0
-40884 -39928 0
39932 39930 0
-39932 -39930 0
40878 39932 0
-40878 -39932 0
39936 39934 0
-39936 -39934 0
40890 39936 0
-40890 -39936 0
39940 39938 0
-39940 -39938 0
40650 39940 0
-40650 -39940 0
39944 39942 0
-39944 -39942 0
40896 39944 0
-40896 -39944 0
39948 39946 0
-39948 -39946 0
40902 39948 0
-40902 -39948 0
39952 39950 0
-39952 -39950 0
40908 39952 0
-40908 -39952 0
39956 39954 0
-39956 -39954 0
40914 39956 0
-40914 -39956 0
39960 39958 0
-39960 -39958 0
40920 39960 0
-40920 -39960 0
39964 39962 0
-39964 -39962 0
40926 39964 0
-40926 -39964 0
39965 39966 0
-39965 -39966 0
39970 39968 0
-39970 -39968 0
40367 39970 0
-40367 -39970 0
39971 39972 0
-39971 -39972 0
-41070 40892 0
-41070 40895 0
41070 -40892 -40895 0
-41073 40898 0
-41073 40901 0
41073 -40898 -40901 0
-41076 40904 0
-41076 40907 0
41076 -40904 -40907 0
-41064 40910 0
-41064 40913 0
41064 -40910 -40913 0
-41067 40916 0
-41067 40919 0
41067 -40916 -40919 0
-41459 40988 0
-41459 39990 0
41459 -40988 -39990 0
-41461 41172 0
-41461 39993 0
41461 -41172 -39993 0
-41174 41176 0
-41174 41177 0
41174 -41176 -41177 0
-41463 41178 0
-41463 39999 0
41463 -41178 -39999 0
-41180 41182 0
-41180 41183 0
41180 -41182 -41183 0
-41465 40994 0
-41465 40005 0
41465 -40994 -40005 0
-41467 41184 0
-41467 40008 0
41467 -41184 -40008 0
-41186 41188 0
-41186 41189 0
41186 -41188 -41189 0
-41176 41169 0
-41176 40993 0
41176 -41169 -40993 0
-41182 41176 0
-41182 41177 0
41182 -41176 -41177 0
-40998 41182 0
-40998 41183 0
40998 -41182 -41183 0
-41188 40998 0
-41188 40999 0
41188 -40998 -40999 0
-41469 41000 0
-41469 40026 0
41469 -41000 -40026 0
-41471 41190 0
-41471 40029 0
41471 -41190 -40029 0
-41192 41194 0
-41192 41195 0
41192 -41194 -41195 0
-41473 41196 0
-41473 40035 0
41473 -41196 -40035 0
-41198 41200 0
-41198 41201 0
41198 -41200 -41201 0
-41475 41202 0
-41475 40041 0
41475 -41202 -40041 0
-41204 41206 0
-41204 41207 0
41204 -41206 -41207 0
-41477 41208 0
-41477 40047 0
41477 -41208 -40047 0
-41210 41212 0
-41210 41213 0
41210 -41212 -41213 0
-41479 41006 0
-41479 40053 0
41479 -41006 -40053 0
-41194 41004 0
-41194 41005 0
41194 -41004 -41005 0
-41200 41194 0
-41200 41195 0
41200 -41194 -41195 0
-41206 41200 0
-41206 41201 0
41206 -41200 -41201 0
-41212 41206 0
-41212 41207 0
41212 -41206 -41207 0
-41010 41212 0
-41010 41213 0
41010 -41212 -41213 0
-40586 41010 0
-40586 40071 0
40586 -41010 -40071 0
-41481 40073 0
-41481 40074 0
41481 -40073 -40074 0
-40689 40575 0
-40689 40578 0
40689 -40575 -40578 0
-41483 41012 0
-41483 40080 0
41483 -41012 -40080 0
-41485 41214 0
-41485 40083 0
41485 -41214 -40083 0
-41216 41218 0
-41216 41219 0
41216 -41218 -41219 0
-41487 41220 0
-41487 40089 0
41487 -41220 -40089 0
-41222 41224 0
-41222 41225 0
41222 -41224 -41225 0
-41218 41016 0
-41218 41017 0
41218 -41016 -41017 0
-41224 41218 0
-41224 41219 0
41224 -41218 -41219 0
-41489 41018 0
-41489 40101 0
41489 -41018 -40101 0
-41491 41024 0
-41491 40104 0
41491 -41024 -40104 0
-41493 41226 0
-41493 40107 0
41493 -41226 -40107 0
-41228 41230 0
-41228 41231 0
41228 -41230 -41231 0
-41028 41300 0
-41028 41023 0
41028 -41300 -41023 0
-41230 41028 0
-41230 41029 0
41230 -41028 -41029 0
-40680 41224 0
-40680 41225 0
40680 -41224 -41225 0
-40713 40121 0
-40713 41224 0
40713 -40121 -41224 0
-40574 41188 0
-40574 41189 0
40574 -41188 -41189 0
-40583 41010 0
-40583 41011 0
40583 -41010 -41011 0
-40795 41230 0
-40795 41231 0
40795 -41230 -41231 0
-40692 41348 0
-40692 41349 0
40692 -41348 -41349 0
-41495 41232 0
-41495 40137 0
41495 -41232 -40137 0
-41234 41269 0
-41234 41237 0
41234 -41269 -41237 0
-41497 41238 0
-41497 40143 0
41497 -41238 -40143 0
-41240 41242 0
-41240 41243 0
41240 -41242 -41243 0
-41499 41244 0
-41499 40149 0
41499 -41244 -40149 0
-41246 41248 0
-41246 41249 0
41246 -41248 -41249 0
-41501 41250 0
-41501 40155 0
41501 -41250 -40155 0
-41252 41254 0
-41252 41255 0
41252 -41254 -41255 0
-40159 40880 0
-40159 40883 0
40159 -40880 -40883 0
-41503 41256 0
-41503 40164 0
41503 -41256 -40164 0
-41258 41260 0
-41258 41261 0
41258 -41260 -41261 0
-41242 41269 0
-41242 41237 0
41242 -41269 -41237 0
-41248 41242 0
-41248 41243 0
41248 -41242 -41243 0
-41254 41248 0
-41254 41249 0
41254 -41248 -41249 0
-41260 41254 0
-41260 41255 0
41260 -41254 -41255 0
-40607 40599 0
-40607 41268 0
40607 -40599 -41268 0
-40613 40602 0
-40613 40605 0
40613 -40602 -40605 0
-40619 40608 0
-40619 40611 0
40619 -40608 -40611 0
-40625 40614 0
-40625 40617 0
40625 -40614 -40617 0
-41505 40195 0
-41505 40194 0
41505 -40195 -40194 0
-40195 40646 0
-40195 40649 0
40195 -40646 -40649 0
-41507 40201 0
-41507 40200 0
41507 -40201 -40200 0
-40201 40652 0
-40201 40655 0
40201 -40652 -40655 0
-41509 40207 0
-41509 40206 0
41509 -40207 -40206 0
-40207 40658 0
-40207 40661 0
40207 -40658 -40661 0
-41511 40213 0
-41511 40212 0
41511 -40213 -40212 0
-40213 40667 0
-40213 40670 0
40213 -40667 -40670 0
-41276 41093 0
-41276 40678 0
41276 -41093 -40678 0
-41273 41091 0
-41273 40678 0
41273 -41091 -40678 0
-41318 40679 0
-41318 40682 0
41318 -40679 -40682 0
-40731 40691 0
-40731 40694 0
40731 -40691 -40694 0
-40704 40697 0
-40704 40700 0
40704 -40697 -40700 0
-41336 41282 0
-41336 41295 0
41336 -41282 -41295 0
-41513 41278 0
-41513 40236 0
41513 -41278 -40236 0
-41280 41282 0
-41280 41283 0
41280 -41282 -41283 0
-41515 41284 0
-41515 40242 0
41515 -41284 -40242 0
-41286 41288 0
-41286 41289 0
41286 -41288 -41289 0
-41517 41290 0
-41517 40248 0
41517 -41290 -40248 0
-41292 41294 0
-41292 41295 0
41292 -41294 -41295 0
-41288 41282 0
-41288 41283 0
41288 -41282 -41283 0
-41294 41288 0
-41294 41289 0
41294 -41288 -41289 0
-40723 41300 0
-40723 41301 0
-40723 41313 0
40723 -41300 -41301 -41313 0
-41519 41296 0
-41519 40264 0
41519 -41296 -40264 0
-41298 41300 0
-41298 41301 0
41298 -41300 -41301 0
-41521 41302 0
-41521 40270 0
41521 -41302 -40270 0
-41304 41306 0
-41304 41307 0
41304 -41306 -41307 0
-41523 41308 0
-41523 40276 0
41523 -41308 -40276 0
-41310 41312 0
-41310 41313 0
41310 -41312 -41313 0
-41306 41300 0
-41306 41301 0
41306 -41300 -41301 0
-41312 41306 0
-41312 41307 0
41312 -41306 -41307 0
-41525 41314 0
-41525 40288 0
41525 -41314 -40288 0
-41316 41318 0
-41316 41319 0
41316 -41318 -41319 0
-41527 41320 0
-41527 40294 0
41527 -41320 -40294 0
-41322 41324 0
-41322 41325 0
41322 -41324 -41325 0
-41529 41326 0
-41529 40300 0
41529 -41326 -40300 0
-41328 41330 0
-41328 41331 0
41328 -41330 -41331 0
-41324 41318 0
-41324 41319 0
41324 -41318 -41319 0
-41330 41318 0
-41330 41325 0
41330 -41318 -41325 0
-40798 41330 0
-40798 41331 0
40798 -41330 -41331 0
-41531 41332 0
-41531 40315 0
41531 -41332 -40315 0
-41334 41336 0
-41334 41337 0
41334 -41336 -41337 0
-41533 41338 0
-41533 40321 0
41533 -41338 -40321 0
-41340 41342 0
-41340 41343 0
41340 -41342 -41343 0
-41535 41344 0
-41535 40327 0
41535 -41344 -40327 0
-41346 41348 0
-41346 41349 0
41346 -41348 -41349 0
-41342 41336 0
-41342 41337 0
41342 -41336 -41337 0
-41348 41336 0
-41348 41343 0
41348 -41336 -41343 0
-40486 40712 0
-40486 40715 0
40486 -40712 -40715 0
-41426 40685 0
-41426 40688 0
41426 -40685 -40688 0
-41046 40703 0
-41046 40706 0
41046 -40703 -40706 0
-41537 40733 0
-41537 40348 0
41537 -40733 -40348 0
-41539 41350 0
-41539 40351 0
41539 -41350 -40351 0
-41351 41360 0
-41351 40777 0
41351 -41360 -40777 0
-41541 40736 0
-41541 40357 0
41541 -40736 -40357 0
-41543 41356 0
-41543 40360 0
41543 -41356 -40360 0
-41357 41360 0
-41357 40363 0
41357 -41360 -40363 0
-40869 40365 0
-40869 40366 0
-40869 40367 0
40869 -40365 -40366 -40367 0
-41545 41362 0
-41545 40370 0
41545 -41362 -40370 0
-41364 41366 0
-41364 41367 0
41364 -41366 -41367 0
-41547 41368 0
-41547 40376 0
41547 -41368 -40376 0
-41370 41372 0
-41370 41373 0
41370 -41372 -41373 0
-41549 41374 0
-41549 40382 0
41549 -41374 -40382 0
-41376 41378 0
-41376 41379 0
41376 -41378 -41379 0
-41551 41380 0
-41551 40388 0
41551 -41380 -40388 0
-41382 41384 0
-41382 41385 0
41382 -41384 -41385 0
-41372 41366 0
-41372 41367 0
41372 -41366 -41367 0
-41378 41372 0
-41378 41373 0
41378 -41372 -41373 0
-41384 41378 0
-41384 41379 0
41384 -41378 -41379 0
-40746 40763 0
-40746 40766 0
40746 -40763 -40766 0
-40752 40769 0
-40752 40772 0
40752 -40769 -40772 0
-40761 40775 0
-40761 40778 0
40761 -40775 -40778 0
-41553 40742 0
-41553 40745 0
41553 -40742 -40745 0
-41555 40748 0
-41555 40751 0
41555 -40748 -40751 0
-41557 40757 0
-41557 40760 0
41557 -40757 -40760 0
-41559 41390 0
-41559 40421 0
41559 -41390 -40421 0
-41392 41394 0
-41392 41395 0
41392 -41394 -41395 0
-41561 41396 0
-41561 40427 0
41561 -41396 -40427 0
-41398 41400 0
-41398 41401 0
41398 -41400 -41401 0
-41563 41402 0
-41563 40433 0
41563 -41402 -40433 0
-41404 41406 0
-41404 41407 0
41404 -41406 -41407 0
-41565 41408 0
-41565 40439 0
41565 -41408 -40439 0
-41410 41412 0
-41410 41413 0
41410 -41412 -41413 0
-41567 41414 0
-41567 40445 0
41567 -41414 -40445 0
-41416 41418 0
-41416 41419 0
41416 -41418 -41419 0
-41400 41394 0
-41400 41395 0
41400 -41394 -41395 0
-41406 41400 0
-41406 41401 0
41406 -41400 -41401 0
-41412 41406 0
-41412 41407 0
41412 -41406 -41407 0
-41418 41412 0
-41418 41413 0
41418 -41412 -41413 0
-41569 40802 0
-41569 40805 0
41569 -40802 -40805 0
-41571 40808 0
-41571 40811 0
41571 -40808 -40811 0
-41573 40814 0
-41573 40817 0
41573 -40814 -40817 0
-41575 40820 0
-41575 40823 0
41575 -40820 -40823 0
-40473 40886 0
-40473 40889 0
40473 -40886 -40889 0
-41577 40841 0
-41577 40478 0
41577 -40841 -40478 0
-40842 40844 0
-40842 40481 0
40842 -40844 -40481 0
-40849 40874 0
-40849 40877 0
40849 -40874 -40877 0
-41394 40486 0
-41394 41427 0
41394 -40486 -41427 0
-41579 40853 0
-41579 40856 0
41579 -40853 -40856 0
-41581 40862 0
-41581 40865 0
41581 -40862 -40865 0
-41035 40922 0
-41035 40925 0
41035 -40922 -40925 0
-41045 40868 0
-41045 40871 0
41045 -40868 -40871 0
-41444 40574 0
-41444 40932 0
41444 -40574 -40932 0
-41445 40583 0
-41445 40938 0
41445 -40583 -40938 0
-41446 40795 0
-41446 40944 0
41446 -40795 -40944 0
-41447 40692 0
-41447 40941 0
41447 -40692 -40941 0
-40755 40513 0
-40755 41094 0
40755 -40513 -41094 0
-40860 40516 0
-40860 41094 0
40860 -40516 -41094 0
-41583 40519 0
-41583 40520 0
41583 -40519 -40520 0
-41585 40524 0
-41585 40523 0
41585 -40524 -40523 0
-40524 40928 0
-40524 40931 0
40524 -40928 -40931 0
-41587 40530 0
-41587 40529 0
41587 -40530 -40529 0
-40530 40934 0
-40530 40937 0
40530 -40934 -40937 0
-41589 40536 0
-41589 40535 0
41589 -40536 -40535 0
-40536 40940 0
-40536 40943 0
40536 -40940 -40943 0
-41435 40949 0
-41435 40541 0
41435 -40949 -40541 0
-41438 40955 0
-41438 40958 0
41438 -40955 -40958 0
-41441 40964 0
-41441 40967 0
41441 -40964 -40967 0
-41597 41030 0
-41597 40550 0
41597 -41030 -40550 0
-41599 41448 0
-41599 40553 0
41599 -41448 -40553 0
-41449 41452 0
-41449 40941 0
41449 -41452 -40941 0
-41601 41428 0
-41601 40559 0
41601 -41428 -40559 0
40990 -41169 0
40990 -40993 0
-40990 41169 40993 0
40996 -40998 0
40996 -40999 0
-40996 40998 40999 0
41002 -41004 0
41002 -41005 0
-41002 41004 41005 0
41008 -41010 0
41008 -41011 0
-41008 41010 41011 0
41004 -40965 0
41004 -40574 0
-41004 40965 40574 0
40575 -41011 0
40575 -40965 0
-40575 41011 40965 0
40578 -40707 0
40578 -40580 0
-40578 40707 40580 0
41300 -40965 0
41300 -40583 0
-41300 40965 40583 0
40716 -40965 0
40716 -40586 0
-40716 40965 40586 0
41014 -41016 0
41014 -41017 0
-41014 41016 41017 0
41020 -41300 0
41020 -41023 0
-41020 41300 41023 0
41026 -41028 0
41026 -41029 0
-41026 41028 41029 0
41032 -41045 0
41032 -41040 0
-41032 41045 41040 0
40599 -41070 0
40599 -41237 0
-40599 41070 41237 0
40602 -41073 0
40602 -41243 0
-40602 41073 41243 0
40605 -41267 0
40605 -40607 0
-40605 41267 40607 0
40608 -41076 0
40608 -41249 0
-40608 41076 41249 0
40611 -41265 0
40611 -40613 0
-40611 41265 40613 0
40614 -41064 0
40614 -41255 0
-40614 41064 41255 0
40617 -41264 0
40617 -40619 0
-40617 41264 40619 0
41170 -41067 0
41170 -41261 0
-41170 41067 41261 0
41171 -41263 0
41171 -40625 0
-41171 41263 40625 0
41049 -41237 0
41049 -41070 0
-41049 41237 41070 0
41052 -41243 0
41052 -41073 0
-41052 41243 41073 0
41055 -41249 0
41055 -41076 0
-41055 41249 41076 0
41058 -41255 0
41058 -41064 0
-41058 41255 41064 0
41061 -41261 0
41061 -41067 0
-41061 41261 41067 0
40674 -41084 0
40674 -41085 0
40674 -41086 0
40674 -41087 0
-40674 41084 41085 41086 41087 0
40646 -41087 0
40646 -40669 0
-40646 41087 40669 0
40649 -40650 0
40649 -40651 0
-40649 40650 40651 0
40652 -41086 0
40652 -40669 0
-40652 41086 40669 0
40655 -41087 0
40655 -40657 0
-40655 41087 40657 0
40658 -41085 0
40658 -40669 0
-40658 41085 40669 0
40661 -41086 0
40661 -40663 0
-40661 41086 40663 0
40669 -40723 0
40669 -40968 0
-40669 40723 40968 0
40667 -41084 0
40667 -40669 0
-40667 41084 40669 0
40670 -41085 0
40670 -40672 0
-40670 41085 40672 0
41089 -40674 0
41089 -40678 0
-41089 40674 40678 0
41092 -41270 0
41092 -40678 0
-41092 41270 40678 0
40679 -40680 0
40679 -40714 0
-40679 40680 40714 0
40682 -41300 0
40682 -40684 0
-40682 41300 40684 0
40685 -41225 0
40685 -40714 0
-40685 41225 40714 0
40688 -40689 0
40688 -40690 0
-40688 40689 40690 0
40691 -40692 0
40691 -40968 0
-40691 40692 40968 0
40694 -40798 0
40694 -40696 0
-40694 40798 40696 0
40697 -41349 0
40697 -40968 0
-40697 41349 40968 0
40700 -41331 0
40700 -40702 0
-40700 41331 40702 0
40703 -40704 0
40703 -40959 0
-40703 40704 40959 0
40706 -40707 0
40706 -40708 0
-40706 40707 40708 0
40714 -40869 0
40714 -40959 0
-40714 40869 40959 0
40712 -40713 0
40712 -40714 0
-40712 40713 40714 0
40715 -40716 0
40715 -40717 0
-40715 40716 40717 0
40718 -40972 0
40718 -41336 0
-40718 40972 41336 0
40721 -40972 0
40721 -40723 0
-40721 40972 40723 0
40724 -40972 0
40724 -41330 0
-40724 40972 41330 0
40727 -40972 0
40727 -41348 0
-40727 40972 41348 0
41366 -40731 0
41366 -40959 0
-41366 40731 40959 0
40733 -41426 0
40733 -40735 0
-40733 41426 40735 0
40736 -41360 0
40736 -40738 0
-40736 41360 40738 0
40923 -41163 0
40923 -41427 0
-40923 41163 41427 0
40742 -41387 0
40742 -40759 0
-40742 41387 40759 0
40745 -40746 0
40745 -40747 0
-40745 40746 40747 0
40748 -41388 0
40748 -40759 0
-40748 41388 40759 0
40751 -40752 0
40751 -40753 0
-40751 40752 40753 0
40759 -40755 0
40759 -40972 0
-40759 40755 40972 0
40757 -41389 0
40757 -40759 0
-40757 41389 40759 0
40760 -40761 0
40760 -40762 0
-40760 40761 40762 0
40763 -40914 0
40763 -40777 0
-40763 40914 40777 0
40766 -40896 0
40766 -40768 0
-40766 40896 40768 0
40769 -40920 0
40769 -40777 0
-40769 40920 40777 0
40772 -40902 0
40772 -40774 0
-40772 40902 40774 0
40775 -40926 0
40775 -40777 0
-40775 40926 40777 0
40778 -40908 0
40778 -40780 0
-40778 40908 40780 0
41099 -41387 0
41099 -41367 0
-41099 41387 41367 0
41102 -41388 0
41102 -41373 0
-41102 41388 41373 0
41105 -41389 0
41105 -41379 0
-41105 41389 41379 0
41108 -41386 0
41108 -41385 0
-41108 41386 41385 0
41016 -40968 0
41016 -40795 0
-41016 40968 40795 0
41282 -40968 0
41282 -40798 0
-41282 40968 40798 0
41427 -41121 0
41427 -41125 0
-41427 41121 41125 0
40802 -41421 0
40802 -40864 0
-40802 41421 40864 0
40805 -40872 0
40805 -40807 0
-40805 40872 40807 0
40808 -41422 0
40808 -40864 0
-40808 41422 40864 0
40811 -40884 0
40811 -40813 0
-40811 40884 40813 0
40814 -41423 0
40814 -40864 0
-40814 41423 40864 0
40817 -40878 0
40817 -40819 0
-40817 40878 40819 0
40820 -41424 0
40820 -40864 0
-40820 41424 40864 0
40823 -40890 0
40823 -40825 0
-40823 40890 40825 0
41130 -41421 0
41130 -41395 0
-41130 41421 41395 0
41133 -41422 0
41133 -41401 0
-41133 41422 41401 0
41136 -41423 0
41136 -41407 0
-41136 41423 41407 0
41139 -41424 0
41139 -41413 0
-41139 41424 41413 0
41142 -41420 0
41142 -41419 0
-41142 41420 41419 0
40841 -40842 0
40841 -41394 0
-40841 40842 41394 0
40844 -41163 0
40844 -41425 0
-40844 41163 41425 0
41159 -40863 0
41159 -40849 0
-41159 40863 40849 0
41160 -40851 0
41160 -40854 0
-41160 40851 40854 0
40853 -40854 0
40853 -40864 0
-40853 40854 40864 0
40856 -40966 0
40856 -40858 0
-40856 40966 40858 0
40864 -40860 0
40864 -40972 0
-40864 40860 40972 0
40862 -40863 0
40862 -40864 0
-40862 40863 40864 0
40865 -41452 0
40865 -40867 0
-40865 41452 40867 0
40868 -40869 0
40868 -40959 0
-40868 40869 40959 0
40871 -40872 0
40871 -40873 0
-40871 40872 40873 0
40874 -40875 0
40874 -40959 0
-40874 40875 40959 0
40877 -40878 0
40877 -40879 0
-40877 40878 40879 0
40880 -41094 0
40880 -40959 0
-40880 41094 40959 0
40883 -40884 0
40883 -40885 0
-40883 40884 40885 0
40886 -41094 0
40886 -40959 0
-40886 41094 40959 0
40889 -40890 0
40889 -40891 0
-40889 40890 40891 0
40892 -40973 0
40892 -40959 0
-40892 40973 40959 0
40895 -40896 0
40895 -40897 0
-40895 40896 40897 0
40898 -40976 0
40898 -40959 0
-40898 40976 40959 0
40901 -40902 0
40901 -40903 0
-40901 40902 40903 0
40904 -40979 0
40904 -40959 0
-40904 40979 40959 0
40907 -40908 0
40907 -40909 0
-40907 40908 40909 0
40910 -40982 0
40910 -40959 0
-40910 40982 40959 0
40913 -40914 0
40913 -40915 0
-40913 40914 40915 0
40916 -40985 0
40916 -40959 0
-40916 40985 40959 0
40919 -40920 0
40919 -40921 0
-40919 40920 40921 0
40922 -40923 0
40922 -40959 0
-40922 40923 40959 0
40925 -40926 0
40925 -40927 0
-40925 40926 40927 0
40928 -40938 0
40928 -41452 0
-40928 40938 41452 0
40931 -40932 0
40931 -40933 0
-40931 40932 40933 0
40934 -40944 0
40934 -41452 0
-40934 40944 41452 0
40937 -40938 0
40937 -40939 0
-40937 40938 40939 0
40940 -40941 0
40940 -41452 0
-40940 40941 41452 0
40943 -40944 0
40943 -40945 0
-40943 40944 40945 0
41591 -41434 0
41591 -40970 0
-41591 41434 40970 0
40949 -40959 0
40949 -40966 0
-40949 40959 40966 0
41593 -41437 0
41593 -40970 0
-41593 41437 40970 0
40955 -40968 0
40955 -40966 0
-40955 40968 40966 0
40958 -40959 0
40958 -40960 0
-40958 40959 40960 0
41595 -41440 0
41595 -40970 0
-41595 41440 40970 0
40964 -40965 0
40964 -40966 0
-40964 40965 40966 0
40967 -40968 0
40967 -40969 0
-40967 40968 40969 0
40970 -41432 0
40970 -40972 0
-40970 41432 40972 0
40973 41395 0
40973 40987 0
-40973 -41395 -40987 0
40976 41401 0
40976 40987 0
-40976 -41401 -40987 0
40979 41407 0
40979 40987 0
-40979 -41407 -40987 0
40982 41413 0
40982 40987 0
-40982 -41413 -40987 0
40985 41419 0
40985 40987 0
-40985 -41419 -40987 0
40988 40991 0
40988 40990 0
-40988 -40991 -40990 0
40991 41169 0
40991 40993 0
-40991 -41169 -40993 0
40994 40997 0
40994 40996 0
-40994 -40997 -40996 0
40997 40998 0
40997 40999 0
-40997 -40998 -40999 0
41000 41003 0
41000 41002 0
-41000 -41003 -41002 0
41003 41004 0
41003 41005 0
-41003 -41004 -41005 0
41006 41009 0
41006 41008 0
-41006 -41009 -41008 0
41009 41010 0
41009 41011 0
-41009 -41010 -41011 0
41012 41015 0
41012 41014 0
-41012 -41015 -41014 0
41015 41016 0
41015 41017 0
-41015 -41016 -41017 0
41018 41021 0
41018 41020 0
-41018 -41021 -41020 0
41021 41300 0
41021 41023 0
-41021 -41300 -41023 0
41024 41027 0
41024 41026 0
-41024 -41027 -41026 0
41027 41028 0
41027 41029 0
-41027 -41028 -41029 0
41030 41044 0
41030 41032 0
-41030 -41044 -41032 0
41043 41426 0
41043 41035 0
-41043 -41426 -41035 0
41042 41037 0
41042 41080 0
41042 41426 0
-41042 -41037 -41080 -41426 0
41040 41169 0
41040 41042 0
41040 41043 0
-41040 -41169 -41042 -41043 0
41044 41045 0
41044 41046 0
-41044 -41045 -41046 0
41268 41068 0
41268 41049 0
-41268 -41068 -41049 0
41267 41071 0
41267 41052 0
-41267 -41071 -41052 0
41265 41074 0
41265 41055 0
-41265 -41074 -41055 0
41264 41062 0
41264 41058 0
-41264 -41062 -41058 0
41263 41065 0
41263 41061 0
-41263 -41065 -41061 0
41062 41255 0
41062 41064 0
-41062 -41255 -41064 0
41065 41261 0
41065 41067 0
-41065 -41261 -41067 0
41068 41237 0
41068 41070 0
-41068 -41237 -41070 0
41071 41243 0
41071 41073 0
-41071 -41243 -41073 0
41074 41249 0
41074 41076 0
-41074 -41249 -41076 0
41081 41262 0
41081 41266 0
-41081 -41262 -41266 0
41080 41081 0
41080 41169 0
-41080 -41081 -41169 0
41270 41084 0
41270 41085 0
41270 41086 0
41270 41087 0
-41270 -41084 -41085 -41086 -41087 0
41093 41089 0
41093 41090 0
-41093 -41089 -41090 0
41091 41092 0
41091 41093 0
-41091 -41092 -41093 0
41094 41095 0
41094 41164 0
-41094 -41095 -41164 0
41165 41109 0
41165 41099 0
-41165 -41109 -41099 0
41166 41112 0
41166 41102 0
-41166 -41112 -41102 0
41167 41115 0
41167 41105 0
-41167 -41115 -41105 0
41168 41118 0
41168 41108 0
-41168 -41118 -41108 0
41109 41387 0
41109 41367 0
-41109 -41387 -41367 0
41112 41388 0
41112 41373 0
-41112 -41388 -41373 0
41115 41389 0
41115 41379 0
-41115 -41389 -41379 0
41118 41386 0
41118 41385 0
-41118 -41386 -41385 0
41121 41128 0
41121 41131 0
41121 41134 0
-41121 -41128 -41131 -41134 0
41125 41137 0
41125 41140 0
-41125 -41137 -41140 0
41128 41143 0
41128 41130 0
-41128 -41143 -41130 0
41131 41146 0
41131 41133 0
-41131 -41146 -41133 0
41134 41149 0
41134 41136 0
-41134 -41149 -41136 0
41137 41152 0
41137 41139 0
-41137 -41152 -41139 0
41140 41155 0
41140 41142 0
-41140 -41155 -41142 0
41143 41421 0
41143 41395 0
-41143 -41421 -41395 0
41146 41422 0
41146 41401 0
-41146 -41422 -41401 0
41149 41423 0
41149 41407 0
-41149 -41423 -41407 0
41152 41424 0
41152 41413 0
-41152 -41424 -41413 0
41155 41420 0
41155 41419 0
-41155 -41420 -41419 0
41430 41159 0
41430 41160 0
-41430 -41159 -41160 0
41429 41426 0
41429 41163 0
-41429 -41426 -41163 0
41164 41165 0
41164 41166 0
41164 41167 0
41164 41168 0
-41164 -41165 -41166 -41167 -41168 0
41169 41170 0
41169 41171 0
-41169 -41170 -41171 0
-41172 -41175 0
-41172 -41174 0
41172 41175 41174 0
-41175 -41176 0
-41175 -41177 0
41175 41176 41177 0
-41178 -41181 0
-41178 -41180 0
41178 41181 41180 0
-41181 -41182 0
-41181 -41183 0
41181 41182 41183 0
-41184 -41187 0
-41184 -41186 0
41184 41187 41186 0
-41187 -41188 0
-41187 -41189 0
41187 41188 41189 0
-41190 -41193 0
-41190 -41192 0
41190 41193 41192 0
-41193 -41194 0
-41193 -41195 0
41193 41194 41195 0
-41196 -41199 0
-41196 -41198 0
41196 41199 41198 0
-41199 -41200 0
-41199 -41201 0
41199 41200 41201 0
-41202 -41205 0
-41202 -41204 0
41202 41205 41204 0
-41205 -41206 0
-41205 -41207 0
41205 41206 41207 0
-41208 -41211 0
-41208 -41210 0
41208 41211 41210 0
-41211 -41212 0
-41211 -41213 0
41211 41212 41213 0
-41214 -41217 0
-41214 -41216 0
41214 41217 41216 0
-41217 -41218 0
-41217 -41219 0
41217 41218 41219 0
-41220 -41223 0
-41220 -41222 0
41220 41223 41222 0
-41223 -41224 0
-41223 -41225 0
41223 41224 41225 0
-41226 -41229 0
-41226 -41228 0
41226 41229 41228 0
-41229 -41230 0
-41229 -41231 0
41229 41230 41231 0
-41232 -41235 0
-41232 -41234 0
41232 41235 41234 0
-41235 -41269 0
-41235 -41237 0
41235 41269 41237 0
-41238 -41241 0
-41238 -41240 0
41238 41241 41240 0
-41241 -41242 0
-41241 -41243 0
41241 41242 41243 0
-41244 -41247 0
-41244 -41246 0
41244 41247 41246 0
-41247 -41248 0
-41247 -41249 0
41247 41248 41249 0
-41250 -41253 0
-41250 -41252 0
41250 41253 41252 0
-41253 -41254 0
-41253 -41255 0
41253 41254 41255 0
-41256 -41259 0
-41256 -41258 0
41256 41259 41258 0
-41259 -41260 0
-41259 -41261 0
41259 41260 41261 0
-41262 -41263 0
-41262 -41264 0
-41262 -41265 0
41262 41263 41264 41265 0
-41266 -41267 0
-41266 -41268 0
41266 41267 41268 0
-41269 -41270 0
-41269 -41275 0
41269 41270 41275 0
-41277 -41273 0
-41277 -41274 0
41277 41273 41274 0
-41275 -41276 0
-41275 -41277 0
41275 41276 41277 0
-41278 -41281 0
-41278 -41280 0
41278 41281 41280 0
-41281 -41282 0
-41281 -41283 0
41281 41282 41283 0
-41284 -41287 0
-41284 -41286 0
41284 41287 41286 0
-41287 -41288 0
-41287 -41289 0
41287 41288 41289 0
-41290 -41293 0
-41290 -41292 0
41290 41293 41292 0
-41293 -41294 0
-41293 -41295 0
41293 41294 41295 0
-41296 -41299 0
-41296 -41298 0
41296 41299 41298 0
-41299 -41300 0
-41299 -41301 0
41299 41300 41301 0
-41302 -41305 0
-41302 -41304 0
41302 41305 41304 0
-41305 -41306 0
-41305 -41307 0
41305 41306 41307 0
-41308 -41311 0
-41308 -41310 0
41308 41311 41310 0
-41311 -41312 0
-41311 -41313 0
41311 41312 41313 0
-41314 -41317 0
-41314 -41316 0
41314 41317 41316 0
-41317 -41318 0
-41317 -41319 0
41317 41318 41319 0
-41320 -41323 0
-41320 -41322 0
41320 41323 41322 0
-41323 -41324 0
-41323 -41325 0
41323 41324 41325 0
-41326 -41329 0
-41326 -41328 0
41326 41329 41328 0
-41329 -41330 0
-41329 -41331 0
41329 41330 41331 0
-41332 -41335 0
-41332 -41334 0
41332 41335 41334 0
-41335 -41336 0
-41335 -41337 0
41335 41336 41337 0
-41338 -41341 0
-41338 -41340 0
41338 41341 41340 0
-41341 -41342 0
-41341 -41343 0
41341 41342 41343 0
-41344 -41347 0
-41344 -41346 0
41344 41347 41346 0
-41347 -41348 0
-41347 -41349 0
41347 41348 41349 0
-41350 -41351 0
-41350 -41353 0
41350 41351 41353 0
-41353 -41360 0
-41353 -41355 0
41353 41360 41355 0
-41356 -41357 0
-41356 -41359 0
41356 41357 41359 0
-41359 -41360 0
-41359 -41361 0
41359 41360 41361 0
-41362 -41365 0
-41362 -41364 0
41362 41365 41364 0
-41365 -41366 0
-41365 -41367 0
41365 41366 41367 0
-41368 -41371 0
-41368 -41370 0
41368 41371 41370 0
-41371 -41372 0
-41371 -41373 0
41371 41372 41373 0
-41374 -41377 0
-41374 -41376 0
41374 41377 41376 0
-41377 -41378 0
-41377 -41379 0
41377 41378 41379 0
-41380 -41383 0
-41380 -41382 0
41380 41383 41382 0
-41383 -41384 0
-41383 -41385 0
41383 41384 41385 0
-41386 -41387 0
-41386 -41388 0
-41386 -41389 0
41386 41387 41388 41389 0
-41390 -41393 0
-41390 -41392 0
41390 41393 41392 0
-41393 -41394 0
-41393 -41395 0
41393 41394 41395 0
-41396 -41399 0
-41396 -41398 0
41396 41399 41398 0
-41399 -41400 0
-41399 -41401 0
41399 41400 41401 0
-41402 -41405 0
-41402 -41404 0
41402 41405 41404 0
-41405 -41406 0
-41405 -41407 0
41405 41406 41407 0
-41408 -41411 0
-41408 -41410 0
41408 41411 41410 0
-41411 -41412 0
-41411 -41413 0
41411 41412 41413 0
-41414 -41417 0
-41414 -41416 0
41414 41417 41416 0
-41417 -41418 0
-41417 -41419 0
41417 41418 41419 0
-41420 -41421 0
-41420 -41422 0
-41420 -41423 0
-41420 -41424 0
41420 41421 41422 41423 41424 0
-41425 -41426 0
-41425 -41427 0
41425 41426 41427 0
-41428 -41429 0
-41428 -41430 0
41428 41429 41430 0
-41442 -41432 0
-41442 -41433 0
41442 41432 41433 0
-41434 -41435 0
-41434 -41442 0
41434 41435 41442 0
-41437 -41438 0
-41437 -41442 0
41437 41438 41442 0
-41440 -41441 0
-41440 -41442 0
41440 41441 41442 0
-41443 -41444 0
-41443 -41445 0
-41443 -41446 0
-41443 -41447 0
41443 41444 41445 41446 41447 0
-41448 -41449 0
-41448 -41451 0
41448 41449 41451 0
-41451 -41452 0
-41451 -41453 0
41451 41452 41453 0
-41455 43047 0
41455 -43047 0
-41457 43231 0
41457 -43231 0
-41459 41613 0
41459 -41613 0
-41461 43134 0
41461 -43134 0
-41463 43140 0
41463 -43140 0
-41465 41621 0
41465 -41621 0
-41467 43146 0
41467 -43146 0
-41469 41627 0
41469 -41627 0
-41471 43152 0
41471 -43152 0
-41473 43158 0
41473 -43158 0
-41475 43164 0
41475 -43164 0
-41477 43170 0
41477 -43170 0
-41479 42028 0
41479 -42028 0
-41481 42664 0
41481 -42664 0
-41483 41651 0
41483 -41651 0
-41485 43176 0
41485 -43176 0
-41487 43182 0
41487 -43182 0
-41489 41661 0
41489 -41661 0
-41491 41665 0
41491 -41665 0
-41493 43188 0
41493 -43188 0
-41495 43194 0
41495 -43194 0
-41497 43200 0
41497 -43200 0
-41499 43206 0
41499 -43206 0
-41501 43212 0
41501 -43212 0
-41503 43218 0
41503 -43218 0
-41505 43044 0
41505 -43044 0
-41507 43043 0
41507 -43043 0
-41509 43042 0
41509 -43042 0
-41511 43041 0
41511 -43041 0
-41513 43240 0
41513 -43240 0
-41515 43246 0
41515 -43246 0
-41517 43252 0
41517 -43252 0
-41519 43258 0
41519 -43258 0
-41521 43264 0
41521 -43264 0
-41523 43270 0
41523 -43270 0
-41525 43276 0
41525 -43276 0
-41527 43282 0
41527 -43282 0
-41529 43288 0
41529 -43288 0
-41531 43294 0
41531 -43294 0
-41533 43300 0
41533 -43300 0
-41535 43306 0
41535 -43306 0
-41537 42692 0
41537 -42692 0
-41539 43312 0
41539 -43312 0
-41541 42695 0
41541 -42695 0
-41543 43318 0
41543 -43318 0
-41545 43324 0
41545 -43324 0
-41547 43330 0
41547 -43330 0
-41549 43336 0
41549 -43336 0
-41551 43342 0
41551 -43342 0
-41553 43344 0
41553 -43344 0
-41555 43345 0
41555 -43345 0
-41557 43346 0
41557 -43346 0
-41559 43352 0
41559 -43352 0
-41561 43358 0
41561 -43358 0
-41563 43364 0
41563 -43364 0
-41565 43370 0
41565 -43370 0
-41567 43376 0
41567 -43376 0
-41569 43378 0
41569 -43378 0
-41571 43379 0
41571 -43379 0
-41573 43380 0
41573 -43380 0
-41575 43381 0
41575 -43381 0
-41577 43120 0
41577 -43120 0
-41579 42811 0
41579 -42811 0
-41581 42820 0
41581 -42820 0
-41583 43390 0
41583 -43390 0
-41585 42895 0
41585 -42895 0
-41587 42901 0
41587 -42901 0
-41589 42898 0
41589 -42898 0
-41591 42470 0
41591 -42470 0
-41593 42473 0
41593 -42473 0
-41595 41647 0
41595 -41647 0
-41597 41923 0
41597 -41923 0
-41599 43410 0
41599 -43410 0
-41601 41929 0
41601 -41929 0
41605 43048 0
-41605 -43048 0
43412 41605 0
-43412 -41605 0
41609 43232 0
-41609 -43232 0
43414 41609 0
-43414 -41609 0
41947 42929 0
-41947 -42929 0
42950 41613 0
-42950 -41613 0
41950 42929 0
-41950 -42929 0
41956 42929 0
-41956 -42929 0
41962 42929 0
-41962 -42929 0
42956 41621 0
-42956 -41621 0
41965 42929 0
-41965 -42929 0
41983 42929 0
-41983 -42929 0
42962 41627 0
-42962 -41627 0
41986 42929 0
-41986 -42929 0
41992 42929 0
-41992 -42929 0
41998 42929 0
-41998 -42929 0
42004 42929 0
-42004 -42929 0
42010 42929 0
-42010 -42929 0
42031 42929 0
-42031 -42929 0
42030 42664 0
-42030 -42664 0
42968 42028 0
-42968 -42028 0
42537 42922 0
-42537 -42922 0
42922 41647 0
-42922 -41647 0
42037 42929 0
-42037 -42929 0
42974 41651 0
-42974 -41651 0
42040 42929 0
-42040 -42929 0
42046 42929 0
-42046 -42929 0
42078 43182 0
-42078 -43182 0
42058 42929 0
-42058 -42929 0
42980 41661 0
-42980 -41661 0
42061 42929 0
-42061 -42929 0
42986 41665 0
-42986 -41665 0
42064 42929 0
-42064 -42929 0
42094 42116 0
-42094 -42116 0
42100 42116 0
-42100 -42116 0
42106 42116 0
-42106 -42116 0
42112 42116 0
-42112 -42116 0
42121 42116 0
-42121 -42116 0
42994 43038 0
-42994 -43038 0
42151 42929 0
-42151 -42929 0
42608 42626 0
-42608 -42626 0
42157 42929 0
-42157 -42929 0
42614 42626 0
-42614 -42626 0
42163 42929 0
-42163 -42929 0
42620 42626 0
-42620 -42626 0
42169 42929 0
-42169 -42929 0
42629 42626 0
-42629 -42626 0
42641 42671 0
-42641 -42671 0
42647 42671 0
-42647 -42671 0
42653 42925 0
-42653 -42925 0
42659 42925 0
-42659 -42925 0
42925 42473 0
-42925 -42473 0
42665 42916 0
-42665 -42916 0
42674 42671 0
-42674 -42671 0
42193 42675 0
-42193 -42675 0
42199 42675 0
-42199 -42675 0
42205 42675 0
-42205 -42675 0
42221 42678 0
-42221 -42678 0
42227 42678 0
-42227 -42678 0
42233 42678 0
-42233 -42678 0
42245 42681 0
-42245 -42681 0
42251 42681 0
-42251 -42681 0
42257 42929 0
-42257 -42929 0
42272 42684 0
-42272 -42684 0
42278 42684 0
-42278 -42684 0
42284 42929 0
-42284 -42929 0
42305 42929 0
-42305 -42929 0
42308 42929 0
-42308 -42929 0
42320 42695 0
-42320 -42695 0
42314 42929 0
-42314 -42929 0
42323 43318 0
-42323 -43318 0
42317 42929 0
-42317 -42929 0
42322 42880 0
-42322 -42880 0
42327 43051 0
-42327 -43051 0
42333 43051 0
-42333 -43051 0
42339 43051 0
-42339 -43051 0
42345 43051 0
-42345 -43051 0
43052 42929 0
-43052 -42929 0
42704 42716 0
-42704 -42716 0
42710 42716 0
-42710 -42716 0
42719 42716 0
-42719 -42716 0
42725 42734 0
-42725 -42734 0
42731 42734 0
-42731 -42734 0
42737 42734 0
-42737 -42734 0
42734 42692 0
-42734 -42692 0
42378 42430 0
-42378 -42430 0
42384 42430 0
-42384 -42430 0
42390 42430 0
-42390 -42430 0
42396 42430 0
-42396 -42430 0
42402 42430 0
-42402 -42430 0
42764 42821 0
-42764 -42821 0
42770 42821 0
-42770 -42821 0
42776 42821 0
-42776 -42821 0
42782 42821 0
-42782 -42821 0
42435 42430 0
-42435 -42430 0
42438 43382 0
-42438 -43382 0
42944 43387 0
-42944 -43387 0
42808 42806 0
-42808 -42806 0
42815 42821 0
-42815 -42821 0
42824 42821 0
-42824 -42821 0
42832 43312 0
-42832 -43312 0
43317 43121 0
-43317 -43121 0
42830 42916 0
-42830 -42916 0
42836 42916 0
-42836 -42916 0
42842 42916 0
-42842 -42916 0
42848 42916 0
-42848 -42916 0
42854 42916 0
-42854 -42916 0
42860 42916 0
-42860 -42916 0
42866 42916 0
-42866 -42916 0
42872 42916 0
-42872 -42916 0
42878 42916 0
-42878 -42916 0
42884 42916 0
-42884 -42916 0
42916 42470 0
-42916 -42470 0
42477 42929 0
-42477 -42929 0
43389 42476 0
-43389 -42476 0
41835 41833 0
-41835 -41833 0
42476 41835 0
-42476 -41835 0
42889 43410 0
-42889 -43410 0
42480 42929 0
-42480 -42929 0
42890 43409 0
-42890 -43409 0
42486 42929 0
-42486 -42929 0
42896 43409 0
-42896 -43409 0
42492 42929 0
-42492 -42929 0
42902 43409 0
-42902 -43409 0
41853 41851 0
-41853 -41851 0
43409 41853 0
-43409 -41853 0
42498 42923 0
-42498 -42923 0
42917 42923 0
-42917 -42923 0
42926 42923 0
-42926 -42923 0
41863 41861 0
-41863 -41861 0
42923 41863 0
-42923 -41863 0
41877 41865 0
-41877 -41865 0
41866 41877 0
-41866 -41877 0
42507 42929 0
-42507 -42929 0
42510 42929 0
-42510 -42929 0
42516 42929 0
-42516 -42929 0
42929 41875 0
-42929 -41875 0
42635 41877 0
-42635 -41877 0
41881 41879 0
-41881 -41879 0
42829 41881 0
-42829 -41881 0
41885 41883 0
-41885 -41883 0
42841 41885 0
-42841 -41885 0
41889 41887 0
-41889 -41887 0
42835 41889 0
-42835 -41889 0
41893 41891 0
-41893 -41891 0
42847 41893 0
-42847 -41893 0
41897 41895 0
-41897 -41895 0
42607 41897 0
-42607 -41897 0
41901 41899 0
-41901 -41899 0
42853 41901 0
-42853 -41901 0
41905 41903 0
-41905 -41903 0
42859 41905 0
-42859 -41905 0
41909 41907 0
-41909 -41907 0
42865 41909 0
-42865 -41909 0
41913 41911 0
-41913 -41911 0
42871 41913 0
-42871 -41913 0
41917 41915 0
-41917 -41915 0
42877 41917 0
-42877 -41917 0
41921 41919 0
-41921 -41919 0
42883 41921 0
-42883 -41921 0
41922 41923 0
-41922 -41923 0
41927 41925 0
-41927 -41925 0
42324 41927 0
-42324 -41927 0
41928 41929 0
-41928 -41929 0
-43027 42849 0
-43027 42852 0
43027 -42849 -42852 0
-43030 42855 0
-43030 42858 0
43030 -42855 -42858 0
-43033 42861 0
-43033 42864 0
43033 -42861 -42864 0
-43021 42867 0
-43021 42870 0
43021 -42867 -42870 0
-43024 42873 0
-43024 42876 0
43024 -42873 -42876 0
-43416 42945 0
-43416 41947 0
43416 -42945 -41947 0
-43418 43129 0
-43418 41950 0
43418 -43129 -41950 0
-43131 43133 0
-43131 43134 0
43131 -43133 -43134 0
-43420 43135 0
-43420 41956 0
43420 -43135 -41956 0
-43137 43139 0
-43137 43140 0
43137 -43139 -43140 0
-43422 42951 0
-43422 41962 0
43422 -42951 -41962 0
-43424 43141 0
-43424 41965 0
43424 -43141 -41965 0
-43143 43145 0
-43143 43146 0
43143 -43145 -43146 0
-43133 43126 0
-43133 42950 0
43133 -43126 -42950 0
-43139 43133 0
-43139 43134 0
43139 -43133 -43134 0
-42955 43139 0
-42955 43140 0
42955 -43139 -43140 0
-43145 42955 0
-43145 42956 0
43145 -42955 -42956 0
-43426 42957 0
-43426 41983 0
43426 -42957 -41983 0
-43428 43147 0
-43428 41986 0
43428 -43147 -41986 0
-43149 43151 0
-43149 43152 0
43149 -43151 -43152 0
-43430 43153 0
-43430 41992 0
43430 -43153 -41992 0
-43155 43157 0
-43155 43158 0
43155 -43157 -43158 0
-43432 43159 0
-43432 41998 0
43432 -43159 -41998 0
-43161 43163 0
-43161 43164 0
43161 -43163 -43164 0
-43434 43165 0
-43434 42004 0
43434 -43165 -42004 0
-43167 43169 0
-43167 43170 0
43167 -43169 -43170 0
-43436 42963 0
-43436 42010 0
43436 -42963 -42010 0
-43151 42961 0
-43151 42962 0
43151 -42961 -42962 0
-43157 43151 0
-43157 43152 0
43157 -43151 -43152 0
-43163 43157 0
-43163 43158 0
43163 -43157 -43158 0
-43169 43163 0
-43169 43164 0
43169 -43163 -43164 0
-42967 43169 0
-42967 43170 0
42967 -43169 -43170 0
-42543 42967 0
-42543 42028 0
42543 -42967 -42028 0
-43438 42030 0
-43438 42031 0
43438 -42030 -42031 0
-42646 42532 0
-42646 42535 0
42646 -42532 -42535 0
-43440 42969 0
-43440 42037 0
43440 -42969 -42037 0
-43442 43171 0
-43442 42040 0
43442 -43171 -42040 0
-43173 43175 0
-43173 43176 0
43173 -43175 -43176 0
-43444 43177 0
-43444 42046 0
43444 -43177 -42046 0
-43179 43181 0
-43179 43182 0
43179 -43181 -43182 0
-43175 42973 0
-43175 42974 0
43175 -42973 -42974 0
-43181 43175 0
-43181 43176 0
43181 -43175 -43176 0
-43446 42975 0
-43446 42058 0
43446 -42975 -42058 0
-43448 42981 0
-43448 42061 0
43448 -42981 -42061 0
-43450 43183 0
-43450 42064 0
43450 -43183 -42064 0
-43185 43187 0
-43185 43188 0
43185 -43187 -43188 0
-42985 43257 0
-42985 42980 0
42985 -43257 -42980 0
-43187 42985 0
-43187 42986 0
43187 -42985 -42986 0
-42637 43181 0
-42637 43182 0
42637 -43181 -43182 0
-42670 42078 0
-42670 43181 0
42670 -42078 -43181 0
-42531 43145 0
-42531 43146 0
42531 -43145 -43146 0
-42540 42967 0
-42540 42968 0
42540 -42967 -42968 0
-42752 43187 0
-42752 43188 0
42752 -43187 -43188 0
-42649 43305 0
-42649 43306 0
42649 -43305 -43306 0
-43452 43189 0
-43452 42094 0
43452 -43189 -42094 0
-43191 43226 0
-43191 43194 0
43191 -43226 -43194 0
-43454 43195 0
-43454 42100 0
43454 -43195 -42100 0
-43197 43199 0
-43197 43200 0
43197 -43199 -43200 0
-43456 43201 0
-43456 42106 0
43456 -43201 -42106 0
-43203 43205 0
-43203 43206 0
43203 -43205 -43206 0
-43458 43207 0
-43458 42112 0
43458 -43207 -42112 0
-43209 43211 0
-43209 43212 0
43209 -43211 -43212 0
-42116 42837 0
-42116 42840 0
42116 -42837 -42840 0
-43460 43213 0
-43460 42121 0
43460 -43213 -42121 0
-43215 43217 0
-43215 43218 0
43215 -43217 -43218 0
-43199 43226 0
-43199 43194 0
43199 -43226 -43194 0
-43205 43199 0
-43205 43200 0
43205 -43199 -43200 0
-43211 43205 0
-43211 43206 0
43211 -43205 -43206 0
-43217 43211 0
-43217 43212 0
43217 -43211 -43212 0
-42564 42556 0
-42564 43225 0
42564 -42556 -43225 0
-42570 42559 0
-42570 42562 0
42570 -42559 -42562 0
-42576 42565 0
-42576 42568 0
42576 -42565 -42568 0
-42582 42571 0
-42582 42574 0
42582 -42571 -42574 0
-43462 42152 0
-43462 42151 0
43462 -42152 -42151 0
-42152 42603 0
-42152 42606 0
42152 -42603 -42606 0
-43464 42158 0
-43464 42157 0
43464 -42158 -42157 0
-42158 42609 0
-42158 42612 0
42158 -42609 -42612 0
-43466 42164 0
-43466 42163 0
43466 -42164 -42163 0
-42164 42615 0
-42164 42618 0
42164 -42615 -42618 0
-43468 42170 0
-43468 42169 0
43468 -42170 -42169 0
-42170 42624 0
-42170 42627 0
42170 -42624 -42627 0
-43233 43050 0
-43233 42635 0
43233 -43050 -42635 0
-43230 43048 0
-43230 42635 0
43230 -43048 -42635 0
-43275 42636 0
-43275 42639 0
43275 -42636 -42639 0
-42688 42648 0
-42688 42651 0
42688 -42648 -42651 0
-42661 42654 0
-42661 42657 0
42661 -42654 -42657 0
-43293 43239 0
-43293 43252 0
43293 -43239 -43252 0
-43470 43235 0
-43470 42193 0
43470 -43235 -42193 0
-43237 43239 0
-43237 43240 0
43237 -43239 -43240 0
-43472 43241 0
-43472 42199 0
43472 -43241 -42199 0
-43243 43245 0
-43243 43246 0
43243 -43245 -43246 0
-43474 43247 0
-43474 42205 0
43474 -43247 -42205 0
-43249 43251 0
-43249 43252 0
43249 -43251 -43252 0
-43245 43239 0
-43245 43240 0
43245 -43239 -43240 0
-43251 43245 0
-43251 43246 0
43251 -43245 -43246 0
-42680 43257 0
-42680 43258 0
-42680 43270 0
42680 -43257 -43258 -43270 0
-43476 43253 0
-43476 42221 0
43476 -43253 -42221 0
-43255 43257 0
-43255 43258 0
43255 -43257 -43258 0
-43478 43259 0
-43478 42227 0
43478 -43259 -42227 0
-43261 43263 0
-43261 43264 0
43261 -43263 -43264 0
-43480 43265 0
-43480 42233 0
43480 -43265 -42233 0
-43267 43269 0
-43267 43270 0
43267 -43269 -43270 0
-43263 43257 0
-43263 43258 0
43263 -43257 -43258 0
-43269 43263 0
-43269 43264 0
43269 -43263 -43264 0
-43482 43271 0
-43482 42245 0
43482 -43271 -42245 0
-43273 43275 0
-43273 43276 0
43273 -43275 -43276 0
-43484 43277 0
-43484 42251 0
43484 -43277 -42251 0
-43279 43281 0
-43279 43282 0
43279 -43281 -43282 0
-43486 43283 0
-43486 42257 0
43486 -43283 -42257 0
-43285 43287 0
-43285 43288 0
43285 -43287 -43288 0
-43281 43275 0
-43281 43276 0
43281 -43275 -43276 0
-43287 43275 0
-43287 43282 0
43287 -43275 -43282 0
-42755 43287 0
-42755 43288 0
42755 -43287 -43288 0
-43488 43289 0
-43488 42272 0
43488 -43289 -42272 0
-43291 43293 0
-43291 43294 0
43291 -43293 -43294 0
-43490 43295 0
-43490 42278 0
43490 -43295 -42278 0
-43297 43299 0
-43297 43300 0
43297 -43299 -43300 0
-43492 43301 0
-43492 42284 0
43492 -43301 -42284 0
-43303 43305 0
-43303 43306 0
43303 -43305 -43306 0
-43299 43293 0
-43299 43294 0
43299 -43293 -43294 0
-43305 43293 0
-43305 43300 0
43305 -43293 -43300 0
-42443 42669 0
-42443 42672 0
42443 -42669 -42672 0
-43383 42642 0
-43383 42645 0
43383 -42642 -42645 0
-43003 42660 0
-43003 42663 0
43003 -42660 -42663 0
-43494 42690 0
-43494 42305 0
43494 -42690 -42305 0
-43496 43307 0
-43496 42308 0
43496 -43307 -42308 0
-43308 43317 0
-43308 42734 0
43308 -43317 -42734 0
-43498 42693 0
-43498 42314 0
43498 -42693 -42314 0
-43500 43313 0
-43500 42317 0
43500 -43313 -42317 0
-43314 43317 0
-43314 42320 0
43314 -43317 -42320 0
-42826 42322 0
-42826 42323 0
-42826 42324 0
42826 -42322 -42323 -42324 0
-43502 43319 0
-43502 42327 0
43502 -43319 -42327 0
-43321 43323 0
-43321 43324 0
43321 -43323 -43324 0
-43504 43325 0
-43504 42333 0
43504 -43325 -42333 0
-43327 43329 0
-43327 43330 0
43327 -43329 -43330 0
-43506 43331 0
-43506 42339 0
43506 -43331 -42339 0
-43333 43335 0
-43333 43336 0
43333 -43335 -43336 0
-43508 43337 0
-43508 42345 0
43508 -43337 -42345 0
-43339 43341 0
-43339 43342 0
43339 -43341 -43342 0
-43329 43323 0
-43329 43324 0
43329 -43323 -43324 0
-43335 43329 0
-43335 43330 0
43335 -43329 -43330 0
-43341 43335 0
-43341 43336 0
43341 -43335 -43336 0
-42703 42720 0
-42703 42723 0
42703 -42720 -42723 0
-42709 42726 0
-42709 42729 0
42709 -42726 -42729 0
-42718 42732 0
-42718 42735 0
42718 -42732 -42735 0
-43510 42699 0
-43510 42702 0
43510 -42699 -42702 0
-43512 42705 0
-43512 42708 0
43512 -42705 -42708 0
-43514 42714 0
-43514 42717 0
43514 -42714 -42717 0
-43516 43347 0
-43516 42378 0
43516 -43347 -42378 0
-43349 43351 0
-43349 43352 0
43349 -43351 -43352 0
-43518 43353 0
-43518 42384 0
43518 -43353 -42384 0
-43355 43357 0
-43355 43358 0
43355 -43357 -43358 0
-43520 43359 0
-43520 42390 0
43520 -43359 -42390 0
-43361 43363 0
-43361 43364 0
43361 -43363 -43364 0
-43522 43365 0
-43522 42396 0
43522 -43365 -42396 0
-43367 43369 0
-43367 43370 0
43367 -43369 -43370 0
-43524 43371 0
-43524 42402 0
43524 -43371 -42402 0
-43373 43375 0
-43373 43376 0
43373 -43375 -43376 0
-43357 43351 0
-43357 43352 0
43357 -43351 -43352 0
-43363 43357 0
-43363 43358 0
43363 -43357 -43358 0
-43369 43363 0
-43369 43364 0
43369 -43363 -43364 0
-43375 43369 0
-43375 43370 0
43375 -43369 -43370 0
-43526 42759 0
-43526 42762 0
43526 -42759 -42762 0
-43528 42765 0
-43528 42768 0
43528 -42765 -42768 0
-43530 42771 0
-43530 42774 0
43530 -42771 -42774 0
-43532 42777 0
-43532 42780 0
43532 -42777 -42780 0
-42430 42843 0
-42430 42846 0
42430 -42843 -42846 0
-43534 42798 0
-43534 42435 0
43534 -42798 -42435 0
-42799 42801 0
-42799 42438 0
42799 -42801 -42438 0
-42806 42831 0
-42806 42834 0
42806 -42831 -42834 0
-43351 42443 0
-43351 43384 0
43351 -42443 -43384 0
-43536 42810 0
-43536 42813 0
43536 -42810 -42813 0
-43538 42819 0
-43538 42822 0
43538 -42819 -42822 0
-42992 42879 0
-42992 42882 0
42992 -42879 -42882 0
-43002 42825 0
-43002 42828 0
43002 -42825 -42828 0
-43401 42531 0
-43401 42889 0
43401 -42531 -42889 0
-43402 42540 0
-43402 42895 0
43402 -42540 -42895 0
-43403 42752 0
-43403 42901 0
43403 -42752 -42901 0
-43404 42649 0
-43404 42898 0
43404 -42649 -42898 0
-42712 42470 0
-42712 43051 0
42712 -42470 -43051 0
-42817 42473 0
-42817 43051 0
42817 -42473 -43051 0
-43540 42476 0
-43540 42477 0
43540 -42476 -42477 0
-43542 42481 0
-43542 42480 0
43542 -42481 -42480 0
-42481 42885 0
-42481 42888 0
42481 -42885 -42888 0
-43544 42487 0
-43544 42486 0
43544 -42487 -42486 0
-42487 42891 0
-42487 42894 0
42487 -42891 -42894 0
-43546 42493 0
-43546 42492 0
43546 -42493 -42492 0
-42493 42897 0
-42493 42900 0
42493 -42897 -42900 0
-43392 42906 0
-43392 42498 0
43392 -42906 -42498 0
-43395 42912 0
-43395 42915 0
43395 -42912 -42915 0
-43398 42921 0
-43398 42924 0
43398 -42921 -42924 0
-43554 42987 0
-43554 42507 0
43554 -42987 -42507 0
-43556 43405 0
-43556 42510 0
43556 -43405 -42510 0
-43406 43409 0
-43406 42898 0
43406 -43409 -42898 0
-43558 43385 0
-43558 42516 0
43558 -43385 -42516 0
42947 -43126 0
42947 -42950 0
-42947 43126 42950 0
42953 -42955 0
42953 -42956 0
-42953 42955 42956 0
42959 -42961 0
42959 -42962 0
-42959 42961 42962 0
42965 -42967 0
42965 -42968 0
-42965 42967 42968 0
42961 -42922 0
42961 -42531 0
-42961 42922 42531 0
42532 -42968 0
42532 -42922 0
-42532 42968 42922 0
42535 -42664 0
42535 -42537 0
-42535 42664 42537 0
43257 -42922 0
43257 -42540 0
-43257 42922 42540 0
42673 -42922 0
42673 -42543 0
-42673 42922 42543 0
42971 -42973 0
42971 -42974 0
-42971 42973 42974 0
42977 -43257 0
42977 -42980 0
-42977 43257 42980 0
42983 -42985 0
42983 -42986 0
-42983 42985 42986 0
42989 -43002 0
42989 -42997 0
-42989 43002 42997 0
42556 -43027 0
42556 -43194 0
-42556 43027 43194 0
42559 -43030 0
42559 -43200 0
-42559 43030 43200 0
42562 -43224 0
42562 -42564 0
-42562 43224 42564 0
42565 -43033 0
42565 -43206 0
-42565 43033 43206 0
42568 -43222 0
42568 -42570 0
-42568 43222 42570 0
42571 -43021 0
42571 -43212 0
-42571 43021 43212 0
42574 -43221 0
42574 -42576 0
-42574 43221 42576 0
43127 -43024 0
43127 -43218 0
-43127 43024 43218 0
43128 -43220 0
43128 -42582 0
-43128 43220 42582 0
43006 -43194 0
43006 -43027 0
-43006 43194 43027 0
43009 -43200 0
43009 -43030 0
-43009 43200 43030 0
43012 -43206 0
43012 -43033 0
-43012 43206 43033 0
43015 -43212 0
43015 -43021 0
-43015 43212 43021 0
43018 -43218 0
43018 -43024 0
-43018 43218 43024 0
42631 -43041 0
42631 -43042 0
42631 -43043 0
42631 -43044 0
-42631 43041 43042 43043 43044 0
42603 -43044 0
42603 -42626 0
-42603 43044 42626 0
42606 -42607 0
42606 -42608 0
-42606 42607 42608 0
42609 -43043 0
42609 -42626 0
-42609 43043 42626 0
42612 -43044 0
42612 -42614 0
-42612 43044 42614 0
42615 -43042 0
42615 -42626 0
-42615 43042 42626 0
42618 -43043 0
42618 -42620 0
-42618 43043 42620 0
42626 -42680 0
42626 -42925 0
-42626 42680 42925 0
42624 -43041 0
42624 -42626 0
-42624 43041 42626 0
42627 -43042 0
42627 -42629 0
-42627 43042 42629 0
43046 -42631 0
43046 -42635 0
-43046 42631 42635 0
43049 -43227 0
43049 -42635 0
-43049 43227 42635 0
42636 -42637 0
42636 -42671 0
-42636 42637 42671 0
42639 -43257 0
42639 -42641 0
-42639 43257 42641 0
42642 -43182 0
42642 -42671 0
-42642 43182 42671 0
42645 -42646 0
42645 -42647 0
-42645 42646 42647 0
42648 -42649 0
42648 -42925 0
-42648 42649 42925 0
42651 -42755 0
42651 -42653 0
-42651 42755 42653 0
42654 -43306 0
42654 -42925 0
-42654 43306 42925 0
42657 -43288 0
42657 -42659 0
-42657 43288 42659 0
42660 -42661 0
42660 -42916 0
-42660 42661 42916 0
42663 -42664 0
42663 -42665 0
-42663 42664 42665 0
42671 -42826 0
42671 -42916 0
-42671 42826 42916 0
42669 -42670 0
42669 -42671 0
-42669 42670 42671 0
42672 -42673 0
42672 -42674 0
-42672 42673 42674 0
42675 -42929 0
42675 -43293 0
-42675 42929 43293 0
42678 -42929 0
42678 -42680 0
-42678 42929 42680 0
42681 -42929 0
42681 -43287 0
-42681 42929 43287 0
42684 -42929 0
42684 -43305 0
-42684 42929 43305 0
43323 -42688 0
43323 -42916 0
-43323 42688 42916 0
42690 -43383 0
42690 -42692 0
-42690 43383 42692 0
42693 -43317 0
42693 -42695 0
-42693 43317 42695 0
42880 -43120 0
42880 -43384 0
-42880 43120 43384 0
42699 -43344 0
42699 -42716 0
-42699 43344 42716 0
42702 -42703 0
42702 -42704 0
-42702 42703 42704 0
42705 -43345 0
42705 -42716 0
-42705 43345 42716 0
42708 -42709 0
42708 -42710 0
-42708 42709 42710 0
42716 -42712 0
42716 -42929 0
-42716 42712 42929 0
42714 -43346 0
42714 -42716 0
-42714 43346 42716 0
42717 -42718 0
42717 -42719 0
-42717 42718 42719 0
42720 -42871 0
42720 -42734 0
-42720 42871 42734 0
42723 -42853 0
42723 -42725 0
-42723 42853 42725 0
42726 -42877 0
42726 -42734 0
-42726 42877 42734 0
42729 -42859 0
42729 -42731 0
-42729 42859 42731 0
42732 -42883 0
42732 -42734 0
-42732 42883 42734 0
42735 -42865 0
42735 -42737 0
-42735 42865 42737 0
43056 -43344 0
43056 -43324 0
-43056 43344 43324 0
43059 -43345 0
43059 -43330 0
-43059 43345 43330 0
43062 -43346 0
43062 -43336 0
-43062 43346 43336 0
43065 -43343 0
43065 -43342 0
-43065 43343 43342 0
42973 -42925 0
42973 -42752 0
-42973 42925 42752 0
43239 -42925 0
43239 -42755 0
-43239 42925 42755 0
43384 -43078 0
43384 -43082 0
-43384 43078 43082 0
42759 -43378 0
42759 -42821 0
-42759 43378 42821 0
42762 -42829 0
42762 -42764 0
-42762 42829 42764 0
42765 -43379 0
42765 -42821 0
-42765 43379 42821 0
42768 -42841 0
42768 -42770 0
-42768 42841 42770 0
42771 -43380 0
42771 -42821 0
-42771 43380 42821 0
42774 -42835 0
42774 -42776 0
-42774 42835 42776 0
42777 -43381 0
42777 -42821 0
-42777 43381 42821 0
42780 -42847 0
42780 -42782 0
-42780 42847 42782 0
43087 -43378 0
43087 -43352 0
-43087 43378 43352 0
43090 -43379 0
43090 -43358 0
-43090 43379 43358 0
43093 -43380 0
43093 -43364 0
-43093 43380 43364 0
43096 -43381 0
43096 -43370 0
-43096 43381 43370 0
43099 -43377 0
43099 -43376 0
-43099 43377 43376 0
42798 -42799 0
42798 -43351 0
-42798 42799 43351 0
42801 -43120 0
42801 -43382 0
-42801 43120 43382 0
43116 -42820 0
43116 -42806 0
-43116 42820 42806 0
43117 -42808 0
43117 -42811 0
-43117 42808 42811 0
42810 -42811 0
42810 -42821 0
-42810 42811 42821 0
42813 -42923 0
42813 -42815 0
-42813 42923 42815 0
42821 -42817 0
42821 -42929 0
-42821 42817 42929 0
42819 -42820 0
42819 -42821 0
-42819 42820 42821 0
42822 -43409 0
42822 -42824 0
-42822 43409 42824 0
42825 -42826 0
42825 -42916 0
-42825 42826 42916 0
42828 -42829 0
42828 -42830 0
-42828 42829 42830 0
42831 -42832 0
42831 -42916 0
-42831 42832 42916 0
42834 -42835 0
42834 -42836 0
-42834 42835 42836 0
42837 -43051 0
42837 -42916 0
-42837 43051 42916 0
42840 -42841 0
42840 -42842 0
-42840 42841 42842 0
42843 -43051 0
42843 -42916 0
-42843 43051 42916 0
42846 -42847 0
42846 -42848 0
-42846 42847 42848 0
42849 -42930 0
42849 -42916 0
-42849 42930 42916 0
42852 -42853 0
42852 -42854 0
-42852 42853 42854 0
42855 -42933 0
42855 -42916 0
-42855 42933 42916 0
42858 -42859 0
42858 -42860 0
-42858 42859 42860 0
42861 -42936 0
42861 -42916 0
-42861 42936 42916 0
42864 -42865 0
42864 -42866 0
-42864 42865 42866 0
42867 -42939 0
42867 -42916 0
-42867 42939 42916 0
42870 -42871 0
42870 -42872 0
-42870 42871 42872 0
42873 -42942 0
42873 -42916 0
-42873 42942 42916 0
42876 -42877 0
42876 -42878 0
-42876 42877 42878 0
42879 -42880 0
42879 -42916 0
-42879 42880 42916 0
42882 -42883 0
42882 -42884 0
-42882 42883 42884 0
42885 -42895 0
42885 -43409 0
-42885 42895 43409 0
42888 -42889 0
42888 -42890 0
-42888 42889 42890 0
42891 -42901 0
42891 -43409 0
-42891 42901 43409 0
42894 -42895 0
42894 -42896 0
-42894 42895 42896 0
42897 -42898 0
42897 -43409 0
-42897 42898 43409 0
42900 -42901 0
42900 -42902 0
-42900 42901 42902 0
43548 -43391 0
43548 -42927 0
-43548 43391 42927 0
42906 -42916 0
42906 -42923 0
-42906 42916 42923 0
43550 -43394 0
43550 -42927 0
-43550 43394 42927 0
42912 -42925 0
42912 -42923 0
-42912 42925 42923 0
42915 -42916 0
42915 -42917 0
-42915 42916 42917 0
43552 -43397 0
43552 -42927 0
-43552 43397 42927 0
42921 -42922 0
42921 -42923 0
-42921 42922 42923 0
42924 -42925 0
42924 -42926 0
-42924 42925 42926 0
42927 -43389 0
42927 -42929 0
-42927 43389 42929 0
42930 43352 0
42930 42944 0
-42930 -43352 -42944 0
42933 43358 0
42933 42944 0
-42933 -43358 -42944 0
42936 43364 0
42936 42944 0
-42936 -43364 -42944 0
42939 43370 0
42939 42944 0
-42939 -43370 -42944 0
42942 43376 0
42942 42944 0
-42942 -43376 -42944 0
42945 42948 0
42945 42947 0
-42945 -42948 -42947 0
42948 43126 0
42948 42950 0
-42948 -43126 -42950 0
42951 42954 0
42951 42953 0
-42951 -42954 -42953 0
42954 42955 0
42954 42956 0
-42954 -42955 -42956 0
42957 42960 0
42957 42959 0
-42957 -42960 -42959 0
42960 42961 0
42960 42962 0
-42960 -42961 -42962 0
42963 42966 0
42963 42965 0
-42963 -42966 -42965 0
42966 42967 0
42966 42968 0
-42966 -42967 -42968 0
42969 42972 0
42969 42971 0
-42969 -42972 -42971 0
42972 42973 0
42972 42974 0
-42972 -42973 -42974 0
42975 42978 0
42975 42977 0
-42975 -42978 -42977 0
42978 43257 0
42978 42980 0
-42978 -43257 -42980 0
42981 42984 0
42981 42983 0
-42981 -42984 -42983 0
42984 42985 0
42984 42986 0
-42984 -42985 -42986 0
42987 43001 0
42987 42989 0
-42987 -43001 -42989 0
43000 43383 0
43000 42992 0
-43000 -43383 -42992 0
42999 42994 0
42999 43037 0
42999 43383 0
-42999 -42994 -43037 -43383 0
42997 43126 0
42997 42999 0
42997 43000 0
-42997 -43126 -42999 -43000 0
43001 43002 0
43001 43003 0
-43001 -43002 -43003 0
43225 43025 0
43225 43006 0
-43225 -43025 -43006 0
43224 43028 0
43224 43009 0
-43224 -43028 -43009 0
43222 43031 0
43222 43012 0
-43222 -43031 -43012 0
43221 43019 0
43221 43015 0
-43221 -43019 -43015 0
43220 43022 0
43220 43018 0
-43220 -43022 -43018 0
43019 43212 0
43019 43021 0
-43019 -43212 -43021 0
43022 43218 0
43022 43024 0
-43022 -43218 -43024 0
43025 43194 0
43025 43027 0
-43025 -43194 -43027 0
43028 43200 0
43028 43030 0
-43028 -43200 -43030 0
43031 43206 0
43031 43033 0
-43031 -43206 -43033 0
43038 43219 0
43038 43223 0
-43038 -43219 -43223 0
43037 43038 0
43037 43126 0
-43037 -43038 -43126 0
43227 43041 0
43227 43042 0
43227 43043 0
43227 43044 0
-43227 -43041 -43042 -43043 -43044 0
43050 43046 0
43050 43047 0
-43050 -43046 -43047 0
43048 43049 0
43048 43050 0
-43048 -43049 -43050 0
43051 43052 0
43051 43121 0
-43051 -43052 -43121 0
43122 43066 0
43122 43056 0
-43122 -43066 -43056 0
43123 43069 0
43123 43059 0
-43123 -43069 -43059 0
43124 43072 0
43124 43062 0
-43124 -43072 -43062 0
43125 43075 0
43125 43065 0
-43125 -43075 -43065 0
43066 43344 0
43066 43324 0
-43066 -43344 -43324 0
43069 43345 0
43069 43330 0
-43069 -43345 -43330 0
43072 43346 0
43072 43336 0
-43072 -43346 -43336 0
43075 43343 0
43075 43342 0
-43075 -43343 -43342 0
43078 43085 0
43078 43088 0
43078 43091 0
-43078 -43085 -43088 -43091 0
43082 43094 0
43082 43097 0
-43082 -43094 -43097 0
43085 43100 0
43085 43087 0
-43085 -43100 -43087 0
43088 43103 0
43088 43090 0
-43088 -43103 -43090 0
43091 43106 0
43091 43093 0
-43091 -43106 -43093 0
43094 43109 0
43094 43096 0
-43094 -43109 -43096 0
43097 43112 0
43097 43099 0
-43097 -43112 -43099 0
43100 43378 0
43100 43352 0
-43100 -43378 -43352 0
43103 43379 0
43103 43358 0
-43103 -43379 -43358 0
43106 43380 0
43106 43364 0
-43106 -43380 -43364 0
43109 43381 0
43109 43370 0
-43109 -43381 -43370 0
43112 43377 0
43112 43376 0
-43112 -43377 -43376 0
43387 43116 0
43387 43117 0
-43387 -43116 -43117 0
43386 43383 0
43386 43120 0
-43386 -43383 -43120 0
43121 43122 0
43121 43123 0
43121 43124 0
43121 43125 0
-43121 -43122 -43123 -43124 -43125 0
43126 43127 0
43126 43128 0
-43126 -43127 -43128 0
-43129 -43132 0
-43129 -43131 0
43129 43132 43131 0
-43132 -43133 0
-43132 -43134 0
43132 43133 43134 0
-43135 -43138 0
-43135 -43137 0
43135 43138 43137 0
-43138 -43139 0
-43138 -43140 0
43138 43139 43140 0
-43141 -43144 0
-43141 -43143 0
43141 43144 43143 0
-43144 -43145 0
-43144 -43146 0
43144 43145 43146 0
-43147 -43150 0
-43147 -43149 0
43147 43150 43149 0
-43150 -43151 0
-43150 -43152 0
43150 43151 43152 0
-43153 -43156 0
-43153 -43155 0
43153 43156 43155 0
-43156 -43157 0
-43156 -43158 0
43156 43157 43158 0
-43159 -43162 0
-43159 -43161 0
43159 43162 43161 0
-43162 -43163 0
-43162 -43164 0
43162 43163 43164 0
-43165 -43168 0
-43165 -43167 0
43165 43168 43167 0
-43168 -43169 0
-43168 -43170 0
43168 43169 43170 0
-43171 -43174 0
-43171 -43173 0
43171 43174 43173 0
-43174 -43175 0
-43174 -43176 0
43174 43175 43176 0
-43177 -43180 0
-43177 -43179 0
43177 43180 43179 0
-43180 -43181 0
-43180 -43182 0
43180 43181 43182 0
-43183 -43186 0
-43183 -43185 0
43183 43186 43185 0
-43186 -43187 0
-43186 -43188 0
43186 43187 43188 0
-43189 -43192 0
-43189 -43191 0
43189 43192 43191 0
-43192 -43226 0
-43192 -43194 0
43192 43226 43194 0
-43195 -43198 0
-43195 -43197 0
43195 43198 43197 0
-43198 -43199 0
-43198 -43200 0
43198 43199 43200 0
-43201 -43204 0
-43201 -43203 0
43201 43204 43203 0
-43204 -43205 0
-43204 -43206 0
43204 43205 43206 0
-43207 -43210 0
-43207 -43209 0
43207 43210 43209 0
-43210 -43211 0
-43210 -43212 0
43210 43211 43212 0
-43213 -43216 0
-43213 -43215 0
43213 43216 43215 0
-43216 -43217 0
-43216 -43218 0
43216 43217 43218 0
-43219 -43220 0
-43219 -43221 0
-43219 -43222 0
43219 43220 43221 43222 0
-43223 -43224 0
-43223 -43225 0
43223 43224 43225 0
-43226 -43227 0
-43226 -43232 0
43226 43227 43232 0
-43234 -43230 0
-43234 -43231 0
43234 43230 43231 0
-43232 -43233 0
-43232 -43234 0
43232 43233 43234 0
-43235 -43238 0
-43235 -43237 0
43235 43238 43237 0
-43238 -43239 0
-43238 -43240 0
43238 43239 43240 0
-43241 -43244 0
-43241 -43243 0
43241 43244 43243 0
-43244 -43245 0
-43244 -43246 0
43244 43245 43246 0
-43247 -43250 0
-43247 -43249 0
43247 43250 43249 0
-43250 -43251 0
-43250 -43252 0
43250 43251 43252 0
-43253 -43256 0
-43253 -43255 0
43253 43256 43255 0
-43256 -43257 0
-43256 -43258 0
43256 43257 43258 0
-43259 -43262 0
-43259 -43261 0
43259 43262 43261 0
-43262 -43263 0
-43262 -43264 0
43262 43263 43264 0
-43265 -43268 0
-43265 -43267 0
43265 43268 43267 0
-43268 -43269 0
-43268 -43270 0
43268 43269 43270 0
-43271 -43274 0
-43271 -43273 0
43271 43274 43273 0
-43274 -43275 0
-43274 -43276 0
43274 43275 43276 0
-43277 -43280 0
-43277 -43279 0
43277 43280 43279 0
-43280 -43281 0
-43280 -43282 0
43280 43281 43282 0
-43283 -43286 0
-43283 -43285 0
43283 43286 43285 0
-43286 -43287 0
-43286 -43288 0
43286 43287 43288 0
-43289 -43292 0
-43289 -43291 0
43289 43292 43291 0
-43292 -43293 0
-43292 -43294 0
43292 43293 43294 0
-43295 -43298 0
-43295 -43297 0
43295 43298 43297 0
-43298 -43299 0
-43298 -43300 0
43298 43299 43300 0
-43301 -43304 0
-43301 -43303 0
43301 43304 43303 0
-43304 -43305 0
-43304 -43306 0
43304 43305 43306 0
-43307 -43308 0
-43307 -43310 0
43307 43308 43310 0
-43310 -43317 0
-43310 -43312 0
43310 43317 43312 0
-43313 -43314 0
-43313 -43316 0
43313 43314 43316 0
-43316 -43317 0
-43316 -43318 0
43316 43317 43318 0
-43319 -43322 0
-43319 -43321 0
43319 43322 43321 0
-43322 -43323 0
-43322 -43324 0
43322 43323 43324 0
-43325 -43328 0
-43325 -43327 0
43325 43328 43327 0
-43328 -43329 0
-43328 -43330 0
43328 43329 43330 0
-43331 -43334 0
-43331 -43333 0
43331 43334 43333 0
-43334 -43335 0
-43334 -43336 0
43334 43335 43336 0
-43337 -43340 0
-43337 -43339 0
43337 43340 43339 0
-43340 -43341 0
-43340 -43342 0
43340 43341 43342 0
-43343 -43344 0
-43343 -43345 0
-43343 -43346 0
43343 43344 43345 43346 0
-43347 -43350 0
-43347 -43349 0
43347 43350 43349 0
-43350 -43351 0
-43350 -43352 0
43350 43351 43352 0
-43353 -43356 0
-43353 -43355 0
43353 43356 43355 0
-43356 -43357 0
-43356 -43358 0
43356 43357 43358 0
-43359 -43362 0
-43359 -43361 0
43359 43362 43361 0
-43362 -43363 0
-43362 -43364 0
43362 43363 43364 0
-43365 -43368 0
-43365 -43367 0
43365 43368 43367 0
-43368 -43369 0
-43368 -43370 0
43368 43369 43370 0
-43371 -43374 0
-43371 -43373 0
43371 43374 43373 0
-43374 -43375 0
-43374 -43376 0
43374 43375 43376 0
-43377 -43378 0
-43377 -43379 0
-43377 -43380 0
-43377 -43381 0
43377 43378 43379 43380 43381 0
-43382 -43383 0
-43382 -43384 0
43382 43383 43384 0
-43385 -43386 0
-43385 -43387 0
43385 43386 43387 0
-43399 -43389 0
-43399 -43390 0
43399 43389 43390 0
-43391 -43392 0
-43391 -43399 0
43391 43392 43399 0
-43394 -43395 0
-43394 -43399 0
43394 43395 43399 0
-43397 -43398 0
-43397 -43399 0
43397 43398 43399 0
-43400 -43401 0
-43400 -43402 0
-43400 -43403 0
-43400 -43404 0
43400 43401 43402 43403 43404 0
-43405 -43406 0
-43405 -43408 0
43405 43406 43408 0
-43408 -43409 0
-43408 -43410 0
43408 43409 43410 0
-43412 45004 0
43412 -45004 0
-43414 45188 0
43414 -45188 0
-43416 43570 0
43416 -43570 0
-43418 45091 0
43418 -45091 0
-43420 45097 0
43420 -45097 0
-43422 43578 0
43422 -43578 0
-43424 45103 0
43424 -45103 0
-43426 43584 0
43426 -43584 0
-43428 45109 0
43428 -45109 0
-43430 45115 0
43430 -45115 0
-43432 45121 0
43432 -45121 0
-43434 45127 0
43434 -45127 0
-43436 43985 0
43436 -43985 0
-43438 44621 0
43438 -44621 0
-43440 43608 0
43440 -43608 0
-43442 45133 0
43442 -45133 0
-43444 45139 0
43444 -45139 0
-43446 43618 0
43446 -43618 0
-43448 43622 0
43448 -43622 0
-43450 45145 0
43450 -45145 0
-43452 45151 0
43452 -45151 0
-43454 45157 0
43454 -45157 0
-43456 45163 0
43456 -45163 0
-43458 45169 0
43458 -45169 0
-43460 45175 0
43460 -45175 0
-43462 45001 0
43462 -45001 0
-43464 45000 0
43464 -45000 0
-43466 44999 0
43466 -44999 0
-43468 44998 0
43468 -44998 0
-43470 45197 0
43470 -45197 0
-43472 45203 0
43472 -45203 0
-43474 45209 0
43474 -45209 0
-43476 45215 0
43476 -45215 0
-43478 45221 0
43478 -45221 0
-43480 45227 0
43480 -45227 0
-43482 45233 0
43482 -45233 0
-43484 45239 0
43484 -45239 0
-43486 45245 0
43486 -45245 0
-43488 45251 0
43488 -45251 0
-43490 45257 0
43490 -45257 0
-43492 45263 0
43492 -45263 0
-43494 44649 0
43494 -44649 0
-43496 45269 0
43496 -45269 0
-43498 44652 0
43498 -44652 0
-43500 45275 0
43500 -45275 0
-43502 45281 0
43502 -45281 0
-43504 45287 0
43504 -45287 0
-43506 45293 0
43506 -45293 0
-43508 45299 0
43508 -45299 0
-43510 45301 0
43510 -45301 0
-43512 45302 0
43512 -45302 0
-43514 45303 0
43514 -45303 0
-43516 45309 0
43516 -45309 0
-43518 45315 0
43518 -45315 0
-43520 45321 0
43520 -45321 0
-43522 45327 0
43522 -45327 0
-43524 45333 0
43524 -45333 0
-43526 45335 0
43526 -45335 0
-43528 45336 0
43528 -45336 0
-43530 45337 0
43530 -45337 0
-43532 45338 0
43532 -45338 0
-43534 45077 0
43534 -45077 0
-43536 44768 0
43536 -44768 0
-43538 44777 0
43538 -44777 0
-43540 45347 0
43540 -45347 0
-43542 44852 0
43542 -44852 0
-43544 44858 0
43544 -44858 0
-43546 44855 0
43546 -44855 0
-43548 44427 0
43548 -44427 0
-43550 44430 0
43550 -44430 0
-43552 43604 0
43552 -43604 0
-43554 43880 0
43554 -43880 0
-43556 45367 0
43556 -45367 0
-43558 43886 0
43558 -43886 0
43562 45005 0
-43562 -45005 0
45369 43562 0
-45369 -43562 0
43566 45189 0
-43566 -45189 0
45371 43566 0
-45371 -43566 0
43904 44886 0
-43904 -44886 0
44907 43570 0
-44907 -43570 0
43907 44886 0
-43907 -44886 0
43913 44886 0
-43913 -44886 0
43919 44886 0
-43919 -44886 0
44913 43578 0
-44913 -43578 0
43922 44886 0
-43922 -44886 0
43940 44886 0
-43940 -44886 0
44919 43584 0
-44919 -43584 0
43943 44886 0
-43943 -44886 0
43949 44886 0
-43949 -44886 0
43955 44886 0
-43955 -44886 0
43961 44886 0
-43961 -44886 0
43967 44886 0
-43967 -44886 0
43988 44886 0
-43988 -44886 0
43987 44621 0
-43987 -44621 0
44925 43985 0
-44925 -43985 0
44494 44879 0
-44494 -44879 0
44879 43604 0
-44879 -43604 0
43994 44886 0
-43994 -44886 0
44931 43608 0
-44931 -43608 0
43997 44886 0
-43997 -44886 0
44003 44886 0
-44003 -44886 0
44035 45139 0
-44035 -45139 0
44015 44886 0
-44015 -44886 0
44937 43618 0
-44937 -43618 0
44018 44886 0
-44018 -44886 0
44943 43622 0
-44943 -43622 0
44021 44886 0
-44021 -44886 0
44051 44073 0
-44051 -44073 0
44057 44073 0
-44057 -44073 0
44063 44073 0
-44063 -44073 0
44069 44073 0
-44069 -44073 0
44078 44073 0
-44078 -44073 0
44951 44995 0
-44951 -44995 0
44108 44886 0
-44108 -44886 0
44565 44583 0
-44565 -44583 0
44114 44886 0
-44114 -44886 0
44571 44583 0
-44571 -44583 0
44120 44886 0
-44120 -44886 0
44577 44583 0
-44577 -44583 0
44126 44886 0
-44126 -44886 0
44586 44583 0
-44586 -44583 0
44598 44628 0
-44598 -44628 0
44604 44628 0
-44604 -44628 0
44610 44882 0
-44610 -44882 0
44616 44882 0
-44616 -44882 0
44882 44430 0
-44882 -44430 0
44622 44873 0
-44622 -44873 0
44631 44628 0
-44631 -44628 0
44150 44632 0
-44150 -44632 0
44156 44632 0
-44156 -44632 0
44162 44632 0
-44162 -44632 0
44178 44635 0
-44178 -44635 0
44184 44635 0
-44184 -44635 0
44190 44635 0
-44190 -44635 0
44202 44638 0
-44202 -44638 0
44208 44638 0
-44208 -44638 0
44214 44886 0
-44214 -44886 0
44229 44641 0
-44229 -44641 0
44235 44641 0
-44235 -44641 0
44241 44886 0
-44241 -44886 0
44262 44886 0
-44262 -44886 0
44265 44886 0
-44265 -44886 0
44277 44652 0
-44277 -44652 0
44271 44886 0
-44271 -44886 0
44280 45275 0
-44280 -45275 0
44274 44886 0
-44274 -44886 0
44279 44837 0
-44279 -44837 0
44284 45008 0
-44284 -45008 0
44290 45008 0
-44290 -45008 0
44296 45008 0
-44296 -45008 0
44302 45008 0
-44302 -45008 0
45009 44886 0
-45009 -44886 0
44661 44673 0
-44661 -44673 0
44667 44673 0
-44667 -44673 0
44676 44673 0
-44676 -44673 0
44682 44691 0
-44682 -44691 0
44688 44691 0
-44688 -44691 0
44694 44691 0
-44694 -44691 0
44691 44649 0
-44691 -44649 0
44335 44387 0
-44335 -44387 0
44341 44387 0
-44341 -44387 0
44347 44387 0
-44347 -44387 0
44353 44387 0
-44353 -44387 0
44359 44387 0
-44359 -44387 0
44721 44778 0
-44721 -44778 0
44727 44778 0
-44727 -44778 0
44733 44778 0
-44733 -44778 0
44739 44778 0
-44739 -44778 0
44392 44387 0
-44392 -44387 0
44395 45339 0
-44395 -45339 0
44901 45344 0
-44901 -45344 0
44765 44763 0
-44765 -44763 0
44772 44778 0
-44772 -44778 0
44781 44778 0
-44781 -44778 0
44789 45269 0
-44789 -45269 0
45274 45078 0
-45274 -45078 0
44787 44873 0
-44787 -44873 0
44793 44873 0
-44793 -44873 0
44799 44873 0
-44799 -44873 0
44805 44873 0
-44805 -44873 0
44811 44873 0
-44811 -44873 0
44817 44873 0
-44817 -44873 0
44823 44873 0
-44823 -44873 0
44829 44873 0
-44829 -44873 0
44835 44873 0
-44835 -44873 0
44841 44873 0
-44841 -44873 0
44873 44427 0
-44873 -44427 0
44434 44886 0
-44434 -44886 0
45346 44433 0
-45346 -44433 0
43792 43790 0
-43792 -43790 0
44433 43792 0
-44433 -43792 0
44846 45367 0
-44846 -45367 0
44437 44886 0
-44437 -44886 0
44847 45366 0
-44847 -45366 0
44443 44886 0
-44443 -44886 0
44853 45366 0
-44853 -45366 0
44449 44886 0
-44449 -44886 0
44859 45366 0
-44859 -45366 0
43810 43808 0
-43810 -43808 0
45366 43810 0
-45366 -43810 0
44455 44880 0
-44455 -44880 0
44874 44880 0
-44874 -44880 0
44883 44880 0
-44883 -44880 0
43820 43818 0
-43820 -43818 0
44880 43820 0
-44880 -43820 0
43834 43822 0
-43834 -43822 0
43823 43834 0
-43823 -43834 0
44464 44886 0
-44464 -44886 0
44467 44886 0
-44467 -44886 0
44473 44886 0
-44473 -44886 0
44886 43832 0
-44886 -43832 0
44592 43834 0
-44592 -43834 0
43838 43836 0
-43838 -43836 0
44786 43838 0
-44786 -43838 0
43842 43840 0
-43842 -43840 0
44798 43842 0
-44798 -43842 0
43846 43844 0
-43846 -43844 0
44792 43846 0
-44792 -43846 0
43850 43848 0
-43850 -43848 0
44804 43850 0
-44804 -43850 0
43854 43852 0
-43854 -43852 0
44564 43854 0
-44564 -43854 0
43858 43856 0
-43858 -43856 0
44810 43858 0
-44810 -43858 0
43862 43860 0
-43862 -43860 0
44816 43862 0
-44816 -43862 0
43866 43864 0
-43866 -43864 0
44822 43866 0
-44822 -43866 0
43870 43868 0
-43870 -43868 0
44828 43870 0
-44828 -43870 0
43874 43872 0
-43874 -43872 0
44834 43874 0
-44834 -43874 0
43878 43876 0
-43878 -43876 0
44840 43878 0
-44840 -43878 0
43879 43880 0
-43879 -43880 0
43884 43882 0
-43884 -43882 0
44281 43884 0
-44281 -43884 0
43885 43886 0
-43885 -43886 0
-44984 44806 0
-44984 44809 0
44984 -44806 -44809 0
-44987 44812 0
-44987 44815 0
44987 -44812 -44815 0
-44990 44818 0
-44990 44821 0
44990 -44818 -44821 0
-44978 44824 0
-44978 44827 0
44978 -44824 -44827 0
-44981 44830 0
-44981 44833 0
44981 -44830 -44833 0
-45373 44902 0
-45373 43904 0
45373 -44902 -43904 0
-45375 45086 0
-45375 43907 0
45375 -45086 -43907 0
-45088 45090 0
-45088 45091 0
45088 -45090 -45091 0
-45377 45092 0
-45377 43913 0
45377 -45092 -43913 0
-45094 45096 0
-45094 45097 0
45094 -45096 -45097 0
-45379 44908 0
-45379 43919 0
45379 -44908 -43919 0
-45381 45098 0
-45381 43922 0
45381 -45098 -43922 0
-45100 45102 0
-45100 45103 0
45100 -45102 -45103 0
-45090 45083 0
-45090 44907 0
45090 -45083 -44907 0
-45096 45090 0
-45096 45091 0
45096 -45090 -45091 0
-44912 45096 0
-44912 45097 0
44912 -45096 -45097 0
-45102 44912 0
-45102 44913 0
45102 -44912 -44913 0
-45383 44914 0
-45383 43940 0
45383 -44914 -43940 0
-45385 45104 0
-45385 43943 0
45385 -45104 -43943 0
-45106 45108 0
-45106 45109 0
45106 -45108 -45109 0
-45387 45110 0
-45387 43949 0
45387 -45110 -43949 0
-45112 45114 0
-45112 45115 0
45112 -45114 -45115 0
-45389 45116 0
-45389 43955 0
45389 -45116 -43955 0
-45118 45120 0
-45118 45121 0
45118 -45120 -45121 0
-45391 45122 0
-45391 43961 0
45391 -45122 -43961 0
-45124 45126 0
-45124 45127 0
45124 -45126 -45127 0
-45393 44920 0
-45393 43967 0
45393 -44920 -43967 0
-45108 44918 0
-45108 44919 0
45108 -44918 -44919 0
-45114 45108 0
-45114 45109 0
45114 -45108 -45109 0
-45120 45114 0
-45120 45115 0
45120 -45114 -45115 0
-45126 45120 0
-45126 45121 0
45126 -45120 -45121 0
-44924 45126 0
-44924 45127 0
44924 -45126 -45127 0
-44500 44924 0
-44500 43985 0
44500 -44924 -43985 0
-45395 43987 0
-45395 43988 0
45395 -43987 -43988 0
-44603 44489 0
-44603 44492 0
44603 -44489 -44492 0
-45397 44926 0
-45397 43994 0
45397 -44926 -43994 0
-45399 45128 0
-45399 43997 0
45399 -45128 -43997 0
-45130 45132 0
-45130 45133 0
45130 -45132 -45133 0
-45401 45134 0
-45401 44003 0
45401 -45134 -44003 0
-45136 45138 0
-45136 45139 0
45136 -45138 -45139 0
-45132 44930 0
-45132 44931 0
45132 -44930 -44931 0
-45138 45132 0
-45138 45133 0
45138 -45132 -45133 0
-45403 44932 0
-45403 44015 0
45403 -44932 -44015 0
-45405 44938 0
-45405 44018 0
45405 -44938 -44018 0
-45407 45140 0
-45407 44021 0
45407 -45140 -44021 0
-45142 45144 0
-45142 45145 0
45142 -45144 -45145 0
-44942 45214 0
-44942 44937 0
44942 -45214 -44937 0
-45144 44942 0
-45144 44943 0
45144 -44942 -44943 0
-44594 45138 0
-44594 45139 0
44594 -45138 -45139 0
-44627 44035 0
-44627 45138 0
44627 -44035 -45138 0
-44488 45102 0
-44488 45103 0
44488 -45102 -45103 0
-44497 44924 0
-44497 44925 0
44497 -44924 -44925 0
-44709 45144 0
-44709 45145 0
44709 -45144 -45145 0
-44606 45262 0
-44606 45263 0
44606 -45262 -45263 0
-45409 45146 0
-45409 44051 0
45409 -45146 -44051 0
-45148 45183 0
-45148 45151 0
45148 -45183 -45151 0
-45411 45152 0
-45411 44057 0
45411 -45152 -44057 0
-45154 45156 0
-45154 45157 0
45154 -45156 -45157 0
-45413 45158 0
-45413 44063 0
45413 -45158 -44063 0
-45160 45162 0
-45160 45163 0
45160 -45162 -45163 0
-45415 45164 0
-45415 44069 0
45415 -45164 -44069 0
-45166 45168 0
-45166 45169 0
45166 -45168 -45169 0
-44073 44794 0
-44073 44797 0
44073 -44794 -44797 0
-45417 45170 0
-45417 44078 0
45417 -45170 -44078 0
-45172 45174 0
-45172 45175 0
45172 -45174 -45175 0
-45156 45183 0
-45156 45151 0
45156 -45183 -45151 0
-45162 45156 0
-45162 45157 0
45162 -45156 -45157 0
-45168 45162 0
-45168 45163 0
45168 -45162 -45163 0
-45174 45168 0
-45174 45169 0
45174 -45168 -45169 0
-44521 44513 0
-44521 45182 0
44521 -44513 -45182 0
-44527 44516 0
-44527 44519 0
44527 -44516 -44519 0
-44533 44522 0
-44533 44525 0
44533 -44522 -44525 0
-44539 44528 0
-44539 44531 0
44539 -44528 -44531 0
-45419 44109 0
-45419 44108 0
45419 -44109 -44108 0
-44109 44560 0
-44109 44563 0
44109 -44560 -44563 0
-45421 44115 0
-45421 44114 0
45421 -44115 -44114 0
-44115 44566 0
-44115 44569 0
44115 -44566 -44569 0
-45423 44121 0
-45423 44120 0
45423 -44121 -44120 0
-44121 44572 0
-44121 44575 0
44121 -44572 -44575 0
-45425 44127 0
-45425 44126 0
45425 -44127 -44126 0
-44127 44581 0
-44127 44584 0
44127 -44581 -44584 0
-45190 45007 0
-45190 44592 0
45190 -45007 -44592 0
-45187 45005 0
-45187 44592 0
45187 -45005 -44592 0
-45232 44593 0
-45232 44596 0
45232 -44593 -44596 0
-44645 44605 0
-44645 44608 0
44645 -44605 -44608 0
-44618 44611 0
-44618 44614 0
44618 -44611 -44614 0
-45250 45196 0
-45250 45209 0
45250 -45196 -45209 0
-45427 45192 0
-45427 44150 0
45427 -45192 -44150 0
-45194 45196 0
-45194 45197 0
45194 -45196 -45197 0
-45429 45198 0
-45429 44156 0
45429 -45198 -44156 0
-45200 45202 0
-45200 45203 0
45200 -45202 -45203 0
-45431 45204 0
-45431 44162 0
45431 -45204 -44162 0
-45206 45208 0
-45206 45209 0
45206 -45208 -45209 0
-45202 45196 0
-45202 45197 0
45202 -45196 -45197 0
-45208 45202 0
-45208 45203 0
45208 -45202 -45203 0
-44637 45214 0
-44637 45215 0
-44637 45227 0
44637 -45214 -45215 -45227 0
-45433 45210 0
-45433 44178 0
45433 -45210 -44178 0
-45212 45214 0
-45212 45215 0
45212 -45214 -45215 0
-45435 45216 0
-45435 44184 0
45435 -45216 -44184 0
-45218 45220 0
-45218 45221 0
45218 -45220 -45221 0
-45437 45222 0
-45437 44190 0
45437 -45222 -44190 0
-45224 45226 0
-45224 45227 0
45224 -45226 -45227 0
-45220 45214 0
-45220 45215 0
45220 -45214 -45215 0
-45226 45220 0
-45226 45221 0
45226 -45220 -45221 0
-45439 45228 0
-45439 44202 0
45439 -45228 -44202 0
-45230 45232 0
-45230 45233 0
45230 -45232 -45233 0
-45441 45234 0
-45441 44208 0
45441 -45234 -44208 0
-45236 45238 0
-45236 45239 0
45236 -45238 -45239 0
-45443 45240 0
-45443 44214 0
45443 -45240 -44214 0
-45242 45244 0
-45242 45245 0
45242 -45244 -45245 0
-45238 45232 0
-45238 45233 0
45238 -45232 -45233 0
-45244 45232 0
-45244 45239 0
45244 -45232 -45239 0
-44712 45244 0
-44712 45245 0
44712 -45244 -45245 0
-45445 45246 0
-45445 44229 0
45445 -45246 -44229 0
-45248 45250 0
-45248 45251 0
45248 -45250 -45251 0
-45447 45252 0
-45447 44235 0
45447 -45252 -44235 0
-45254 45256 0
-45254 45257 0
45254 -45256 -45257 0
-45449 45258 0
-45449 44241 0
45449 -45258 -44241 0
-45260 45262 0
-45260 45263 0
45260 -45262 -45263 0
-45256 45250 0
-45256 45251 0
45256 -45250 -45251 0
-45262 45250 0
-45262 45257 0
45262 -45250 -45257 0
-44400 44626 0
-44400 44629 0
44400 -44626 -44629 0
-45340 44599 0
-45340 44602 0
45340 -44599 -44602 0
-44960 44617 0
-44960 44620 0
44960 -44617 -44620 0
-45451 44647 0
-45451 44262 0
45451 -44647 -44262 0
-45453 45264 0
-45453 44265 0
45453 -45264 -44265 0
-45265 45274 0
-45265 44691 0
45265 -45274 -44691 0
-45455 44650 0
-45455 44271 0
45455 -44650 -44271 0
-45457 45270 0
-45457 44274 0
45457 -45270 -44274 0
-45271 45274 0
-45271 44277 0
45271 -45274 -44277 0
-44783 44279 0
-44783 44280 0
-44783 44281 0
44783 -44279 -44280 -44281 0
-45459 45276 0
-45459 44284 0
45459 -45276 -44284 0
-45278 45280 0
-45278 45281 0
45278 -45280 -45281 0
-45461 45282 0
-45461 44290 0
45461 -45282 -44290 0
-45284 45286 0
-45284 45287 0
45284 -45286 -45287 0
-45463 45288 0
-45463 44296 0
45463 -45288 -44296 0
-45290 45292 0
-45290 45293 0
45290 -45292 -45293 0
-45465 45294 0
-45465 44302 0
45465 -45294 -44302 0
-45296 45298 0
-45296 45299 0
45296 -45298 -45299 0
-45286 45280 0
-45286 45281 0
45286 -45280 -45281 0
-45292 45286 0
-45292 45287 0
45292 -45286 -45287 0
-45298 45292 0
-45298 45293 0
45298 -45292 -45293 0
-44660 44677 0
-44660 44680 0
44660 -44677 -44680 0
-44666 44683 0
-44666 44686 0
44666 -44683 -44686 0
-44675 44689 0
-44675 44692 0
44675 -44689 -44692 0
-45467 44656 0
-45467 44659 0
45467 -44656 -44659 0
-45469 44662 0
-45469 44665 0
45469 -44662 -44665 0
-45471 44671 0
-45471 44674 0
45471 -44671 -44674 0
-45473 45304 0
-45473 44335 0
45473 -45304 -44335 0
-45306 45308 0
-45306 45309 0
45306 -45308 -45309 0
-45475 45310 0
-45475 44341 0
45475 -45310 -44341 0
-45312 45314 0
-45312 45315 0
45312 -45314 -45315 0
-45477 45316 0
-45477 44347 0
45477 -45316 -44347 0
-45318 45320 0
-45318 45321 0
45318 -45320 -45321 0
-45479 45322 0
-45479 44353 0
45479 -45322 -44353 0
-45324 45326 0
-45324 45327 0
45324 -45326 -45327 0
-45481 45328 0
-45481 44359 0
45481 -45328 -44359 0
-45330 45332 0
-45330 45333 0
45330 -45332 -45333 0
-45314 45308 0
-45314 45309 0
45314 -45308 -45309 0
-45320 45314 0
-45320 45315 0
45320 -45314 -45315 0
-45326 45320 0
-45326 45321 0
45326 -45320 -45321 0
-45332 45326 0
-45332 45327 0
45332 -45326 -45327 0
-45483 44716 0
-45483 44719 0
45483 -44716 -44719 0
-45485 44722 0
-45485 44725 0
45485 -44722 -44725 0
-45487 44728 0
-45487 44731 0
45487 -44728 -44731 0
-45489 44734 0
-45489 44737 0
45489 -44734 -44737 0
-44387 44800 0
-44387 44803 0
44387 -44800 -44803 0
-45491 44755 0
-45491 44392 0
45491 -44755 -44392 0
-44756 44758 0
-44756 44395 0
44756 -44758 -44395 0
-44763 44788 0
-44763 44791 0
44763 -44788 -44791 0
-45308 44400 0
-45308 45341 0
45308 -44400 -45341 0
-45493 44767 0
-45493 44770 0
45493 -44767 -44770 0
-45495 44776 0
-45495 44779 0
45495 -44776 -44779 0
-44949 44836 0
-44949 44839 0
44949 -44836 -44839 0
-44959 44782 0
-44959 44785 0
44959 -44782 -44785 0
-45358 44488 0
-45358 44846 0
45358 -44488 -44846 0
-45359 44497 0
-45359 44852 0
45359 -44497 -44852 0
-45360 44709 0
-45360 44858 0
45360 -44709 -44858 0
-45361 44606 0
-45361 44855 0
45361 -44606 -44855 0
-44669 44427 0
-44669 45008 0
44669 -44427 -45008 0
-44774 44430 0
-44774 45008 0
44774 -44430 -45008 0
-45497 44433 0
-45497 44434 0
45497 -44433 -44434 0
-45499 44438 0
-45499 44437 0
45499 -44438 -44437 0
-44438 44842 0
-44438 44845 0
44438 -44842 -44845 0
-45501 44444 0
-45501 44443 0
45501 -44444 -44443 0
-44444 44848 0
-44444 44851 0
44444 -44848 -44851 0
-45503 44450 0
-45503 44449 0
45503 -44450 -44449 0
-44450 44854 0
-44450 44857 0
44450 -44854 -44857 0
-45349 44863 0
-45349 44455 0
45349 -44863 -44455 0
-45352 44869 0
-45352 44872 0
45352 -44869 -44872 0
-45355 44878 0
-45355 44881 0
45355 -44878 -44881 0
-45511 44944 0
-45511 44464 0
45511 -44944 -44464 0
-45513 45362 0
-45513 44467 0
45513 -45362 -44467 0
-45363 45366 0
-45363 44855 0
45363 -45366 -44855 0
-45515 45342 0
-45515 44473 0
45515 -45342 -44473 0
44904 -45083 0
44904 -44907 0
-44904 45083 44907 0
44910 -44912 0
44910 -44913 0
-44910 44912 44913 0
44916 -44918 0
44916 -44919 0
-44916 44918 44919 0
44922 -44924 0
44922 -44925 0
-44922 44924 44925 0
44918 -44879 0
44918 -44488 0
-44918 44879 44488 0
44489 -44925 0
44489 -44879 0
-44489 44925 44879 0
44492 -44621 0
44492 -44494 0
-44492 44621 44494 0
45214 -44879 0
45214 -44497 0
-45214 44879 44497 0
44630 -44879 0
44630 -44500 0
-44630 44879 44500 0
44928 -44930 0
44928 -44931 0
-44928 44930 44931 0
44934 -45214 0
44934 -44937 0
-44934 45214 44937 0
44940 -44942 0
44940 -44943 0
-44940 44942 44943 0
44946 -44959 0
44946 -44954 0
-44946 44959 44954 0
44513 -44984 0
44513 -45151 0
-44513 44984 45151 0
44516 -44987 0
44516 -45157 0
-44516 44987 45157 0
44519 -45181 0
44519 -44521 0
-44519 45181 44521 0
44522 -44990 0
44522 -45163 0
-44522 44990 45163 0
44525 -45179 0
44525 -44527 0
-44525 45179 44527 0
44528 -44978 0
44528 -45169 0
-44528 44978 45169 0
44531 -45178 0
44531 -44533 0
-44531 45178 44533 0
45084 -44981 0
45084 -45175 0
-45084 44981 45175 0
45085 -45177 0
45085 -44539 0
-45085 45177 44539 0
44963 -45151 0
44963 -44984 0
-44963 45151 44984 0
44966 -45157 0
44966 -44987 0
-44966 45157 44987 0
44969 -45163 0
44969 -44990 0
-44969 45163 44990 0
44972 -45169 0
44972 -44978 0
-44972 45169 44978 0
44975 -45175 0
44975 -44981 0
-44975 45175 44981 0
44588 -44998 0
44588 -44999 0
44588 -45000 0
44588 -45001 0
-44588 44998 44999 45000 45001 0
44560 -45001 0
44560 -44583 0
-44560 45001 44583 0
44563 -44564 0
44563 -44565 0
-44563 44564 44565 0
44566 -45000 0
44566 -44583 0
-44566 45000 44583 0
44569 -45001 0
44569 -44571 0
-44569 45001 44571 0
44572 -44999 0
44572 -44583 0
-44572 44999 44583 0
44575 -45000 0
44575 -44577 0
-44575 45000 44577 0
44583 -44637 0
44583 -44882 0
-44583 44637 44882 0
44581 -44998 0
44581 -44583 0
-44581 44998 44583 0
44584 -44999 0
44584 -44586 0
-44584 44999 44586 0
45003 -44588 0
45003 -44592 0
-45003 44588 44592 0
45006 -45184 0
45006 -44592 0
-45006 45184 44592 0
44593 -44594 0
44593 -44628 0
-44593 44594 44628 0
44596 -45214 0
44596 -44598 0
-44596 45214 44598 0
44599 -45139 0
44599 -44628 0
-44599 45139 44628 0
44602 -44603 0
44602 -44604 0
-44602 44603 44604 0
44605 -44606 0
44605 -44882 0
-44605 44606 44882 0
44608 -44712 0
44608 -44610 0
-44608 44712 44610 0
44611 -45263 0
44611 -44882 0
-44611 45263 44882 0
44614 -45245 0
44614 -44616 0
-44614 45245 44616 0
44617 -44618 0
44617 -44873 0
-44617 44618 44873 0
44620 -44621 0
44620 -44622 0
-44620 44621 44622 0
44628 -44783 0
44628 -44873 0
-44628 44783 44873 0
44626 -44627 0
44626 -44628 0
-44626 44627 44628 0
44629 -44630 0
44629 -44631 0
-44629 44630 44631 0
44632 -44886 0
44632 -45250 0
-44632 44886 45250 0
44635 -44886 0
44635 -44637 0
-44635 44886 44637 0
44638 -44886 0
44638 -45244 0
-44638 44886 45244 0
44641 -44886 0
44641 -45262 0
-44641 44886 45262 0
45280 -44645 0
45280 -44873 0
-45280 44645 44873 0
44647 -45340 0
44647 -44649 0
-44647 45340 44649 0
44650 -45274 0
44650 -44652 0
-44650 45274 44652 0
44837 -45077 0
44837 -45341 0
-44837 45077 45341 0
44656 -45301 0
44656 -44673 0
-44656 45301 44673 0
44659 -44660 0
44659 -44661 0
-44659 44660 44661 0
44662 -45302 0
44662 -44673 0
-44662 45302 44673 0
44665 -44666 0
44665 -44667 0
-44665 44666 44667 0
44673 -44669 0
44673 -44886 0
-44673 44669 44886 0
44671 -45303 0
44671 -44673 0
-44671 45303 44673 0
44674 -44675 0
44674 -44676 0
-44674 44675 44676 0
44677 -44828 0
44677 -44691 0
-44677 44828 44691 0
44680 -44810 0
44680 -44682 0
-44680 44810 44682 0
44683 -44834 0
44683 -44691 0
-44683 44834 44691 0
44686 -44816 0
44686 -44688 0
-44686 44816 44688 0
44689 -44840 0
44689 -44691 0
-44689 44840 44691 0
44692 -44822 0
44692 -44694 0
-44692 44822 44694 0
45013 -45301 0
45013 -45281 0
-45013 45301 45281 0
45016 -45302 0
45016 -45287 0
-45016 45302 45287 0
45019 -45303 0
45019 -45293 0
-45019 45303 45293 0
45022 -45300 0
45022 -45299 0
-45022 45300 45299 0
44930 -44882 0
44930 -44709 0
-44930 44882 44709 0
45196 -44882 0
45196 -44712 0
-45196 44882 44712 0
45341 -45035 0
45341 -45039 0
-45341 45035 45039 0
44716 -45335 0
44716 -44778 0
-44716 45335 44778 0
44719 -44786 0
44719 -44721 0
-44719 44786 44721 0
44722 -45336 0
44722 -44778 0
-44722 45336 44778 0
44725 -44798 0
44725 -44727 0
-44725 44798 44727 0
44728 -45337 0
44728 -44778 0
-44728 45337 44778 0
44731 -44792 0
44731 -44733 0
-44731 44792 44733 0
44734 -45338 0
44734 -44778 0
-44734 45338 44778 0
44737 -44804 0
44737 -44739 0
-44737 44804 44739 0
45044 -45335 0
45044 -45309 0
-45044 45335 45309 0
45047 -45336 0
45047 -45315 0
-45047 45336 45315 0
45050 -45337 0
45050 -45321 0
-45050 45337 45321 0
45053 -45338 0
45053 -45327 0
-45053 45338 45327 0
45056 -45334 0
45056 -45333 0
-45056 45334 45333 0
44755 -44756 0
44755 -45308 0
-44755 44756 45308 0
44758 -45077 0
44758 -45339 0
-44758 45077 45339 0
45073 -44777 0
45073 -44763 0
-45073 44777 44763 0
45074 -44765 0
45074 -44768 0
-45074 44765 44768 0
44767 -44768 0
44767 -44778 0
-44767 44768 44778 0
44770 -44880 0
44770 -44772 0
-44770 44880 44772 0
44778 -44774 0
44778 -44886 0
-44778 44774 44886 0
44776 -44777 0
44776 -44778 0
-44776 44777 44778 0
44779 -45366 0
44779 -44781 0
-44779 45366 44781 0
44782 -44783 0
44782 -44873 0
-44782 44783 44873 0
44785 -44786 0
44785 -44787 0
-44785 44786 44787 0
44788 -44789 0
44788 -44873 0
-44788 44789 44873 0
44791 -44792 0
44791 -44793 0
-44791 44792 44793 0
44794 -45008 0
44794 -44873 0
-44794 45008 44873 0
44797 -44798 0
44797 -44799 0
-44797 44798 44799 0
44800 -45008 0
44800 -44873 0
-44800 45008 44873 0
44803 -44804 0
44803 -44805 0
-44803 44804 44805 0
44806 -44887 0
44806 -44873 0
-44806 44887 44873 0
44809 -44810 0
44809 -44811 0
-44809 44810 44811 0
44812 -44890 0
44812 -44873 0
-44812 44890 44873 0
44815 -44816 0
44815 -44817 0
-44815 44816 44817 0
44818 -44893 0
44818 -44873 0
-44818 44893 44873 0
44821 -44822 0
44821 -44823 0
-44821 44822 44823 0
44824 -44896 0
44824 -44873 0
-44824 44896 44873 0
44827 -44828 0
44827 -44829 0
-44827 44828 44829 0
44830 -44899 0
44830 -44873 0
-44830 44899 44873 0
44833 -44834 0
44833 -44835 0
-44833 44834 44835 0
44836 -44837 0
44836 -44873 0
-44836 44837 44873 0
44839 -44840 0
44839 -44841 0
-44839 44840 44841 0
44842 -44852 0
44842 -45366 0
-44842 44852 45366 0
44845 -44846 0
44845 -44847 0
-44845 44846 44847 0
44848 -44858 0
44848 -45366 0
-44848 44858 45366 0
44851 -44852 0
44851 -44853 0
-44851 44852 44853 0
44854 -44855 0
44854 -45366 0
-44854 44855 45366 0
44857 -44858 0
44857 -44859 0
-44857 44858 44859 0
45505 -45348 0
45505 -44884 0
-45505 45348 44884 0
44863 -44873 0
44863 -44880 0
-44863 44873 44880 0
45507 -45351 0
45507 -44884 0
-45507 45351 44884 0
44869 -44882 0
44869 -44880 0
-44869 44882 44880 0
44872 -44873 0
44872 -44874 0
-44872 44873 44874 0
45509 -45354 0
45509 -44884 0
-45509 45354 44884 0
44878 -44879 0
44878 -44880 0
-44878 44879 44880 0
44881 -44882 0
44881 -44883 0
-44881 44882 44883 0
44884 -45346 0
44884 -44886 0
-44884 45346 44886 0
44887 45309 0
44887 44901 0
-44887 -45309 -44901 0
44890 45315 0
44890 44901 0
-44890 -45315 -44901 0
44893 45321 0
44893 44901 0
-44893 -45321 -44901 0
44896 45327 0
44896 44901 0
-44896 -45327 -44901 0
44899 45333 0
44899 44901 0
-44899 -45333 -44901 0
44902 44905 0
44902 44904 0
-44902 -44905 -44904 0
44905 45083 0
44905 44907 0
-44905 -45083 -44907 0
44908 44911 0
44908 44910 0
-44908 -44911 -44910 0
44911 44912 0
44911 44913 0
-44911 -44912 -44913 0
44914 44917 0
44914 44916 0
-44914 -44917 -44916 0
44917 44918 0
44917 44919 0
-44917 -44918 -44919 0
44920 44923 0
44920 44922 0
-44920 -44923 -44922 0
44923 44924 0
44923 44925 0
-44923 -44924 -44925 0
44926 44929 0
44926 44928 0
-44926 -44929 -44928 0
44929 44930 0
44929 44931 0
-44929 -44930 -44931 0
44932 44935 0
44932 44934 0
-44932 -44935 -44934 0
44935 45214 0
44935 44937 0
-44935 -45214 -44937 0
44938 44941 0
44938 44940 0
-44938 -44941 -44940 0
44941 44942 0
44941 44943 0
-44941 -44942 -44943 0
44944 44958 0
44944 44946 0
-44944 -44958 -44946 0
44957 45340 0
44957 44949 0
-44957 -45340 -44949 0
44956 44951 0
44956 44994 0
44956 45340 0
-44956 -44951 -44994 -45340 0
44954 45083 0
44954 44956 0
44954 44957 0
-44954 -45083 -44956 -44957 0
44958 44959 0
44958 44960 0
-44958 -44959 -44960 0
45182 44982 0
45182 44963 0
-45182 -44982 -44963 0
45181 44985 0
45181 44966 0
-45181 -44985 -44966 0
45179 44988 0
45179 44969 0
-45179 -44988 -44969 0
45178 44976 0
45178 44972 0
-45178 -44976 -44972 0
45177 44979 0
45177 44975 0
-45177 -44979 -44975 0
44976 45169 0
44976 44978 0
-44976 -45169 -44978 0
44979 45175 0
44979 44981 0
-44979 -45175 -44981 0
44982 45151 0
44982 44984 0
-44982 -45151 -44984 0
44985 45157 0
44985 44987 0
-44985 -45157 -44987 0
44988 45163 0
44988 44990 0
-44988 -45163 -44990 0
44995 45176 0
44995 45180 0
-44995 -45176 -45180 0
44994 44995 0
44994 45083 0
-44994 -44995 -45083 0
45184 44998 0
45184 44999 0
45184 45000 0
45184 45001 0
-45184 -44998 -44999 -45000 -45001 0
45007 45003 0
45007 45004 0
-45007 -45003 -45004 0
45005 45006 0
45005 45007 0
-45005 -45006 -45007 0
45008 45009 0
45008 45078 0
-45008 -45009 -45078 0
45079 45023 0
45079 45013 0
-45079 -45023 -45013 0
45080 45026 0
45080 45016 0
-45080 -45026 -45016 0
45081 45029 0
45081 45019 0
-45081 -45029 -45019 0
45082 45032 0
45082 45022 0
-45082 -45032 -45022 0
45023 45301 0
45023 45281 0
-45023 -45301 -45281 0
45026 45302 0
45026 45287 0
-45026 -45302 -45287 0
45029 45303 0
45029 45293 0
-45029 -45303 -45293 0
45032 45300 0
45032 45299 0
-45032 -45300 -45299 0
45035 45042 0
45035 45045 0
45035 45048 0
-45035 -45042 -45045 -45048 0
45039 45051 0
45039 45054 0
-45039 -45051 -45054 0
45042 45057 0
45042 45044 0
-45042 -45057 -45044 0
45045 45060 0
45045 45047 0
-45045 -45060 -45047 0
45048 45063 0
45048 45050 0
-45048 -45063 -45050 0
45051 45066 0
45051 45053 0
-45051 -45066 -45053 0
45054 45069 0
45054 45056 0
-45054 -45069 -45056 0
45057 45335 0
45057 45309 0
-45057 -45335 -45309 0
45060 45336 0
45060 45315 0
-45060 -45336 -45315 0
45063 45337 0
45063 45321 0
-45063 -45337 -45321 0
45066 45338 0
45066 45327 0
-45066 -45338 -45327 0
45069 45334 0
45069 45333 0
-45069 -45334 -45333 0
45344 45073 0
45344 45074 0
-45344 -45073 -45074 0
45343 45340 0
45343 45077 0
-45343 -45340 -45077 0
45078 45079 0
45078 45080 0
45078 45081 0
45078 45082 0
-45078 -45079 -45080 -45081 -45082 0
45083 45084 0
45083 45085 0
-45083 -45084 -45085 0
-45086 -45089 0
-45086 -45088 0
45086 45089 45088 0
-45089 -45090 0
-45089 -45091 0
45089 45090 45091 0
-45092 -45095 0
-45092 -45094 0
45092 45095 45094 0
-45095 -45096 0
-45095 -45097 0
45095 45096 45097 0
-45098 -45101 0
-45098 -45100 0
45098 45101 45100 0
-45101 -45102 0
-45101 -45103 0
45101 45102 45103 0
-45104 -45107 0
-45104 -45106 0
45104 45107 45106 0
-45107 -45108 0
-45107 -45109 0
45107 45108 45109 0
-45110 -45113 0
-45110 -45112 0
45110 45113 45112 0
-45113 -45114 0
-45113 -45115 0
45113 45114 45115 0
-45116 -45119 0
-45116 -45118 0
45116 45119 45118 0
-45119 -45120 0
-45119 -45121 0
45119 45120 45121 0
-45122 -45125 0
-45122 -45124 0
45122 45125 45124 0
-45125 -45126 0
-45125 -45127 0
45125 45126 45127 0
-45128 -45131 0
-45128 -45130 0
45128 45131 45130 0
-45131 -45132 0
-45131 -45133 0
45131 45132 45133 0
-45134 -45137 0
-45134 -45136 0
45134 45137 45136 0
-45137 -45138 0
-45137 -45139 0
45137 45138 45139 0
-45140 -45143 0
-45140 -45142 0
45140 45143 45142 0
-45143 -45144 0
-45143 -45145 0
45143 45144 45145 0
-45146 -45149 0
-45146 -45148 0
45146 45149 45148 0
-45149 -45183 0
-45149 -45151 0
45149 45183 45151 0
-45152 -45155 0
-45152 -45154 0
45152 45155 45154 0
-45155 -45156 0
-45155 -45157 0
45155 45156 45157 0
-45158 -45161 0
-45158 -45160 0
45158 45161 45160 0
-45161 -45162 0
-45161 -45163 0
45161 45162 45163 0
-45164 -45167 0
-45164 -45166 0
45164 45167 45166 0
-45167 -45168 0
-45167 -45169 0
45167 45168 45169 0
-45170 -45173 0
-45170 -45172 0
45170 45173 45172 0
-45173 -45174 0
-45173 -45175 0
45173 45174 45175 0
-45176 -45177 0
-45176 -45178 0
-45176 -45179 0
45176 45177 45178 45179 0
-45180 -45181 0
-45180 -45182 0
45180 45181 45182 0
-45183 -45184 0
-45183 -45189 0
45183 45184 45189 0
-45191 -45187 0
-45191 -45188 0
45191 45187 45188 0
-45189 -45190 0
-45189 -45191 0
45189 45190 45191 0
-45192 -45195 0
-45192 -45194 0
45192 45195 45194 0
-45195 -45196 0
-45195 -45197 0
45195 45196 45197 0
-45198 -45201 0
-45198 -45200 0
45198 45201 45200 0
-45201 -45202 0
-45201 -45203 0
45201 45202 45203 0
-45204 -45207 0
-45204 -45206 0
45204 45207 45206 0
-45207 -45208 0
-45207 -45209 0
45207 45208 45209 0
-45210 -45213 0
-45210 -45212 0
45210 45213 45212 0
-45213 -45214 0
-45213 -45215 0
45213 45214 45215 0
-45216 -45219 0
-45216 -45218 0
45216 45219 45218 0
-45219 -45220 0
-45219 -45221 0
45219 45220 45221 0
-45222 -45225 0
-45222 -45224 0
45222 45225 45224 0
-45225 -45226 0
-45225 -45227 0
45225 45226 45227 0
-45228 -45231 0
-45228 -45230 0
45228 45231 45230 0
-45231 -45232 0
-45231 -45233 0
45231 45232 45233 0
-45234 -45237 0
-45234 -45236 0
45234 45237 45236 0
-45237 -45238 0
-45237 -45239 0
45237 45238 45239 0
-45240 -45243 0
-45240 -45242 0
45240 45243 45242 0
-45243 -45244 0
-45243 -45245 0
45243 45244 45245 0
-45246 -45249 0
-45246 -45248 0
45246 45249 45248 0
-45249 -45250 0
-45249 -45251 0
45249 45250 45251 0
-45252 -45255 0
-45252 -45254 0
45252 45255 45254 0
-45255 -45256 0
-45255 -45257 0
45255 45256 45257 0
-45258 -45261 0
-45258 -45260 0
45258 45261 45260 0
-45261 -45262 0
-45261 -45263 0
45261 45262 45263 0
-45264 -45265 0
-45264 -45267 0
45264 45265 45267 0
-45267 -45274 0
-45267 -45269 0
45267 45274 45269 0
-45270 -45271 0
-45270 -45273 0
45270 45271 45273 0
-45273 -45274 0
-45273 -45275 0
45273 45274 45275 0
-45276 -45279 0
-45276 -45278 0
45276 45279 45278 0
-45279 -45280 0
-45279 -45281 0
45279 45280 45281 0
-45282 -45285 0
-45282 -45284 0
45282 45285 45284 0
-45285 -45286 0
-45285 -45287 0
45285 45286 45287 0
-45288 -45291 0
-45288 -45290 0
45288 45291 45290 0
-45291 -45292 0
-45291 -45293 0
45291 45292 45293 0
-45294 -45297 0
-45294 -45296 0
45294 45297 45296 0
-45297 -45298 0
-45297 -45299 0
45297 45298 45299 0
-45300 -45301 0
-45300 -45302 0
-45300 -45303 0
45300 45301 45302 45303 0
-45304 -45307 0
-45304 -45306 0
45304 45307 45306 0
-45307 -45308 0
-45307 -45309 0
45307 45308 45309 0
-45310 -45313 0
-45310 -45312 0
45310 45313 45312 0
-45313 -45314 0
-45313 -45315 0
45313 45314 45315 0
-45316 -45319 0
-45316 -45318 0
45316 45319 45318 0
-45319 -45320 0
-45319 -45321 0
45319 45320 45321 0
-45322 -45325 0
-45322 -45324 0
45322 45325 45324 0
-45325 -45326 0
-45325 -45327 0
45325 45326 45327 0
-45328 -45331 0
-45328 -45330 0
45328 45331 45330 0
-45331 -45332 0
-45331 -45333 0
45331 45332 45333 0
-45334 -45335 0
-45334 -45336 0
-45334 -45337 0
-45334 -45338 0
45334 45335 45336 45337 45338 0
-45339 -45340 0
-45339 -45341 0
45339 45340 45341 0
-45342 -45343 0
-45342 -45344 0
45342 45343 45344 0
-45356 -45346 0
-45356 -45347 0
45356 45346 45347 0
-45348 -45349 0
-45348 -45356 0
45348 45349 45356 0
-45351 -45352 0
-45351 -45356 0
45351 45352 45356 0
-45354 -45355 0
-45354 -45356 0
45354 45355 45356 0
-45357 -45358 0
-45357 -45359 0
-45357 -45360 0
-45357 -45361 0
45357 45358 45359 45360 45361 0
-45362 -45363 0
-45362 -45365 0
45362 45363 45365 0
-45365 -45366 0
-45365 -45367 0
45365 45366 45367 0
-45369 46961 0
45369 -46961 0
-45371 47145 0
45371 -47145 0
-45373 45527 0
45373 -45527 0
-45375 47048 0
45375 -47048 0
-45377 47054 0
45377 -47054 0
-45379 45535 0
45379 -45535 0
-45381 47060 0
45381 -47060 0
-45383 45541 0
45383 -45541 0
-45385 47066 0
45385 -47066 0
-45387 47072 0
45387 -47072 0
-45389 47078 0
45389 -47078 0
-45391 47084 0
45391 -47084 0
-45393 45942 0
45393 -45942 0
-45395 46578 0
45395 -46578 0
-45397 45565 0
45397 -45565 0
-45399 47090 0
45399 -47090 0
-45401 47096 0
45401 -47096 0
-45403 45575 0
45403 -45575 0
-45405 45579 0
45405 -45579 0
-45407 47102 0
45407 -47102 0
-45409 47108 0
45409 -47108 0
-45411 47114 0
45411 -47114 0
-45413 47120 0
45413 -47120 0
-45415 47126 0
45415 -47126 0
-45417 47132 0
45417 -47132 0
-45419 46958 0
45419 -46958 0
-45421 46957 0
45421 -46957 0
-45423 46956 0
45423 -46956 0
-45425 46955 0
45425 -46955 0
-45427 47154 0
45427 -47154 0
-45429 47160 0
45429 -47160 0
-45431 47166 0
45431 -47166 0
-45433 47172 0
45433 -47172 0
-45435 47178 0
45435 -47178 0
-45437 47184 0
45437 -47184 0
-45439 47190 0
45439 -47190 0
-45441 47196 0
45441 -47196 0
-45443 47202 0
45443 -47202 0
-45445 47208 0
45445 -47208 0
-45447 47214 0
45447 -47214 0
-45449 47220 0
45449 -47220 0
-45451 46606 0
45451 -46606 0
-45453 47226 0
45453 -47226 0
-45455 46609 0
45455 -46609 0
-45457 47232 0
45457 -47232 0
-45459 47238 0
45459 -47238 0
-45461 47244 0
45461 -47244 0
-45463 47250 0
45463 -47250 0
-45465 47256 0
45465 -47256 0
-45467 47258 0
45467 -47258 0
-45469 47259 0
45469 -47259 0
-45471 47260 0
45471 -47260 0
-45473 47266 0
45473 -47266 0
-45475 47272 0
45475 -47272 0
-45477 47278 0
45477 -47278 0
-45479 47284 0
45479 -47284 0
-45481 47290 0
45481 -47290 0
-45483 47292 0
45483 -47292 0
-45485 47293 0
45485 -47293 0
-45487 47294 0
45487 -47294 0
-45489 47295 0
45489 -47295 0
-45491 47034 0
45491 -47034 0
-45493 46725 0
45493 -46725 0
-45495 46734 0
45495 -46734 0
-45497 47304 0
45497 -47304 0
-45499 46809 0
45499 -46809 0
-45501 46815 0
45501 -46815 0
-45503 46812 0
45503 -46812 0
-45505 46384 0
45505 -46384 0
-45507 46387 0
45507 -46387 0
-45509 45561 0
45509 -45561 0
-45511 45837 0
45511 -45837 0
-45513 47324 0
45513 -47324 0
-45515 45843 0
45515 -45843 0
45519 46962 0
-45519 -46962 0
47326 45519 0
-47326 -45519 0
45523 47146 0
-45523 -47146 0
47328 45523 0
-47328 -45523 0
45861 46843 0
-45861 -46843 0
46864 45527 0
-46864 -45527 0
45864 46843 0
-45864 -46843 0
45870 46843 0
-45870 -46843 0
45876 46843 0
-45876 -46843 0
46870 45535 0
-46870 -45535 0
45879 46843 0
-45879 -46843 0
45897 46843 0
-45897 -46843 0
46876 45541 0
-46876 -45541 0
45900 46843 0
-45900 -46843 0
45906 46843 0
-45906 -46843 0
45912 46843 0
-45912 -46843 0
45918 46843 0
-45918 -46843 0
45924 46843 0
-45924 -46843 0
45945 46843 0
-45945 -46843 0
45944 46578 0
-45944 -46578 0
46882 45942 0
-46882 -45942 0
46451 46836 0
-46451 -46836 0
46836 45561 0
-46836 -45561 0
45951 46843 0
-45951 -46843 0
46888 45565 0
-46888 -45565 0
45954 46843 0
-45954 -46843 0
45960 46843 0
-45960 -46843 0
45992 47096 0
-45992 -47096 0
45972 46843 0
-45972 -46843 0
46894 45575 0
-46894 -45575 0
45975 46843 0
-45975 -46843 0
46900 45579 0
-46900 -45579 0
45978 46843 0
-45978 -46843 0
46008 46030 0
-46008 -46030 0
46014 46030 0
-46014 -46030 0
46020 46030 0
-46020 -46030 0
46026 46030 0
-46026 -46030 0
46035 46030 0
-46035 -46030 0
46908 46952 0
-46908 -46952 0
46065 46843 0
-46065 -46843 0
46522 46540 0
-46522 -46540 0
46071 46843 0
-46071 -46843 0
46528 46540 0
-46528 -46540 0
46077 46843 0
-46077 -46843 0
46534 46540 0
-46534 -46540 0
46083 46843 0
-46083 -46843 0
46543 46540 0
-46543 -46540 0
46555 46585 0
-46555 -46585 0
46561 46585 0
-46561 -46585 0
46567 46839 0
-46567 -46839 0
46573 46839 0
-46573 -46839 0
46839 46387 0
-46839 -46387 0
46579 46830 0
-46579 -46830 0
46588 46585 0
-46588 -46585 0
46107 46589 0
-46107 -46589 0
46113 46589 0
-46113 -46589 0
46119 46589 0
-46119 -46589 0
46135 46592 0
-46135 -46592 0
46141 46592 0
-46141 -46592 0
46147 46592 0
-46147 -46592 0
46159 46595 0
-46159 -46595 0
46165 46595 0
-46165 -46595 0
46171 46843 0
-46171 -46843 0
46186 46598 0
-46186 -46598 0
46192 46598 0
-46192 -46598 0
46198 46843 0
-46198 -46843 0
46219 46843 0
-46219 -46843 0
46222 46843 0
-46222 -46843 0
46234 46609 0
-46234 -46609 0
46228 46843 0
-46228 -46843 0
46237 47232 0
-46237 -47232 0
46231 46843 0
-46231 -46843 0
46236 46794 0
-46236 -46794 0
46241 46965 0
-46241 -46965 0
46247 46965 0
-46247 -46965 0
46253 46965 0
-46253 -46965 0
46259 46965 0
-46259 -46965 0
46966 46843 0
-46966 -46843 0
46618 46630 0
-46618 -46630 0
46624 46630 0
-46624 -46630 0
46633 46630 0
-46633 -46630 0
46639 46648 0
-46639 -46648 0
46645 46648 0
-46645 -46648 0
46651 46648 0
-46651 -46648 0
46648 46606 0
-46648 -46606 0
46292 46344 0
-46292 -46344 0
46298 46344 0
-46298 -46344 0
46304 46344 0
-46304 -46344 0
46310 46344 0
-46310 -46344 0
46316 46344 0
-46316 -46344 0
46678 46735 0
-46678 -46735 0
46684 46735 0
-46684 -46735 0
46690 46735 0
-46690 -46735 0
46696 46735 0
-46696 -46735 0
46349 46344 0
-46349 -46344 0
46352 47296 0
-46352 -47296 0
46858 47301 0
-46858 -47301 0
46722 46720 0
-46722 -46720 0
46729 46735 0
-46729 -46735 0
46738 46735 0
-46738 -46735 0
46746 47226 0
-46746 -47226 0
47231 47035 0
-47231 -47035 0
46744 46830 0
-46744 -46830 0
46750 46830 0
-46750 -46830 0
46756 46830 0
-46756 -46830 0
46762 46830 0
-46762 -46830 0
46768 46830 0
-46768 -46830 0
46774 46830 0
-46774 -46830 0
46780 46830 0
-46780 -46830 0
46786 46830 0
-46786 -46830 0
46792 46830 0
-46792 -46830 0
46798 46830 0
-46798 -46830 0
46830 46384 0
-46830 -46384 0
46391 46843 0
-46391 -46843 0
47303 46390 0
-47303 -46390 0
45749 45747 0
-45749 -45747 0
46390 45749 0
-46390 -45749 0
46803 47324 0
-46803 -47324 0
46394 46843 0
-46394 -46843 0
46804 47323 0
-46804 -47323 0
46400 46843 0
-46400 -46843 0
46810 47323 0
-46810 -47323 0
46406 46843 0
-46406 -46843 0
46816 47323 0
-46816 -47323 0
45767 45765 0
-45767 -45765 0
47323 45767 0
-47323 -45767 0
46412 46837 0
-46412 -46837 0
46831 46837 0
-46831 -46837 0
46840 46837 0
-46840 -46837 0
45777 45775 0
-45777 -45775 0
46837 45777 0
-46837 -45777 0
45791 45779 0
-45791 -45779 0
45780 45791 0
-45780 -45791 0
46421 46843 0
-46421 -46843 0
46424 46843 0
-46424 -46843 0
46430 46843 0
-46430 -46843 0
46843 45789 0
-46843 -45789 0
46549 45791 0
-46549 -45791 0
45795 45793 0
-45795 -45793 0
46743 45795 0
-46743 -45795 0
45799 45797 0
-45799 -45797 0
46755 45799 0
-46755 -45799 0
45803 45801 0
-45803 -45801 0
46749 45803 0
-46749 -45803 0
45807 45805 0
-45807 -45805 0
46761 45807 0
-46761 -45807 0
45811 45809 0
-45811 -45809 0
46521 45811 0
-46521 -45811 0
45815 45813 0
-45815 -45813 0
46767 45815 0
-46767 -45815 0
45819 45817 0
-45819 -45817 0
46773 45819 0
-46773 -45819 0
45823 45821 0
-45823 -45821 0
46779 45823 0
-46779 -45823 0
45827 45825 0
-45827 -45825 0
46785 45827 0
-46785 -45827 0
45831 45829 0
-45831 -45829 0
46791 45831 0
-46791 -45831 0
45835 45833 0
-45835 -45833 0
46797 45835 0
-46797 -45835 0
45836 45837 0
-45836 -45837 0
45841 45839 0
-45841 -45839 0
46238 45841 0
-46238 -45841 0
45842 45843 0
-45842 -45843 0
-46941 46763 0
-46941 46766 0
46941 -46763 -46766 0
-46944 46769 0
-46944 46772 0
46944 -46769 -46772 0
-46947 46775 0
-46947 46778 0
46947 -46775 -46778 0
-46935 46781 0
-46935 46784 0
46935 -46781 -46784 0
-46938 46787 0
-46938 46790 0
46938 -46787 -46790 0
-47330 46859 0
-47330 45861 0
47330 -46859 -45861 0
-47332 47043 0
-47332 45864 0
47332 -47043 -45864 0
-47045 47047 0
-47045 47048 0
47045 -47047 -47048 0
-47334 47049 0
-47334 45870 0
47334 -47049 -45870 0
-47051 47053 0
-47051 47054 0
47051 -47053 -47054 0
-47336 46865 0
-47336 45876 0
47336 -46865 -45876 0
-47338 47055 0
-47338 45879 0
47338 -47055 -45879 0
-47057 47059 0
-47057 47060 0
47057 -47059 -47060 0
-47047 47040 0
-47047 46864 0
47047 -47040 -46864 0
-47053 47047 0
-47053 47048 0
47053 -47047 -47048 0
-46869 47053 0
-46869 47054 0
46869 -47053 -47054 0
-47059 46869 0
-47059 46870 0
47059 -46869 -46870 0
-47340 46871 0
-47340 45897 0
47340 -46871 -45897 0
-47342 47061 0
-47342 45900 0
47342 -47061 -45900 0
-47063 47065 0
-47063 47066 0
47063 -47065 -47066 0
-47344 47067 0
-47344 45906 0
47344 -47067 -45906 0
-47069 47071 0
-47069 47072 0
47069 -47071 -47072 0
-47346 47073 0
-47346 45912 0
47346 -47073 -45912 0
-47075 47077 0
-47075 47078 0
47075 -47077 -47078 0
-47348 47079 0
-47348 45918 0
47348 -47079 -45918 0
-47081 47083 0
-47081 47084 0
47081 -47083 -47084 0
-47350 46877 0
-47350 45924 0
47350 -46877 -45924 0
-47065 46875 0
-47065 46876 0
47065 -46875 -46876 0
-47071 47065 0
-47071 47066 0
47071 -47065 -47066 0
-47077 47071 0
-47077 47072 0
47077 -47071 -47072 0
-47083 47077 0
-47083 47078 0
47083 -47077 -47078 0
-46881 47083 0
-46881 47084 0
46881 -47083 -47084 0
-46457 46881 0
-46457 45942 0
46457 -46881 -45942 0
-47352 45944 0
-47352 45945 0
47352 -45944 -45945 0
-46560 46446 0
-46560 46449 0
46560 -46446 -46449 0
-47354 46883 0
-47354 45951 0
47354 -46883 -45951 0
-47356 47085 0
-47356 45954 0
47356 -47085 -45954 0
-47087 47089 0
-47087 47090 0
47087 -47089 -47090 0
-47358 47091 0
-47358 45960 0
47358 -47091 -45960 0
-47093 47095 0
-47093 47096 0
47093 -47095 -47096 0
-47089 46887 0
-47089 46888 0
47089 -46887 -46888 0
-47095 47089 0
-47095 47090 0
47095 -47089 -47090 0
-47360 46889 0
-47360 45972 0
47360 -46889 -45972 0
-47362 46895 0
-47362 45975 0
47362 -46895 -45975 0
-47364 47097 0
-47364 45978 0
47364 -47097 -45978 0
-47099 47101 0
-47099 47102 0
47099 -47101 -47102 0
-46899 47171 0
-46899 46894 0
46899 -47171 -46894 0
-47101 46899 0
-47101 46900 0
47101 -46899 -46900 0
-46551 47095 0
-46551 47096 0
46551 -47095 -47096 0
-46584 45992 0
-46584 47095 0
46584 -45992 -47095 0
-46445 47059 0
-46445 47060 0
46445 -47059 -47060 0
-46454 46881 0
-46454 46882 0
46454 -46881 -46882 0
-46666 47101 0
-46666 47102 0
46666 -47101 -47102 0
-46563 47219 0
-46563 47220 0
46563 -47219 -47220 0
-47366 47103 0
-47366 46008 0
47366 -47103 -46008 0
-47105 47140 0
-47105 47108 0
47105 -47140 -47108 0
-47368 47109 0
-47368 46014 0
47368 -47109 -46014 0
-47111 47113 0
-47111 47114 0
47111 -47113 -47114 0
-47370 47115 0
-47370 46020 0
47370 -47115 -46020 0
-47117 47119 0
-47117 47120 0
47117 -47119 -47120 0
-47372 47121 0
-47372 46026 0
47372 -47121 -46026 0
-47123 47125 0
-47123 47126 0
47123 -47125 -47126 0
-46030 46751 0
-46030 46754 0
46030 -46751 -46754 0
-47374 47127 0
-47374 46035 0
47374 -47127 -46035 0
-47129 47131 0
-47129 47132 0
47129 -47131 -47132 0
-47113 47140 0
-47113 47108 0
47113 -47140 -47108 0
-47119 47113 0
-47119 47114 0
47119 -47113 -47114 0
-47125 47119 0
-47125 47120 0
47125 -47119 -47120 0
-47131 47125 0
-47131 47126 0
47131 -47125 -47126 0
-46478 46470 0
-46478 47139 0
46478 -46470 -47139 0
-46484 46473 0
-46484 46476 0
46484 -46473 -46476 0
-46490 46479 0
-46490 46482 0
46490 -46479 -46482 0
-46496 46485 0
-46496 46488 0
46496 -46485 -46488 0
-47376 46066 0
-47376 46065 0
47376 -46066 -46065 0
-46066 46517 0
-46066 46520 0
46066 -46517 -46520 0
-47378 46072 0
-47378 46071 0
47378 -46072 -46071 0
-46072 46523 0
-46072 46526 0
46072 -46523 -46526 0
-47380 46078 0
-47380 46077 0
47380 -46078 -46077 0
-46078 46529 0
-46078 46532 0
46078 -46529 -46532 0
-47382 46084 0
-47382 46083 0
47382 -46084 -46083 0
-46084 46538 0
-46084 46541 0
46084 -46538 -46541 0
-47147 46964 0
-47147 46549 0
47147 -46964 -46549 0
-47144 46962 0
-47144 46549 0
47144 -46962 -46549 0
-47189 46550 0
-47189 46553 0
47189 -46550 -46553 0
-46602 46562 0
-46602 46565 0
46602 -46562 -46565 0
-46575 46568 0
-46575 46571 0
46575 -46568 -46571 0
-47207 47153 0
-47207 47166 0
47207 -47153 -47166 0
-47384 47149 0
-47384 46107 0
47384 -47149 -46107 0
-47151 47153 0
-47151 47154 0
47151 -47153 -47154 0
-47386 47155 0
-47386 46113 0
47386 -47155 -46113 0
-47157 47159 0
-47157 47160 0
47157 -47159 -47160 0
-47388 47161 0
-47388 46119 0
47388 -47161 -46119 0
-47163 47165 0
-47163 47166 0
47163 -47165 -47166 0
-47159 47153 0
-47159 47154 0
47159 -47153 -47154 0
-47165 47159 0
-47165 47160 0
47165 -47159 -47160 0
-46594 47171 0
-46594 47172 0
-46594 47184 0
46594 -47171 -47172 -47184 0
-47390 47167 0
-47390 46135 0
47390 -47167 -46135 0
-47169 47171 0
-47169 47172 0
47169 -47171 -47172 0
-47392 47173 0
-47392 46141 0
47392 -47173 -46141 0
-47175 47177 0
-47175 47178 0
47175 -47177 -47178 0
-47394 47179 0
-47394 46147 0
47394 -47179 -46147 0
-47181 47183 0
-47181 47184 0
47181 -47183 -47184 0
-47177 47171 0
-47177 47172 0
47177 -47171 -47172 0
-47183 47177 0
-47183 47178 0
47183 -47177 -47178 0
-47396 47185 0
-47396 46159 0
47396 -47185 -46159 0
-47187 47189 0
-47187 47190 0
47187 -47189 -47190 0
-47398 47191 0
-47398 46165 0
47398 -47191 -46165 0
-47193 47195 0
-47193 47196 0
47193 -47195 -47196 0
-47400 47197 0
-47400 46171 0
47400 -47197 -46171 0
-47199 47201 0
-47199 47202 0
47199 -47201 -47202 0
-47195 47189 0
-47195 47190 0
47195 -47189 -47190 0
-47201 47189 0
-47201 47196 0
47201 -47189 -47196 0
-46669 47201 0
-46669 47202 0
46669 -47201 -47202 0
-47402 47203 0
-47402 46186 0
47402 -47203 -46186 0
-47205 47207 0
-47205 47208 0
47205 -47207 -47208 0
-47404 47209 0
-47404 46192 0
47404 -47209 -46192 0
-47211 47213 0
-47211 47214 0
47211 -47213 -47214 0
-47406 47215 0
-47406 46198 0
47406 -47215 -46198 0
-47217 47219 0
-47217 47220 0
47217 -47219 -47220 0
-47213 47207 0
-47213 47208 0
47213 -47207 -47208 0
-47219 47207 0
-47219 47214 0
47219 -47207 -47214 0
-46357 46583 0
-46357 46586 0
46357 -46583 -46586 0
-47297 46556 0
-47297 46559 0
47297 -46556 -46559 0
-46917 46574 0
-46917 46577 0
46917 -46574 -46577 0
-47408 46604 0
-47408 46219 0
47408 -46604 -46219 0
-47410 47221 0
-47410 46222 0
47410 -47221 -46222 0
-47222 47231 0
-47222 46648 0
47222 -47231 -46648 0
-47412 46607 0
-47412 46228 0
47412 -46607 -46228 0
-47414 47227 0
-47414 46231 0
47414 -47227 -46231 0
-47228 47231 0
-47228 46234 0
47228 -47231 -46234 0
-46740 46236 0
-46740 46237 0
-46740 46238 0
46740 -46236 -46237 -46238 0
-47416 47233 0
-47416 46241 0
47416 -47233 -46241 0
-47235 47237 0
-47235 47238 0
47235 -47237 -47238 0
-47418 47239 0
-47418 46247 0
47418 -47239 -46247 0
-47241 47243 0
-47241 47244 0
47241 -47243 -47244 0
-47420 47245 0
-47420 46253 0
47420 -47245 -46253 0
-47247 47249 0
-47247 47250 0
47247 -47249 -47250 0
-47422 47251 0
-47422 46259 0
47422 -47251 -46259 0
-47253 47255 0
-47253 47256 0
47253 -47255 -47256 0
-47243 47237 0
-47243 47238 0
47243 -47237 -47238 0
-47249 47243 0
-47249 47244 0
47249 -47243 -47244 0
-47255 47249 0
-47255 47250 0
47255 -47249 -47250 0
-46617 46634 0
-46617 46637 0
46617 -46634 -46637 0
-46623 46640 0
-46623 46643 0
46623 -46640 -46643 0
-46632 46646 0
-46632 46649 0
46632 -46646 -46649 0
-47424 46613 0
-47424 46616 0
47424 -46613 -46616 0
-47426 46619 0
-47426 46622 0
47426 -46619 -46622 0
-47428 46628 0
-47428 46631 0
47428 -46628 -46631 0
-47430 47261 0
-47430 46292 0
47430 -47261 -46292 0
-47263 47265 0
-47263 47266 0
47263 -47265 -47266 0
-47432 47267 0
-47432 46298 0
47432 -47267 -46298 0
-47269 47271 0
-47269 47272 0
47269 -47271 -47272 0
-47434 47273 0
-47434 46304 0
47434 -47273 -46304 0
-47275 47277 0
-47275 47278 0
47275 -47277 -47278 0
-47436 47279 0
-47436 46310 0
47436 -47279 -46310 0
-47281 47283 0
-47281 47284 0
47281 -47283 -47284 0
-47438 47285 0
-47438 46316 0
47438 -47285 -46316 0
-47287 47289 0
-47287 47290 0
47287 -47289 -47290 0
-47271 47265 0
-47271 47266 0
47271 -47265 -47266 0
-47277 47271 0
-47277 47272 0
47277 -47271 -47272 0
-47283 47277 0
-47283 47278 0
47283 -47277 -47278 0
-47289 47283 0
-47289 47284 0
47289 -47283 -47284 0
-47440 46673 0
-47440 46676 0
47440 -46673 -46676 0
-47442 46679 0
-47442 46682 0
47442 -46679 -46682 0
-47444 46685 0
-47444 46688 0
47444 -46685 -46688 0
-47446 46691 0
-47446 46694 0
47446 -46691 -46694 0
-46344 46757 0
-46344 46760 0
46344 -46757 -46760 0
-47448 46712 0
-47448 46349 0
47448 -46712 -46349 0
-46713 46715 0
-46713 46352 0
46713 -46715 -46352 0
-46720 46745 0
-46720 46748 0
46720 -46745 -46748 0
-47265 46357 0
-47265 47298 0
47265 -46357 -47298 0
-47450 46724 0
-47450 46727 0
47450 -46724 -46727 0
-47452 46733 0
-47452 46736 0
47452 -46733 -46736 0
-46906 46793 0
-46906 46796 0
46906 -46793 -46796 0
-46916 46739 0
-46916 46742 0
46916 -46739 -46742 0
-47315 46445 0
-47315 46803 0
47315 -46445 -46803 0
-47316 46454 0
-47316 46809 0
47316 -46454 -46809 0
-47317 46666 0
-47317 46815 0
47317 -46666 -46815 0
-47318 46563 0
-47318 46812 0
47318 -46563 -46812 0
-46626 46384 0
-46626 46965 0
46626 -46384 -46965 0
-46731 46387 0
-46731 46965 0
46731 -46387 -46965 0
-47454 46390 0
-47454 46391 0
47454 -46390 -46391 0
-47456 46395 0
-47456 46394 0
47456 -46395 -46394 0
-46395 46799 0
-46395 46802 0
46395 -46799 -46802 0
-47458 46401 0
-47458 46400 0
47458 -46401 -46400 0
-46401 46805 0
-46401 46808 0
46401 -46805 -46808 0
-47460 46407 0
-47460 46406 0
47460 -46407 -46406 0
-46407 46811 0
-46407 46814 0
46407 -46811 -46814 0
-47306 46820 0
-47306 46412 0
47306 -46820 -46412 0
-47309 46826 0
-47309 46829 0
47309 -46826 -46829 0
-47312 46835 0
-47312 46838 0
47312 -46835 -46838 0
-47468 46901 0
-47468 46421 0
47468 -46901 -46421 0
-47470 47319 0
-47470 46424 0
47470 -47319 -46424 0
-47320 47323 0
-47320 46812 0
47320 -47323 -46812 0
-47472 47299 0
-47472 46430 0
47472 -47299 -46430 0
46861 -47040 0
46861 -46864 0
-46861 47040 46864 0
46867 -46869 0
46867 -46870 0
-46867 46869 46870 0
46873 -46875 0
46873 -46876 0
-46873 46875 46876 0
46879 -46881 0
46879 -46882 0
-46879 46881 46882 0
46875 -46836 0
46875 -46445 0
-46875 46836 46445 0
46446 -46882 0
46446 -46836 0
-46446 46882 46836 0
46449 -46578 0
46449 -46451 0
-46449 46578 46451 0
47171 -46836 0
47171 -46454 0
-47171 46836 46454 0
46587 -46836 0
46587 -46457 0
-46587 46836 46457 0
46885 -46887 0
46885 -46888 0
-46885 46887 46888 0
46891 -47171 0
46891 -46894 0
-46891 47171 46894 0
46897 -46899 0
46897 -46900 0
-46897 46899 46900 0
46903 -46916 0
46903 -46911 0
-46903 46916 46911 0
46470 -46941 0
46470 -47108 0
-46470 46941 47108 0
46473 -46944 0
46473 -47114 0
-46473 46944 47114 0
46476 -47138 0
46476 -46478 0
-46476 47138 46478 0
46479 -46947 0
46479 -47120 0
-46479 46947 47120 0
46482 -47136 0
46482 -46484 0
-46482 47136 46484 0
46485 -46935 0
46485 -47126 0
-46485 46935 47126 0
46488 -47135 0
46488 -46490 0
-46488 47135 46490 0
47041 -46938 0
47041 -47132 0
-47041 46938 47132 0
47042 -47134 0
47042 -46496 0
-47042 47134 46496 0
46920 -47108 0
46920 -46941 0
-46920 47108 46941 0
46923 -47114 0
46923 -46944 0
-46923 47114 46944 0
46926 -47120 0
46926 -46947 0
-46926 47120 46947 0
46929 -47126 0
46929 -46935 0
-46929 47126 46935 0
46932 -47132 0
46932 -46938 0
-46932 47132 46938 0
46545 -46955 0
46545 -46956 0
46545 -46957 0
46545 -46958 0
-46545 46955 46956 46957 46958 0
46517 -46958 0
46517 -46540 0
-46517 46958 46540 0
46520 -46521 0
46520 -46522 0
-46520 46521 46522 0
46523 -46957 0
46523 -46540 0
-46523 46957 46540 0
46526 -46958 0
46526 -46528 0
-46526 46958 46528 0
46529 -46956 0
46529 -46540 0
-46529 46956 46540 0
46532 -46957 0
46532 -46534 0
-46532 46957 46534 0
46540 -46594 0
46540 -46839 0
-46540 46594 46839 0
46538 -46955 0
46538 -46540 0
-46538 46955 46540 0
46541 -46956 0
46541 -46543 0
-46541 46956 46543 0
46960 -46545 0
46960 -46549 0
-46960 46545 46549 0
46963 -47141 0
46963 -46549 0
-46963 47141 46549 0
46550 -46551 0
46550 -46585 0
-46550 46551 46585 0
46553 -47171 0
46553 -46555 0
-46553 47171 46555 0
46556 -47096 0
46556 -46585 0
-46556 47096 46585 0
46559 -46560 0
46559 -46561 0
-46559 46560 46561 0
46562 -46563 0
46562 -46839 0
-46562 46563 46839 0
46565 -46669 0
46565 -46567 0
-46565 46669 46567 0
46568 -47220 0
46568 -46839 0
-46568 47220 46839 0
46571 -47202 0
46571 -46573 0
-46571 47202 46573 0
46574 -46575 0
46574 -46830 0
-46574 46575 46830 0
46577 -46578 0
46577 -46579 0
-46577 46578 46579 0
46585 -46740 0
46585 -46830 0
-46585 46740 46830 0
46583 -46584 0
46583 -46585 0
-46583 46584 46585 0
46586 -46587 0
46586 -46588 0
-46586 46587 46588 0
46589 -46843 0
46589 -47207 0
-46589 46843 47207 0
46592 -46843 0
46592 -46594 0
-46592 46843 46594 0
46595 -46843 0
46595 -47201 0
-46595 46843 47201 0
46598 -46843 0
46598 -47219 0
-46598 46843 47219 0
47237 -46602 0
47237 -46830 0
-47237 46602 46830 0
46604 -47297 0
46604 -46606 0
-46604 47297 46606 0
46607 -47231 0
46607 -46609 0
-46607 47231 46609 0
46794 -47034 0
46794 -47298 0
-46794 47034 47298 0
46613 -47258 0
46613 -46630 0
-46613 47258 46630 0
46616 -46617 0
46616 -46618 0
-46616 46617 46618 0
46619 -47259 0
46619 -46630 0
-46619 47259 46630 0
46622 -46623 0
46622 -46624 0
-46622 46623 46624 0
46630 -46626 0
46630 -46843 0
-46630 46626 46843 0
46628 -47260 0
46628 -46630 0
-46628 47260 46630 0
46631 -46632 0
46631 -46633 0
-46631 46632 46633 0
46634 -46785 0
46634 -46648 0
-46634 46785 46648 0
46637 -46767 0
46637 -46639 0
-46637 46767 46639 0
46640 -46791 0
46640 -46648 0
-46640 46791 46648 0
46643 -46773 0
46643 -46645 0
-46643 46773 46645 0
46646 -46797 0
46646 -46648 0
-46646 46797 46648 0
46649 -46779 0
46649 -46651 0
-46649 46779 46651 0
46970 -47258 0
46970 -47238 0
-46970 47258 47238 0
46973 -47259 0
46973 -47244 0
-46973 47259 47244 0
46976 -47260 0
46976 -47250 0
-46976 47260 47250 0
46979 -47257 0
46979 -47256 0
-46979 47257 47256 0
46887 -46839 0
46887 -46666 0
-46887 46839 46666 0
47153 -46839 0
47153 -46669 0
-47153 46839 46669 0
47298 -46992 0
47298 -46996 0
-47298 46992 46996 0
46673 -47292 0
46673 -46735 0
-46673 47292 46735 0
46676 -46743 0
46676 -46678 0
-46676 46743 46678 0
46679 -47293 0
46679 -46735 0
-46679 47293 46735 0
46682 -46755 0
46682 -46684 0
-46682 46755 46684 0
46685 -47294 0
46685 -46735 0
-46685 47294 46735 0
46688 -46749 0
46688 -46690 0
-46688 46749 46690 0
46691 -47295 0
46691 -46735 0
-46691 47295 46735 0
46694 -46761 0
46694 -46696 0
-46694 46761 46696 0
47001 -47292 0
47001 -47266 0
-47001 47292 47266 0
47004 -47293 0
47004 -47272 0
-47004 47293 47272 0
47007 -47294 0
47007 -47278 0
-47007 47294 47278 0
47010 -47295 0
47010 -47284 0
-47010 47295 47284 0
47013 -47291 0
47013 -47290 0
-47013 47291 47290 0
46712 -46713 0
46712 -47265 0
-46712 46713 47265 0
46715 -47034 0
46715 -47296 0
-46715 47034 47296 0
47030 -46734 0
47030 -46720 0
-47030 46734 46720 0
47031 -46722 0
47031 -46725 0
-47031 46722 46725 0
46724 -46725 0
46724 -46735 0
-46724 46725 46735 0
46727 -46837 0
46727 -46729 0
-46727 46837 46729 0
46735 -46731 0
46735 -46843 0
-46735 46731 46843 0
46733 -46734 0
46733 -46735 0
-46733 46734 46735 0
46736 -47323 0
46736 -46738 0
-46736 47323 46738 0
46739 -46740 0
46739 -46830 0
-46739 46740 46830 0
46742 -46743 0
46742 -46744 0
-46742 46743 46744 0
46745 -46746 0
46745 -46830 0
-46745 46746 46830 0
46748 -46749 0
46748 -46750 0
-46748 46749 46750 0
46751 -46965 0
46751 -46830 0
-46751 46965 46830 0
46754 -46755 0
46754 -46756 0
-46754 46755 46756 0
46757 -46965 0
46757 -46830 0
-46757 46965 46830 0
46760 -46761 0
46760 -46762 0
-46760 46761 46762 0
46763 -46844 0
46763 -46830 0
-46763 46844 46830 0
46766 -46767 0
46766 -46768 0
-46766 46767 46768 0
46769 -46847 0
46769 -46830 0
-46769 46847 46830 0
46772 -46773 0
46772 -46774 0
-46772 46773 46774 0
46775 -46850 0
46775 -46830 0
-46775 46850 46830 0
46778 -46779 0
46778 -46780 0
-46778 46779 46780 0
46781 -46853 0
46781 -46830 0
-46781 46853 46830 0
46784 -46785 0
46784 -46786 0
-46784 46785 46786 0
46787 -46856 0
46787 -46830 0
-46787 46856 46830 0
46790 -46791 0
46790 -46792 0
-46790 46791 46792 0
46793 -46794 0
46793 -46830 0
-46793 46794 46830 0
46796 -46797 0
46796 -46798 0
-46796 46797 46798 0
46799 -46809 0
46799 -47323 0
-46799 46809 47323 0
46802 -46803 0
46802 -46804 0
-46802 46803 46804 0
46805 -46815 0
46805 -47323 0
-46805 46815 47323 0
46808 -46809 0
46808 -46810 0
-46808 46809 46810 0
46811 -46812 0
46811 -47323 0
-46811 46812 47323 0
46814 -46815 0
46814 -46816 0
-46814 46815 46816 0
47462 -47305 0
47462 -46841 0
-47462 47305 46841 0
46820 -46830 0
46820 -46837 0
-46820 46830 46837 0
47464 -47308 0
47464 -46841 0
-47464 47308 46841 0
46826 -46839 0
46826 -46837 0
-46826 46839 46837 0
46829 -46830 0
46829 -46831 0
-46829 46830 46831 0
47466 -47311 0
47466 -46841 0
-47466 47311 46841 0
46835 -46836 0
46835 -46837 0
-46835 46836 46837 0
46838 -46839 0
46838 -46840 0
-46838 46839 46840 0
46841 -47303 0
46841 -46843 0
-46841 47303 46843 0
46844 47266 0
46844 46858 0
-46844 -47266 -46858 0
46847 47272 0
46847 46858 0
-46847 -47272 -46858 0
46850 47278 0
46850 46858 0
-46850 -47278 -46858 0
46853 47284 0
46853 46858 0
-46853 -47284 -46858 0
46856 47290 0
46856 46858 0
-46856 -47290 -46858 0
46859 46862 0
46859 46861 0
-46859 -46862 -46861 0
46862 47040 0
46862 46864 0
-46862 -47040 -46864 0
46865 46868 0
46865 46867 0
-46865 -46868 -46867 0
46868 46869 0
46868 46870 0
-46868 -46869 -46870 0
46871 46874 0
46871 46873 0
-46871 -46874 -46873 0
46874 46875 0
46874 46876 0
-46874 -46875 -46876 0
46877 46880 0
46877 46879 0
-46877 -46880 -46879 0
46880 46881 0
46880 46882 0
-46880 -46881 -46882 0
46883 46886 0
46883 46885 0
-46883 -46886 -46885 0
46886 46887 0
46886 46888 0
-46886 -46887 -46888 0
46889 46892 0
46889 46891 0
-46889 -46892 -46891 0
46892 47171 0
46892 46894 0
-46892 -47171 -46894 0
46895 46898 0
46895 46897 0
-46895 -46898 -46897 0
46898 46899 0
46898 46900 0
-46898 -46899 -46900 0
46901 46915 0
46901 46903 0
-46901 -46915 -46903 0
46914 47297 0
46914 46906 0
-46914 -47297 -46906 0
46913 46908 0
46913 46951 0
46913 47297 0
-46913 -46908 -46951 -47297 0
46911 47040 0
46911 46913 0
46911 46914 0
-46911 -47040 -46913 -46914 0
46915 46916 0
46915 46917 0
-46915 -46916 -46917 0
47139 46939 0
47139 46920 0
-47139 -46939 -46920 0
47138 46942 0
47138 46923 0
-47138 -46942 -46923 0
47136 46945 0
47136 46926 0
-47136 -46945 -46926 0
47135 46933 0
47135 46929 0
-47135 -46933 -46929 0
47134 46936 0
47134 46932 0
-47134 -46936 -46932 0
46933 47126 0
46933 46935 0
-46933 -47126 -46935 0
46936 47132 0
46936 46938 0
-46936 -47132 -46938 0
46939 47108 0
46939 46941 0
-46939 -47108 -46941 0
46942 47114 0
46942 46944 0
-46942 -47114 -46944 0
46945 47120 0
46945 46947 0
-46945 -47120 -46947 0
46952 47133 0
46952 47137 0
-46952 -47133 -47137 0
46951 46952 0
46951 47040 0
-46951 -46952 -47040 0
47141 46955 0
47141 46956 0
47141 46957 0
47141 46958 0
-47141 -46955 -46956 -46957 -46958 0
46964 46960 0
46964 46961 0
-46964 -46960 -46961 0
46962 46963 0
46962 46964 0
-46962 -46963 -46964 0
46965 46966 0
46965 47035 0
-46965 -46966 -47035 0
47036 46980 0
47036 46970 0
-47036 -46980 -46970 0
47037 46983 0
47037 46973 0
-47037 -46983 -46973 0
47038 46986 0
47038 46976 0
-47038 -46986 -46976 0
47039 46989 0
47039 46979 0
-47039 -46989 -46979 0
46980 47258 0
46980 47238 0
-46980 -47258 -47238 0
46983 47259 0
46983 47244 0
-46983 -47259 -47244 0
46986 47260 0
46986 47250 0
-46986 -47260 -47250 0
46989 47257 0
46989 47256 0
-46989 -47257 -47256 0
46992 46999 0
46992 47002 0
46992 47005 0
-46992 -46999 -47002 -47005 0
46996 47008 0
46996 47011 0
-46996 -47008 -47011 0
46999 47014 0
46999 47001 0
-46999 -47014 -47001 0
47002 47017 0
47002 47004 0
-47002 -47017 -47004 0
47005 47020 0
47005 47007 0
-47005 -47020 -47007 0
47008 47023 0
47008 47010 0
-47008 -47023 -47010 0
47011 47026 0
47011 47013 0
-47011 -47026 -47013 0
47014 47292 0
47014 47266 0
-47014 -47292 -47266 0
47017 47293 0
47017 47272 0
-47017 -47293 -47272 0
47020 47294 0
47020 47278 0
-47020 -47294 -47278 0
47023 47295 0
47023 47284 0
-47023 -47295 -47284 0
47026 47291 0
47026 47290 0
-47026 -47291 -47290 0
47301 47030 0
47301 47031 0
-47301 -47030 -47031 0
47300 47297 0
47300 47034 0
-47300 -47297 -47034 0
47035 47036 0
47035 47037 0
47035 47038 0
47035 47039 0
-47035 -47036 -47037 -47038 -47039 0
47040 47041 0
47040 47042 0
-47040 -47041 -47042 0
-47043 -47046 0
-47043 -47045 0
47043 47046 47045 0
-47046 -47047 0
-47046 -47048 0
47046 47047 47048 0
-47049 -47052 0
-47049 -47051 0
47049 47052 47051 0
-47052 -47053 0
-47052 -47054 0
47052 47053 47054 0
-47055 -47058 0
-47055 -47057 0
47055 47058 47057 0
-47058 -47059 0
-47058 -47060 0
47058 47059 47060 0
-47061 -47064 0
-47061 -47063 0
47061 47064 47063 0
-47064 -47065 0
-47064 -47066 0
47064 47065 47066 0
-47067 -47070 0
-47067 -47069 0
47067 47070 47069 0
-47070 -47071 0
-47070 -47072 0
47070 47071 47072 0
-47073 -47076 0
-47073 -47075 0
47073 47076 47075 0
-47076 -47077 0
-47076 -47078 0
47076 47077 47078 0
-47079 -47082 0
-47079 -47081 0
47079 47082 47081 0
-47082 -47083 0
-47082 -47084 0
47082 47083 47084 0
-47085 -47088 0
-47085 -47087 0
47085 47088 47087 0
-47088 -47089 0
-47088 -47090 0
47088 47089 47090 0
-47091 -47094 0
-47091 -47093 0
47091 47094 47093 0
-47094 -47095 0
-47094 -47096 0
47094 47095 47096 0
-47097 -47100 0
-47097 -47099 0
47097 47100 47099 0
-47100 -47101 0
-47100 -47102 0
47100 47101 47102 0
-47103 -47106 0
-47103 -47105 0
47103 47106 47105 0
-47106 -47140 0
-47106 -47108 0
47106 47140 47108 0
-47109 -47112 0
-47109 -47111 0
47109 47112 47111 0
-47112 -47113 0
-47112 -47114 0
47112 47113 47114 0
-47115 -47118 0
-47115 -47117 0
47115 47118 47117 0
-47118 -47119 0
-47118 -47120 0
47118 47119 47120 0
-47121 -47124 0
-47121 -47123 0
47121 47124 47123 0
-47124 -47125 0
-47124 -47126 0
47124 47125 47126 0
-47127 -47130 0
-47127 -47129 0
47127 47130 47129 0
-47130 -47131 0
-47130 -47132 0
47130 47131 47132 0
-47133 -47134 0
-47133 -47135 0
-47133 -47136 0
47133 47134 47135 47136 0
-47137 -47138 0
-47137 -47139 0
47137 47138 47139 0
-47140 -47141 0
-47140 -47146 0
47140 47141 47146 0
-47148 -47144 0
-47148 -47145 0
47148 47144 47145 0
-47146 -47147 0
-47146 -47148 0
47146 47147 47148 0
-47149 -47152 0
-47149 -47151 0
47149 47152 47151 0
-47152 -47153 0
-47152 -47154 0
47152 47153 47154 0
-47155 -47158 0
-47155 -47157 0
47155 47158 47157 0
-47158 -47159 0
-47158 -47160 0
47158 47159 47160 0
-47161 -47164 0
-47161 -47163 0
47161 47164 47163 0
-47164 -47165 0
-47164 -47166 0
47164 47165 47166 0
-47167 -47170 0
-47167 -47169 0
47167 47170 47169 0
-47170 -47171 0
-47170 -47172 0
47170 47171 47172 0
-47173 -47176 0
-47173 -47175 0
47173 47176 47175 0
-47176 -47177 0
-47176 -47178 0
47176 47177 47178 0
-47179 -47182 0
-47179 -47181 0
47179 47182 47181 0
-47182 -47183 0
-47182 -47184 0
47182 47183 47184 0
-47185 -47188 0
-47185 -47187 0
47185 47188 47187 0
-47188 -47189 0
-47188 -47190 0
47188 47189 47190 0
-47191 -47194 0
-47191 -47193 0
47191 47194 47193 0
-47194 -47195 0
-47194 -47196 0
47194 47195 47196 0
-47197 -47200 0
-47197 -47199 0
47197 47200 47199 0
-47200 -47201 0
-47200 -47202 0
47200 47201 47202 0
-47203 -47206 0
-47203 -47205 0
47203 47206 47205 0
-47206 -47207 0
-47206 -47208 0
47206 47207 47208 0
-47209 -47212 0
-47209 -47211 0
47209 47212 47211 0
-47212 -47213 0
-47212 -47214 0
47212 47213 47214 0
-47215 -47218 0
-47215 -47217 0
47215 47218 47217 0
-47218 -47219 0
-47218 -47220 0
47218 47219 47220 0
-47221 -47222 0
-47221 -47224 0
47221 47222 47224 0
-47224 -47231 0
-47224 -47226 0
47224 47231 47226 0
-47227 -47228 0
-47227 -47230 0
47227 47228 47230 0
-47230 -47231 0
-47230 -47232 0
47230 47231 47232 0
-47233 -47236 0
-47233 -47235 0
47233 47236 47235 0
-47236 -47237 0
-47236 -47238 0
47236 47237 47238 0
-47239 -47242 0
-47239 -47241 0
47239 47242 47241 0
-47242 -47243 0
-47242 -47244 0
47242 47243 47244 0
-47245 -47248 0
-47245 -47247 0
47245 47248 47247 0
-47248 -47249 0
-47248 -47250 0
47248 47249 47250 0
-47251 -47254 0
-47251 -47253 0
47251 47254 47253 0
-47254 -47255 0
-47254 -47256 0
47254 47255 47256 0
-47257 -47258 0
-47257 -47259 0
-47257 -47260 0
47257 47258 47259 47260 0
-47261 -47264 0
-47261 -47263 0
47261 47264 47263 0
-47264 -47265 0
-47264 -47266 0
47264 47265 47266 0
-47267 -47270 0
-47267 -47269 0
47267 47270 47269 0
-47270 -47271 0
-47270 -47272 0
47270 47271 47272 0
-47273 -47276 0
-47273 -47275 0
47273 47276 47275 0
-47276 -47277 0
-47276 -47278 0
47276 47277 47278 0
-47279 -47282 0
-47279 -47281 0
47279 47282 47281 0
-47282 -47283 0
-47282 -47284 0
47282 47283 47284 0
-47285 -47288 0
-47285 -47287 0
47285 47288 47287 0
-47288 -47289 0
-47288 -47290 0
47288 47289 47290 0
-47291 -47292 0
-47291 -47293 0
-47291 -47294 0
-47291 -47295 0
47291 47292 47293 47294 47295 0
-47296 -47297 0
-47296 -47298 0
47296 47297 47298 0
-47299 -47300 0
-47299 -47301 0
47299 47300 47301 0
-47313 -47303 0
-47313 -47304 0
47313 47303 47304 0
-47305 -47306 0
-47305 -47313 0
47305 47306 47313 0
-47308 -47309 0
-47308 -47313 0
47308 47309 47313 0
-47311 -47312 0
-47311 -47313 0
47311 47312 47313 0
-47314 -47315 0
-47314 -47316 0
-47314 -47317 0
-47314 -47318 0
47314 47315 47316 47317 47318 0
-47319 -47320 0
-47319 -47322 0
47319 47320 47322 0
-47322 -47323 0
-47322 -47324 0
47322 47323 47324 0
-47326 48918 0
47326 -48918 0
-47328 49102 0
47328 -49102 0
-47330 47484 0
47330 -47484 0
-47332 49005 0
47332 -49005 0
-47334 49011 0
47334 -49011 0
-47336 47492 0
47336 -47492 0
-47338 49017 0
47338 -49017 0
-47340 47498 0
47340 -47498 0
-47342 49023 0
47342 -49023 0
-47344 49029 0
47344 -49029 0
-47346 49035 0
47346 -49035 0
-47348 49041 0
47348 -49041 0
-47350 47899 0
47350 -47899 0
-47352 48535 0
47352 -48535 0
-47354 47522 0
47354 -47522 0
-47356 49047 0
47356 -49047 0
-47358 49053 0
47358 -49053 0
-47360 47532 0
47360 -47532 0
-47362 47536 0
47362 -47536 0
-47364 49059 0
47364 -49059 0
-47366 49065 0
47366 -49065 0
-47368 49071 0
47368 -49071 0
-47370 49077 0
47370 -49077 0
-47372 49083 0
47372 -49083 0
-47374 49089 0
47374 -49089 0
-47376 48915 0
47376 -48915 0
-47378 48914 0
47378 -48914 0
-47380 48913 0
47380 -48913 0
-47382 48912 0
47382 -48912 0
-47384 49111 0
47384 -49111 0
-47386 49117 0
47386 -49117 0
-47388 49123 0
47388 -49123 0
-47390 49129 0
47390 -49129 0
-47392 49135 0
47392 -49135 0
-47394 49141 0
47394 -49141 0
-47396 49147 0
47396 -49147 0
-47398 49153 0
47398 -49153 0
-47400 49159 0
47400 -49159 0
-47402 49165 0
47402 -49165 0
-47404 49171 0
47404 -49171 0
-47406 49177 0
47406 -49177 0
-47408 48563 0
47408 -48563 0
-47410 49183 0
47410 -49183 0
-47412 48566 0
47412 -48566 0
-47414 49189 0
47414 -49189 0
-47416 49195 0
47416 -49195 0
-47418 49201 0
47418 -49201 0
-47420 49207 0
47420 -49207 0
-47422 49213 0
47422 -49213 0
-47424 49215 0
47424 -49215 0
-47426 49216 0
47426 -49216 0
-47428 49217 0
47428 -49217 0
-47430 49223 0
47430 -49223 0
-47432 49229 0
47432 -49229 0
-47434 49235 0
47434 -49235 0
-47436 49241 0
47436 -49241 0
-47438 49247 0
47438 -49247 0
-47440 49249 0
47440 -49249 0
-47442 49250 0
47442 -49250 0
-47444 49251 0
47444 -49251 0
-47446 49252 0
47446 -49252 0
-47448 48991 0
47448 -48991 0
-47450 48682 0
47450 -48682 0
-47452 48691 0
47452 -48691 0
-47454 49261 0
47454 -49261 0
-47456 48766 0
47456 -48766 0
-47458 48772 0
47458 -48772 0
-47460 48769 0
47460 -48769 0
-47462 48341 0
47462 -48341 0
-47464 48344 0
47464 -48344 0
-47466 47518 0
47466 -47518 0
-47468 47794 0
47468 -47794 0
-47470 49281 0
47470 -49281 0
-47472 47800 0
47472 -47800 0
47476 48919 0
-47476 -48919 0
47475 47476 0
-47475 -47476 0
47480 49103 0
-47480 -49103 0
47479 47480 0
-47479 -47480 0
47818 48800 0
-47818 -48800 0
48821 47484 0
-48821 -47484 0
47821 48800 0
-47821 -48800 0
47827 48800 0
-47827 -48800 0
47833 48800 0
-47833 -48800 0
48827 47492 0
-48827 -47492 0
47836 48800 0
-47836 -48800 0
47854 48800 0
-47854 -48800 0
48833 47498 0
-48833 -47498 0
47857 48800 0
-47857 -48800 0
47863 48800 0
-47863 -48800 0
47869 48800 0
-47869 -48800 0
47875 48800 0
-47875 -48800 0
47881 48800 0
-47881 -48800 0
47902 48800 0
-47902 -48800 0
47901 48535 0
-47901 -48535 0
48839 47899 0
-48839 -47899 0
48408 48793 0
-48408 -48793 0
48793 47518 0
-48793 -47518 0
47908 48800 0
-47908 -48800 0
48845 47522 0
-48845 -47522 0
47911 48800 0
-47911 -48800 0
47917 48800 0
-47917 -48800 0
47949 49053 0
-47949 -49053 0
47929 48800 0
-47929 -48800 0
48851 47532 0
-48851 -47532 0
47932 48800 0
-47932 -48800 0
48857 47536 0
-48857 -47536 0
47935 48800 0
-47935 -48800 0
47965 47987 0
-47965 -47987 0
47971 47987 0
-47971 -47987 0
47977 47987 0
-47977 -47987 0
47983 47987 0
-47983 -47987 0
47992 47987 0
-47992 -47987 0
48865 48909 0
-48865 -48909 0
48022 48800 0
-48022 -48800 0
48479 48497 0
-48479 -48497 0
48028 48800 0
-48028 -48800 0
48485 48497 0
-48485 -48497 0
48034 48800 0
-48034 -48800 0
48491 48497 0
-48491 -48497 0
48040 48800 0
-48040 -48800 0
48500 48497 0
-48500 -48497 0
48512 48542 0
-48512 -48542 0
48518 48542 0
-48518 -48542 0
48524 48796 0
-48524 -48796 0
48530 48796 0
-48530 -48796 0
48796 48344 0
-48796 -48344 0
48536 49293 0
-48536 -49293 0
48545 48542 0
-48545 -48542 0
48064 48546 0
-48064 -48546 0
48070 48546 0
-48070 -48546 0
48076 48546 0
-48076 -48546 0
48092 48549 0
-48092 -48549 0
48098 48549 0
-48098 -48549 0
48104 48549 0
-48104 -48549 0
48116 48552 0
-48116 -48552 0
48122 48552 0
-48122 -48552 0
48128 48800 0
-48128 -48800 0
48143 48555 0
-48143 -48555 0
48149 48555 0
-48149 -48555 0
48155 48800 0
-48155 -48800 0
48176 48800 0
-48176 -48800 0
48179 48800 0
-48179 -48800 0
48191 48566 0
-48191 -48566 0
48185 48800 0
-48185 -48800 0
48194 49189 0
-48194 -49189 0
48188 48800 0
-48188 -48800 0
48193 48751 0
-48193 -48751 0
48198 49292 0
-48198 -49292 0
48204 49292 0
-48204 -49292 0
48210 49292 0
-48210 -49292 0
48216 49292 0
-48216 -49292 0
48923 48800 0
-48923 -48800 0
48575 48587 0
-48575 -48587 0
48581 48587 0
-48581 -48587 0
48590 48587 0
-48590 -48587 0
48596 48605 0
-48596 -48605 0
48602 48605 0
-48602 -48605 0
48608 48605 0
-48608 -48605 0
48605 48563 0
-48605 -48563 0
48249 48301 0
-48249 -48301 0
48255 48301 0
-48255 -48301 0
48261 48301 0
-48261 -48301 0
48267 48301 0
-48267 -48301 0
48273 48301 0
-48273 -48301 0
48635 48692 0
-48635 -48692 0
48641 48692 0
-48641 -48692 0
48647 48692 0
-48647 -48692 0
48653 48692 0
-48653 -48692 0
48306 48301 0
-48306 -48301 0
48309 49253 0
-48309 -49253 0
48815 49258 0
-48815 -49258 0
48679 48677 0
-48679 -48677 0
48686 48692 0
-48686 -48692 0
48695 48692 0
-48695 -48692 0
48703 49183 0
-48703 -49183 0
49188 48992 0
-49188 -48992 0
48701 49293 0
-48701 -49293 0
48707 49293 0
-48707 -49293 0
48713 49293 0
-48713 -49293 0
48719 49293 0
-48719 -49293 0
48725 49293 0
-48725 -49293 0
48731 49293 0
-48731 -49293 0
48737 49293 0
-48737 -49293 0
48743 49293 0
-48743 -49293 0
48749 49293 0
-48749 -49293 0
48755 49293 0
-48755 -49293 0
49293 48341 0
-49293 -48341 0
48348 48800 0
-48348 -48800 0
49260 48347 0
-49260 -48347 0
47706 47704 0
-47706 -47704 0
48347 47706 0
-48347 -47706 0
48760 49281 0
-48760 -49281 0
48351 48800 0
-48351 -48800 0
48761 49280 0
-48761 -49280 0
48357 48800 0
-48357 -48800 0
48767 49280 0
-48767 -49280 0
48363 48800 0
-48363 -48800 0
48773 49280 0
-48773 -49280 0
47724 47722 0
-47724 -47722 0
49280 47724 0
-49280 -47724 0
48369 48794 0
-48369 -48794 0
48788 48794 0
-48788 -48794 0
48797 48794 0
-48797 -48794 0
47734 47732 0
-47734 -47732 0
48794 47734 0
-48794 -47734 0
47748 47736 0
-47748 -47736 0
49283 47748 0
-49283 -47748 0
48378 48800 0
-48378 -48800 0
48381 48800 0
-48381 -48800 0
48387 48800 0
-48387 -48800 0
48800 47746 0
-48800 -47746 0
48506 47748 0
-48506 -47748 0
47752 47750 0
-47752 -47750 0
48700 47752 0
-48700 -47752 0
47756 47754 0
-47756 -47754 0
48712 47756 0
-48712 -47756 0
47760 47758 0
-47760 -47758 0
48706 47760 0
-48706 -47760 0
47764 47762 0
-47764 -47762 0
48718 47764 0
-48718 -47764 0
47768 47766 0
-47768 -47766 0
48478 47768 0
-48478 -47768 0
47772 47770 0
-47772 -47770 0
48724 47772 0
-48724 -47772 0
47776 47774 0
-47776 -47774 0
48730 47776 0
-48730 -47776 0
47780 47778 0
-47780 -47778 0
48736 47780 0
-48736 -47780 0
47784 47782 0
-47784 -47782 0
48742 47784 0
-48742 -47784 0
47788 47786 0
-47788 -47786 0
48748 47788 0
-48748 -47788 0
47792 47790 0
-47792 -47790 0
48754 47792 0
-48754 -47792 0
49285 47794 0
-49285 -47794 0
47798 47796 0
-47798 -47796 0
48195 47798 0
-48195 -47798 0
49287 47800 0
-49287 -47800 0
-48898 48720 0
-48898 48723 0
48898 -48720 -48723 0
-48901 48726 0
-48901 48729 0
48901 -48726 -48729 0
-48904 48732 0
-48904 48735 0
48904 -48732 -48735 0
-48892 48738 0
-48892 48741 0
48892 -48738 -48741 0
-48895 48744 0
-48895 48747 0
48895 -48744 -48747 0
-47816 48816 0
-47816 47818 0
47816 -48816 -47818 0
-47819 49000 0
-47819 47821 0
47819 -49000 -47821 0
-49002 49004 0
-49002 49005 0
49002 -49004 -49005 0
-47825 49006 0
-47825 47827 0
47825 -49006 -47827 0
-49008 49010 0
-49008 49011 0
49008 -49010 -49011 0
-47831 48822 0
-47831 47833 0
47831 -48822 -47833 0
-47834 49012 0
-47834 47836 0
47834 -49012 -47836 0
-49014 49016 0
-49014 49017 0
49014 -49016 -49017 0
-49004 48997 0
-49004 48821 0
49004 -48997 -48821 0
-49010 49004 0
-49010 49005 0
49010 -49004 -49005 0
-48826 49010 0
-48826 49011 0
48826 -49010 -49011 0
-49016 48826 0
-49016 48827 0
49016 -48826 -48827 0
-47852 48828 0
-47852 47854 0
47852 -48828 -47854 0
-47855 49018 0
-47855 47857 0
47855 -49018 -47857 0
-49020 49022 0
-49020 49023 0
49020 -49022 -49023 0
-47861 49024 0
-47861 47863 0
47861 -49024 -47863 0
-49026 49028 0
-49026 49029 0
49026 -49028 -49029 0
-47867 49030 0
-47867 47869 0
47867 -49030 -47869 0
-49032 49034 0
-49032 49035 0
49032 -49034 -49035 0
-47873 49036 0
-47873 47875 0
47873 -49036 -47875 0
-49038 49040 0
-49038 49041 0
49038 -49040 -49041 0
-47879 48834 0
-47879 47881 0
47879 -48834 -47881 0
-49022 48832 0
-49022 48833 0
49022 -48832 -48833 0
-49028 49022 0
-49028 49023 0
49028 -49022 -49023 0
-49034 49028 0
-49034 49029 0
49034 -49028 -49029 0
-49040 49034 0
-49040 49035 0
49040 -49034 -49035 0
-48838 49040 0
-48838 49041 0
48838 -49040 -49041 0
-48414 48838 0
-48414 47899 0
48414 -48838 -47899 0
-47900 47901 0
-47900 47902 0
47900 -47901 -47902 0
-48517 48403 0
-48517 48406 0
48517 -48403 -48406 0
-47906 48840 0
-47906 47908 0
47906 -48840 -47908 0
-47909 49042 0
-47909 47911 0
47909 -49042 -47911 0
-49044 49046 0
-49044 49047 0
49044 -49046 -49047 0
-47915 49048 0
-47915 47917 0
47915 -49048 -47917 0
-49050 49052 0
-49050 49053 0
49050 -49052 -49053 0
-49046 48844 0
-49046 48845 0
49046 -48844 -48845 0
-49052 49046 0
-49052 49047 0
49052 -49046 -49047 0
-47927 48846 0
-47927 47929 0
47927 -48846 -47929 0
-47930 48852 0
-47930 47932 0
47930 -48852 -47932 0
-47933 49054 0
-47933 47935 0
47933 -49054 -47935 0
-49056 49058 0
-49056 49059 0
49056 -49058 -49059 0
-48856 49128 0
-48856 48851 0
48856 -49128 -48851 0
-49058 48856 0
-49058 48857 0
49058 -48856 -48857 0
-48508 49052 0
-48508 49053 0
48508 -49052 -49053 0
-48541 47949 0
-48541 49052 0
48541 -47949 -49052 0
-48402 49016 0
-48402 49017 0
48402 -49016 -49017 0
-48411 48838 0
-48411 48839 0
48411 -48838 -48839 0
-48623 49058 0
-48623 49059 0
48623 -49058 -49059 0
-48520 49176 0
-48520 49177 0
48520 -49176 -49177 0
-47963 49060 0
-47963 47965 0
47963 -49060 -47965 0
-49062 49097 0
-49062 49065 0
49062 -49097 -49065 0
-47969 49066 0
-47969 47971 0
47969 -49066 -47971 0
-49068 49070 0
-49068 49071 0
49068 -49070 -49071 0
-47975 49072 0
-47975 47977 0
47975 -49072 -47977 0
-49074 49076 0
-49074 49077 0
49074 -49076 -49077 0
-47981 49078 0
-47981 47983 0
47981 -49078 -47983 0
-49080 49082 0
-49080 49083 0
49080 -49082 -49083 0
-47987 48708 0
-47987 48711 0
47987 -48708 -48711 0
-47990 49084 0
-47990 47992 0
47990 -49084 -47992 0
-49086 49088 0
-49086 49089 0
49086 -49088 -49089 0
-49070 49097 0
-49070 49065 0
49070 -49097 -49065 0
-49076 49070 0
-49076 49071 0
49076 -49070 -49071 0
-49082 49076 0
-49082 49077 0
49082 -49076 -49077 0
-49088 49082 0
-49088 49083 0
49088 -49082 -49083 0
-48435 48427 0
-48435 49096 0
48435 -48427 -49096 0
-48441 48430 0
-48441 48433 0
48441 -48430 -48433 0
-48447 48436 0
-48447 48439 0
48447 -48436 -48439 0
-48453 48442 0
-48453 48445 0
48453 -48442 -48445 0
-48020 48023 0
-48020 48022 0
48020 -48023 -48022 0
-48023 48474 0
-48023 48477 0
48023 -48474 -48477 0
-48026 48029 0
-48026 48028 0
48026 -48029 -48028 0
-48029 48480 0
-48029 48483 0
48029 -48480 -48483 0
-48032 48035 0
-48032 48034 0
48032 -48035 -48034 0
-48035 48486 0
-48035 48489 0
48035 -48486 -48489 0
-48038 48041 0
-48038 48040 0
48038 -48041 -48040 0
-48041 48495 0
-48041 48498 0
48041 -48495 -48498 0
-49104 48921 0
-49104 48506 0
49104 -48921 -48506 0
-49101 48919 0
-49101 48506 0
49101 -48919 -48506 0
-49146 48507 0
-49146 48510 0
49146 -48507 -48510 0
-48559 48519 0
-48559 48522 0
48559 -48519 -48522 0
-48532 48525 0
-48532 48528 0
48532 -48525 -48528 0
-49164 49110 0
-49164 49123 0
49164 -49110 -49123 0
-48062 49106 0
-48062 48064 0
48062 -49106 -48064 0
-49108 49110 0
-49108 49111 0
49108 -49110 -49111 0
-48068 49112 0
-48068 48070 0
48068 -49112 -48070 0
-49114 49116 0
-49114 49117 0
49114 -49116 -49117 0
-48074 49118 0
-48074 48076 0
48074 -49118 -48076 0
-49120 49122 0
-49120 49123 0
49120 -49122 -49123 0
-49116 49110 0
-49116 49111 0
49116 -49110 -49111 0
-49122 49116 0
-49122 49117 0
49122 -49116 -49117 0
-48551 49128 0
-48551 49129 0
-48551 49141 0
48551 -49128 -49129 -49141 0
-48090 49124 0
-48090 48092 0
48090 -49124 -48092 0
-49126 49128 0
-49126 49129 0
49126 -49128 -49129 0
-48096 49130 0
-48096 48098 0
48096 -49130 -48098 0
-49132 49134 0
-49132 49135 0
49132 -49134 -49135 0
-48102 49136 0
-48102 48104 0
48102 -49136 -48104 0
-49138 49140 0
-49138 49141 0
49138 -49140 -49141 0
-49134 49128 0
-49134 49129 0
49134 -49128 -49129 0
-49140 49134 0
-49140 49135 0
49140 -49134 -49135 0
-48114 49142 0
-48114 48116 0
48114 -49142 -48116 0
-49144 49146 0
-49144 49147 0
49144 -49146 -49147 0
-48120 49148 0
-48120 48122 0
48120 -49148 -48122 0
-49150 49152 0
-49150 49153 0
49150 -49152 -49153 0
-48126 49154 0
-48126 48128 0
48126 -49154 -48128 0
-49156 49158 0
-49156 49159 0
49156 -49158 -49159 0
-49152 49146 0
-49152 49147 0
49152 -49146 -49147 0
-49158 49146 0
-49158 49153 0
49158 -49146 -49153 0
-48626 49158 0
-48626 49159 0
48626 -49158 -49159 0
-48141 49160 0
-48141 48143 0
48141 -49160 -48143 0
-49162 49164 0
-49162 49165 0
49162 -49164 -49165 0
-48147 49166 0
-48147 48149 0
48147 -49166 -48149 0
-49168 49170 0
-49168 49171 0
49168 -49170 -49171 0
-48153 49172 0
-48153 48155 0
48153 -49172 -48155 0
-49174 49176 0
-49174 49177 0
49174 -49176 -49177 0
-49170 49164 0
-49170 49165 0
49170 -49164 -49165 0
-49176 49164 0
-49176 49171 0
49176 -49164 -49171 0
-48314 48540 0
-48314 48543 0
48314 -48540 -48543 0
-49254 48513 0
-49254 48516 0
49254 -48513 -48516 0
-48874 48531 0
-48874 48534 0
48874 -48531 -48534 0
-48174 48561 0
-48174 48176 0
48174 -48561 -48176 0
-48177 49178 0
-48177 48179 0
48177 -49178 -48179 0
-49179 49188 0
-49179 48605 0
49179 -49188 -48605 0
-48183 48564 0
-48183 48185 0
48183 -48564 -48185 0
-48186 49184 0
-48186 48188 0
48186 -49184 -48188 0
-49185 49188 0
-49185 48191 0
49185 -49188 -48191 0
-48697 48193 0
-48697 48194 0
-48697 48195 0
48697 -48193 -48194 -48195 0
-48196 49190 0
-48196 48198 0
48196 -49190 -48198 0
-49192 49194 0
-49192 49195 0
49192 -49194 -49195 0
-48202 49196 0
-48202 48204 0
48202 -49196 -48204 0
-49198 49200 0
-49198 49201 0
49198 -49200 -49201 0
-48208 49202 0
-48208 48210 0
48208 -49202 -48210 0
-49204 49206 0
-49204 49207 0
49204 -49206 -49207 0
-48214 49208 0
-48214 48216 0
48214 -49208 -48216 0
-49210 49212 0
-49210 49213 0
49210 -49212 -49213 0
-49200 49194 0
-49200 49195 0
49200 -49194 -49195 0
-49206 49200 0
-49206 49201 0
49206 -49200 -49201 0
-49212 49206 0
-49212 49207 0
49212 -49206 -49207 0
-48574 48591 0
-48574 48594 0
48574 -48591 -48594 0
-48580 48597 0
-48580 48600 0
48580 -48597 -48600 0
-48589 48603 0
-48589 48606 0
48589 -48603 -48606 0
-48238 48570 0
-48238 48573 0
48238 -48570 -48573 0
-48241 48576 0
-48241 48579 0
48241 -48576 -48579 0
-48244 48585 0
-48244 48588 0
48244 -48585 -48588 0
-48247 49218 0
-48247 48249 0
48247 -49218 -48249 0
-49220 49222 0
-49220 49223 0
49220 -49222 -49223 0
-48253 49224 0
-48253 48255 0
48253 -49224 -48255 0
-49226 49228 0
-49226 49229 0
49226 -49228 -49229 0
-48259 49230 0
-48259 48261 0
48259 -49230 -48261 0
-49232 49234 0
-49232 49235 0
49232 -49234 -49235 0
-48265 49236 0
-48265 48267 0
48265 -49236 -48267 0
-49238 49240 0
-49238 49241 0
49238 -49240 -49241 0
-48271 49242 0
-48271 48273 0
48271 -49242 -48273 0
-49244 49246 0
-49244 49247 0
49244 -49246 -49247 0
-49228 49222 0
-49228 49223 0
49228 -49222 -49223 0
-49234 49228 0
-49234 49229 0
49234 -49228 -49229 0
-49240 49234 0
-49240 49235 0
49240 -49234 -49235 0
-49246 49240 0
-49246 49241 0
49246 -49240 -49241 0
-48289 48630 0
-48289 48633 0
48289 -48630 -48633 0
-48292 48636 0
-48292 48639 0
48292 -48636 -48639 0
-48295 48642 0
-48295 48645 0
48295 -48642 -48645 0
-48298 48648 0
-48298 48651 0
48298 -48648 -48651 0
-48301 48714 0
-48301 48717 0
48301 -48714 -48717 0
-48304 48669 0
-48304 48306 0
48304 -48669 -48306 0
-48670 48672 0
-48670 48309 0
48670 -48672 -48309 0
-48677 48702 0
-48677 48705 0
48677 -48702 -48705 0
-49222 48314 0
-49222 49255 0
49222 -48314 -49255 0
-48316 48681 0
-48316 48684 0
48316 -48681 -48684 0
-48319 48690 0
-48319 48693 0
48319 -48690 -48693 0
-48863 48750 0
-48863 48753 0
48863 -48750 -48753 0
-48873 48696 0
-48873 48699 0
48873 -48696 -48699 0
-49272 48402 0
-49272 48760 0
49272 -48402 -48760 0
-49273 48411 0
-49273 48766 0
49273 -48411 -48766 0
-49274 48623 0
-49274 48772 0
49274 -48623 -48772 0
-49275 48520 0
-49275 48769 0
49275 -48520 -48769 0
-48583 48341 0
-48583 49292 0
48583 -48341 -49292 0
-48688 48344 0
-48688 49292 0
48688 -48344 -49292 0
-48346 48347 0
-48346 48348 0
48346 -48347 -48348 0
-48349 48352 0
-48349 48351 0
48349 -48352 -48351 0
-48352 48756 0
-48352 48759 0
48352 -48756 -48759 0
-48355 48358 0
-48355 48357 0
48355 -48358 -48357 0
-48358 48762 0
-48358 48765 0
48358 -48762 -48765 0
-48361 48364 0
-48361 48363 0
48361 -48364 -48363 0
-48364 48768 0
-48364 48771 0
48364 -48768 -48771 0
-49263 48777 0
-49263 48369 0
49263 -48777 -48369 0
-49266 48783 0
-49266 48786 0
49266 -48783 -48786 0
-49269 48792 0
-49269 48795 0
49269 -48792 -48795 0
-48376 48858 0
-48376 48378 0
48376 -48858 -48378 0
-48379 49276 0
-48379 48381 0
48379 -49276 -48381 0
-49277 49280 0
-49277 48769 0
49277 -49280 -48769 0
-48385 49256 0
-48385 48387 0
48385 -49256 -48387 0
48818 -48997 0
48818 -48821 0
-48818 48997 48821 0
48824 -48826 0
48824 -48827 0
-48824 48826 48827 0
48830 -48832 0
48830 -48833 0
-48830 48832 48833 0
48836 -48838 0
48836 -48839 0
-48836 48838 48839 0
48832 -48793 0
48832 -48402 0
-48832 48793 48402 0
48403 -48839 0
48403 -48793 0
-48403 48839 48793 0
48406 -48535 0
48406 -48408 0
-48406 48535 48408 0
49128 -48793 0
49128 -48411 0
-49128 48793 48411 0
48544 -48793 0
48544 -48414 0
-48544 48793 48414 0
48842 -48844 0
48842 -48845 0
-48842 48844 48845 0
48848 -49128 0
48848 -48851 0
-48848 49128 48851 0
48854 -48856 0
48854 -48857 0
-48854 48856 48857 0
48860 -48873 0
48860 -48868 0
-48860 48873 48868 0
48427 -48898 0
48427 -49065 0
-48427 48898 49065 0
48430 -48901 0
48430 -49071 0
-48430 48901 49071 0
48433 -49095 0
48433 -48435 0
-48433 49095 48435 0
48436 -48904 0
48436 -49077 0
-48436 48904 49077 0
48439 -49093 0
48439 -48441 0
-48439 49093 48441 0
48442 -48892 0
48442 -49083 0
-48442 48892 49083 0
48445 -49092 0
48445 -48447 0
-48445 49092 48447 0
48998 -48895 0
48998 -49089 0
-48998 48895 49089 0
48999 -49091 0
48999 -48453 0
-48999 49091 48453 0
48877 -49065 0
48877 -48898 0
-48877 49065 48898 0
48880 -49071 0
48880 -48901 0
-48880 49071 48901 0
48883 -49077 0
48883 -48904 0
-48883 49077 48904 0
48886 -49083 0
48886 -48892 0
-48886 49083 48892 0
48889 -49089 0
48889 -48895 0
-48889 49089 48895 0
48502 -48912 0
48502 -48913 0
48502 -48914 0
48502 -48915 0
-48502 48912 48913 48914 48915 0
48474 -48915 0
48474 -48497 0
-48474 48915 48497 0
48477 -48478 0
48477 -48479 0
-48477 48478 48479 0
48480 -48914 0
48480 -48497 0
-48480 48914 48497 0
48483 -48915 0
48483 -48485 0
-48483 48915 48485 0
48486 -48913 0
48486 -48497 0
-48486 48913 48497 0
48489 -48914 0
48489 -48491 0
-48489 48914 48491 0
48497 -48551 0
48497 -48796 0
-48497 48551 48796 0
48495 -48912 0
48495 -48497 0
-48495 48912 48497 0
48498 -48913 0
48498 -48500 0
-48498 48913 48500 0
48917 -48502 0
48917 -48506 0
-48917 48502 48506 0
48920 -49098 0
48920 -48506 0
-48920 49098 48506 0
48507 -48508 0
48507 -48542 0
-48507 48508 48542 0
48510 -49128 0
48510 -48512 0
-48510 49128 48512 0
48513 -49053 0
48513 -48542 0
-48513 49053 48542 0
48516 -48517 0
48516 -48518 0
-48516 48517 48518 0
48519 -48520 0
48519 -48796 0
-48519 48520 48796 0
48522 -48626 0
48522 -48524 0
-48522 48626 48524 0
48525 -49177 0
48525 -48796 0
-48525 49177 48796 0
48528 -49159 0
48528 -48530 0
-48528 49159 48530 0
48531 -48532 0
48531 -49293 0
-48531 48532 49293 0
48534 -48535 0
48534 -48536 0
-48534 48535 48536 0
48542 -48697 0
48542 -49293 0
-48542 48697 49293 0
48540 -48541 0
48540 -48542 0
-48540 48541 48542 0
48543 -48544 0
48543 -48545 0
-48543 48544 48545 0
48546 -48800 0
48546 -49164 0
-48546 48800 49164 0
48549 -48800 0
48549 -48551 0
-48549 48800 48551 0
48552 -48800 0
48552 -49158 0
-48552 48800 49158 0
48555 -48800 0
48555 -49176 0
-48555 48800 49176 0
49194 -48559 0
49194 -49293 0
-49194 48559 49293 0
48561 -49254 0
48561 -48563 0
-48561 49254 48563 0
48564 -49188 0
48564 -48566 0
-48564 49188 48566 0
48751 -48991 0
48751 -49255 0
-48751 48991 49255 0
48570 -49215 0
48570 -48587 0
-48570 49215 48587 0
48573 -48574 0
48573 -48575 0
-48573 48574 48575 0
48576 -49216 0
48576 -48587 0
-48576 49216 48587 0
48579 -48580 0
48579 -48581 0
-48579 48580 48581 0
48587 -48583 0
48587 -48800 0
-48587 48583 48800 0
48585 -49217 0
48585 -48587 0
-48585 49217 48587 0
48588 -48589 0
48588 -48590 0
-48588 48589 48590 0
48591 -48742 0
48591 -48605 0
-48591 48742 48605 0
48594 -48724 0
48594 -48596 0
-48594 48724 48596 0
48597 -48748 0
48597 -48605 0
-48597 48748 48605 0
48600 -48730 0
48600 -48602 0
-48600 48730 48602 0
48603 -48754 0
48603 -48605 0
-48603 48754 48605 0
48606 -48736 0
48606 -48608 0
-48606 48736 48608 0
48927 -49215 0
48927 -49195 0
-48927 49215 49195 0
48930 -49216 0
48930 -49201 0
-48930 49216 49201 0
48933 -49217 0
48933 -49207 0
-48933 49217 49207 0
48936 -49214 0
48936 -49213 0
-48936 49214 49213 0
48844 -48796 0
48844 -48623 0
-48844 48796 48623 0
49110 -48796 0
49110 -48626 0
-49110 48796 48626 0
49255 -48949 0
49255 -48953 0
-49255 48949 48953 0
48630 -49249 0
48630 -48692 0
-48630 49249 48692 0
48633 -48700 0
48633 -48635 0
-48633 48700 48635 0
48636 -49250 0
48636 -48692 0
-48636 49250 48692 0
48639 -48712 0
48639 -48641 0
-48639 48712 48641 0
48642 -49251 0
48642 -48692 0
-48642 49251 48692 0
48645 -48706 0
48645 -48647 0
-48645 48706 48647 0
48648 -49252 0
48648 -48692 0
-48648 49252 48692 0
48651 -48718 0
48651 -48653 0
-48651 48718 48653 0
48958 -49249 0
48958 -49223 0
-48958 49249 49223 0
48961 -49250 0
48961 -49229 0
-48961 49250 49229 0
48964 -49251 0
48964 -49235 0
-48964 49251 49235 0
48967 -49252 0
48967 -49241 0
-48967 49252 49241 0
48970 -49248 0
48970 -49247 0
-48970 49248 49247 0
48669 -48670 0
48669 -49222 0
-48669 48670 49222 0
48672 -48991 0
48672 -49253 0
-48672 48991 49253 0
48987 -48691 0
48987 -48677 0
-48987 48691 48677 0
48988 -48679 0
48988 -48682 0
-48988 48679 48682 0
48681 -48682 0
48681 -48692 0
-48681 48682 48692 0
48684 -48794 0
48684 -48686 0
-48684 48794 48686 0
48692 -48688 0
48692 -48800 0
-48692 48688 48800 0
48690 -48691 0
48690 -48692 0
-48690 48691 48692 0
48693 -49280 0
48693 -48695 0
-48693 49280 48695 0
48696 -48697 0
48696 -49293 0
-48696 48697 49293 0
48699 -48700 0
48699 -48701 0
-48699 48700 48701 0
48702 -48703 0
48702 -49293 0
-48702 48703 49293 0
48705 -48706 0
48705 -48707 0
-48705 48706 48707 0
48708 -49292 0
48708 -49293 0
-48708 49292 49293 0
48711 -48712 0
48711 -48713 0
-48711 48712 48713 0
48714 -49292 0
48714 -49293 0
-48714 49292 49293 0
48717 -48718 0
48717 -48719 0
-48717 48718 48719 0
48720 -48801 0
48720 -49293 0
-48720 48801 49293 0
48723 -48724 0
48723 -48725 0
-48723 48724 48725 0
48726 -48804 0
48726 -49293 0
-48726 48804 49293 0
48729 -48730 0
48729 -48731 0
-48729 48730 48731 0
48732 -48807 0
48732 -49293 0
-48732 48807 49293 0
48735 -48736 0
48735 -48737 0
-48735 48736 48737 0
48738 -48810 0
48738 -49293 0
-48738 48810 49293 0
48741 -48742 0
48741 -48743 0
-48741 48742 48743 0
48744 -48813 0
48744 -49293 0
-48744 48813 49293 0
48747 -48748 0
48747 -48749 0
-48747 48748 48749 0
48750 -48751 0
48750 -49293 0
-48750 48751 49293 0
48753 -48754 0
48753 -48755 0
-48753 48754 48755 0
48756 -48766 0
48756 -49280 0
-48756 48766 49280 0
48759 -48760 0
48759 -48761 0
-48759 48760 48761 0
48762 -48772 0
48762 -49280 0
-48762 48772 49280 0
48765 -48766 0
48765 -48767 0
-48765 48766 48767 0
48768 -48769 0
48768 -49280 0
-48768 48769 49280 0
48771 -48772 0
48771 -48773 0
-48771 48772 48773 0
48774 -49262 0
48774 -48798 0
-48774 49262 48798 0
48777 -49293 0
48777 -48794 0
-48777 49293 48794 0
48780 -49265 0
48780 -48798 0
-48780 49265 48798 0
48783 -48796 0
48783 -48794 0
-48783 48796 48794 0
48786 -49293 0
48786 -48788 0
-48786 49293 48788 0
48789 -49268 0
48789 -48798 0
-48789 49268 48798 0
48792 -48793 0
48792 -48794 0
-48792 48793 48794 0
48795 -48796 0
48795 -48797 0
-48795 48796 48797 0
48798 -49260 0
48798 -48800 0
-48798 49260 48800 0
48801 49223 0
48801 48815 0
-48801 -49223 -48815 0
48804 49229 0
48804 48815 0
-48804 -49229 -48815 0
48807 49235 0
48807 48815 0
-48807 -49235 -48815 0
48810 49241 0
48810 48815 0
-48810 -49241 -48815 0
48813 49247 0
48813 48815 0
-48813 -49247 -48815 0
48816 48819 0
48816 48818 0
-48816 -48819 -48818 0
48819 48997 0
48819 48821 0
-48819 -48997 -48821 0
48822 48825 0
48822 48824 0
-48822 -48825 -48824 0
48825 48826 0
48825 48827 0
-48825 -48826 -48827 0
48828 48831 0
48828 48830 0
-48828 -48831 -48830 0
48831 48832 0
48831 48833 0
-48831 -48832 -48833 0
48834 48837 0
48834 48836 0
-48834 -48837 -48836 0
48837 48838 0
48837 48839 0
-48837 -48838 -48839 0
48840 48843 0
48840 48842 0
-48840 -48843 -48842 0
48843 48844 0
48843 48845 0
-48843 -48844 -48845 0
48846 48849 0
48846 48848 0
-48846 -48849 -48848 0
48849 49128 0
48849 48851 0
-48849 -49128 -48851 0
48852 48855 0
48852 48854 0
-48852 -48855 -48854 0
48855 48856 0
48855 48857 0
-48855 -48856 -48857 0
48858 48872 0
48858 48860 0
-48858 -48872 -48860 0
48871 49254 0
48871 48863 0
-48871 -49254 -48863 0
48870 48865 0
48870 48908 0
48870 49254 0
-48870 -48865 -48908 -49254 0
48868 48997 0
48868 48870 0
48868 48871 0
-48868 -48997 -48870 -48871 0
48872 48873 0
48872 48874 0
-48872 -48873 -48874 0
49096 48896 0
49096 48877 0
-49096 -48896 -48877 0
49095 48899 0
49095 48880 0
-49095 -48899 -48880 0
49093 48902 0
49093 48883 0
-49093 -48902 -48883 0
49092 48890 0
49092 48886 0
-49092 -48890 -48886 0
49091 48893 0
49091 48889 0
-49091 -48893 -48889 0
48890 49083 0
48890 48892 0
-48890 -49083 -48892 0
48893 49089 0
48893 48895 0
-48893 -49089 -48895 0
48896 49065 0
48896 48898 0
-48896 -49065 -48898 0
48899 49071 0
48899 48901 0
-48899 -49071 -48901 0
48902 49077 0
48902 48904 0
-48902 -49077 -48904 0
48909 49090 0
48909 49094 0
-48909 -49090 -49094 0
48908 48909 0
48908 48997 0
-48908 -48909 -48997 0
49098 48912 0
49098 48913 0
49098 48914 0
49098 48915 0
-49098 -48912 -48913 -48914 -48915 0
48921 48917 0
48921 48918 0
-48921 -48917 -48918 0
48919 48920 0
48919 48921 0
-48919 -48920 -48921 0
49292 48923 0
49292 48992 0
-49292 -48923 -48992 0
48993 48937 0
48993 48927 0
-48993 -48937 -48927 0
48994 48940 0
48994 48930 0
-48994 -48940 -48930 0
48995 48943 0
48995 48933 0
-48995 -48943 -48933 0
48996 48946 0
48996 48936 0
-48996 -48946 -48936 0
48937 49215 0
48937 49195 0
-48937 -49215 -49195 0
48940 49216 0
48940 49201 0
-48940 -49216 -49201 0
48943 49217 0
48943 49207 0
-48943 -49217 -49207 0
48946 49214 0
48946 49213 0
-48946 -49214 -49213 0
48949 48956 0
48949 48959 0
48949 48962 0
-48949 -48956 -48959 -48962 0
48953 48965 0
48953 48968 0
-48953 -48965 -48968 0
48956 48971 0
48956 48958 0
-48956 -48971 -48958 0
48959 48974 0
48959 48961 0
-48959 -48974 -48961 0
48962 48977 0
48962 48964 0
-48962 -48977 -48964 0
48965 48980 0
48965 48967 0
-48965 -48980 -48967 0
48968 48983 0
48968 48970 0
-48968 -48983 -48970 0
48971 49249 0
48971 49223 0
-48971 -49249 -49223 0
48974 49250 0
48974 49229 0
-48974 -49250 -49229 0
48977 49251 0
48977 49235 0
-48977 -49251 -49235 0
48980 49252 0
48980 49241 0
-48980 -49252 -49241 0
48983 49248 0
48983 49247 0
-48983 -49248 -49247 0
49258 48987 0
49258 48988 0
-49258 -48987 -48988 0
49257 49254 0
49257 48991 0
-49257 -49254 -48991 0
48992 48993 0
48992 48994 0
48992 48995 0
48992 48996 0
-48992 -48993 -48994 -48995 -48996 0
48997 48998 0
48997 48999 0
-48997 -48998 -48999 0
-49000 -49003 0
-49000 -49002 0
49000 49003 49002 0
-49003 -49004 0
-49003 -49005 0
49003 49004 49005 0
-49006 -49009 0
-49006 -49008 0
49006 49009 49008 0
-49009 -49010 0
-49009 -49011 0
49009 49010 49011 0
-49012 -49015 0
-49012 -49014 0
49012 49015 49014 0
-49015 -49016 0
-49015 -49017 0
49015 49016 49017 0
-49018 -49021 0
-49018 -49020 0
49018 49021 49020 0
-49021 -49022 0
-49021 -49023 0
49021 49022 49023 0
-49024 -49027 0
-49024 -49026 0
49024 49027 49026 0
-49027 -49028 0
-49027 -49029 0
49027 49028 49029 0
-49030 -49033 0
-49030 -49032 0
49030 49033 49032 0
-49033 -49034 0
-49033 -49035 0
49033 49034 49035 0
-49036 -49039 0
-49036 -49038 0
49036 49039 49038 0
-49039 -49040 0
-49039 -49041 0
49039 49040 49041 0
-49042 -49045 0
-49042 -49044 0
49042 49045 49044 0
-49045 -49046 0
-49045 -49047 0
49045 49046 49047 0
-49048 -49051 0
-49048 -49050 0
49048 49051 49050 0
-49051 -49052 0
-49051 -49053 0
49051 49052 49053 0
-49054 -49057 0
-49054 -49056 0
49054 49057 49056 0
-49057 -49058 0
-49057 -49059 0
49057 49058 49059 0
-49060 -49063 0
-49060 -49062 0
49060 49063 49062 0
-49063 -49097 0
-49063 -49065 0
49063 49097 49065 0
-49066 -49069 0
-49066 -49068 0
49066 49069 49068 0
-49069 -49070 0
-49069 -49071 0
49069 49070 49071 0
-49072 -49075 0
-49072 -49074 0
49072 49075 49074 0
-49075 -49076 0
-49075 -49077 0
49075 49076 49077 0
-49078 -49081 0
-49078 -49080 0
49078 49081 49080 0
-49081 -49082 0
-49081 -49083 0
49081 49082 49083 0
-49084 -49087 0
-49084 -49086 0
49084 49087 49086 0
-49087 -49088 0
-49087 -49089 0
49087 49088 49089 0
-49090 -49091 0
-49090 -49092 0
-49090 -49093 0
49090 49091 49092 49093 0
-49094 -49095 0
-49094 -49096 0
49094 49095 49096 0
-49097 -49098 0
-49097 -49103 0
49097 49098 49103 0
-49105 -49101 0
-49105 -49102 0
49105 49101 49102 0
-49103 -49104 0
-49103 -49105 0
49103 49104 49105 0
-49106 -49109 0
-49106 -49108 0
49106 49109 49108 0
-49109 -49110 0
-49109 -49111 0
49109 49110 49111 0
-49112 -49115 0
-49112 -49114 0
49112 49115 49114 0
-49115 -49116 0
-49115 -49117 0
49115 49116 49117 0
-49118 -49121 0
-49118 -49120 0
49118 49121 49120 0
-49121 -49122 0
-49121 -49123 0
49121 49122 49123 0
-49124 -49127 0
-49124 -49126 0
49124 49127 49126 0
-49127 -49128 0
-49127 -49129 0
49127 49128 49129 0
-49130 -49133 0
-49130 -49132 0
49130 49133 49132 0
-49133 -49134 0
-49133 -49135 0
49133 49134 49135 0
-49136 -49139 0
-49136 -49138 0
49136 49139 49138 0
-49139 -49140 0
-49139 -49141 0
49139 49140 49141 0
-49142 -49145 0
-49142 -49144 0
49142 49145 49144 0
-49145 -49146 0
-49145 -49147 0
49145 49146 49147 0
-49148 -49151 0
-49148 -49150 0
49148 49151 49150 0
-49151 -49152 0
-49151 -49153 0
49151 49152 49153 0
-49154 -49157 0
-49154 -49156 0
49154 49157 49156 0
-49157 -49158 0
-49157 -49159 0
49157 49158 49159 0
-49160 -49163 0
-49160 -49162 0
49160 49163 49162 0
-49163 -49164 0
-49163 -49165 0
49163 49164 49165 0
-49166 -49169 0
-49166 -49168 0
49166 49169 49168 0
-49169 -49170 0
-49169 -49171 0
49169 49170 49171 0
-49172 -49175 0
-49172 -49174 0
49172 49175 49174 0
-49175 -49176 0
-49175 -49177 0
49175 49176 49177 0
-49178 -49179 0
-49178 -49181 0
49178 49179 49181 0
-49181 -49188 0
-49181 -49183 0
49181 49188 49183 0
-49184 -49185 0
-49184 -49187 0
49184 49185 49187 0
-49187 -49188 0
-49187 -49189 0
49187 49188 49189 0
-49190 -49193 0
-49190 -49192 0
49190 49193 49192 0
-49193 -49194 0
-49193 -49195 0
49193 49194 49195 0
-49196 -49199 0
-49196 -49198 0
49196 49199 49198 0
-49199 -49200 0
-49199 -49201 0
49199 49200 49201 0
-49202 -49205 0
-49202 -49204 0
49202 49205 49204 0
-49205 -49206 0
-49205 -49207 0
49205 49206 49207 0
-49208 -49211 0
-49208 -49210 0
49208 49211 49210 0
-49211 -49212 0
-49211 -49213 0
49211 49212 49213 0
-49214 -49215 0
-49214 -49216 0
-49214 -49217 0
49214 49215 49216 49217 0
-49218 -49221 0
-49218 -49220 0
49218 49221 49220 0
-49221 -49222 0
-49221 -49223 0
49221 49222 49223 0
-49224 -49227 0
-49224 -49226 0
49224 49227 49226 0
-49227 -49228 0
-49227 -49229 0
49227 49228 49229 0
-49230 -49233 0
-49230 -49232 0
49230 49233 49232 0
-49233 -49234 0
-49233 -49235 0
49233 49234 49235 0
-49236 -49239 0
-49236 -49238 0
49236 49239 49238 0
-49239 -49240 0
-49239 -49241 0
49239 49240 49241 0
-49242 -49245 0
-49242 -49244 0
49242 49245 49244 0
-49245 -49246 0
-49245 -49247 0
49245 49246 49247 0
-49248 -49249 0
-49248 -49250 0
-49248 -49251 0
-49248 -49252 0
49248 49249 49250 49251 49252 0
-49253 -49254 0
-49253 -49255 0
49253 49254 49255 0
-49256 -49257 0
-49256 -49258 0
49256 49257 49258 0
-49270 -49260 0
-49270 -49261 0
49270 49260 49261 0
-49262 -49263 0
-49262 -49270 0
49262 49263 49270 0
-49265 -49266 0
-49265 -49270 0
49265 49266 49270 0
-49268 -49269 0
-49268 -49270 0
49268 49269 49270 0
-49289 -49272 0
-49289 -49273 0
-49289 -49274 0
-49289 -49275 0
49289 49272 49273 49274 49275 0
-49276 -49277 0
-49276 -49279 0
49276 49277 49279 0
-49279 -49280 0
-49279 -49281 0
49279 49280 49281 0
49282 49283 0
-49282 -49283 0
49284 49285 0
-49284 -49285 0
49286 49287 0
-49286 -49287 0
-49288 49289 0
-49288 49293 0
49288 -49289 -49293 0
-49291 49292 0
-49291 49293 0
49291 -49292 -49293 0
49282 0