p cnf 50601 50384
-2124 0
-1689 0
-1691 0
-1945 0
-1745 0
-1593 0
1674 1652 0
-1674 -1652 0
1330 1622 0
-1330 -1622 0
1649 1722 0
-1649 -1722 0
1616 1290 0
-1616 -1290 0
1610 1614 0
-1610 -1614 0
1613 1589 0
-1613 -1589 0
1623 1071 0
-1623 -1071 0
1625 1593 0
-1625 -1593 0
1634 1745 0
-1634 -1745 0
1942 1945 0
-1942 -1945 0
1734 1691 0
-1734 -1691 0
1782 1689 0
-1782 -1689 0
1849 2124 0
-1849 -2124 0
2080 1588 0
-2080 -1588 0
257 1945 0
-257 -1945 0
1692 257 0
-1692 -257 0
1694 1594 0
-1694 -1594 0
263 1722 0
-263 -1722 0
656 263 0
-656 -263 0
1852 1597 0
-1852 -1597 0
269 1734 0
-269 -1734 0
1719 269 0
-1719 -269 0
1285 1603 0
-1285 -1603 0
1119 1606 0
-1119 -1606 0
2081 1609 0
-2081 -1609 0
279 1609 0
-279 -1609 0
1773 279 0
-1773 -279 0
1146 1615 0
-1146 -1615 0
1011 1673 0
-1011 -1673 0
774 1624 0
-774 -1624 0
1730 1627 0
-1730 -1627 0
1733 1630 0
-1733 -1630 0
1147 1633 0
-1147 -1633 0
1739 1636 0
-1739 -1636 0
1742 1639 0
-1742 -1639 0
1802 1642 0
-1802 -1642 0
847 1688 0
-847 -1688 0
1028 1648 0
-1028 -1648 0
1757 1651 0
-1757 -1651 0
901 1654 0
-901 -1654 0
1105 1703 0
-1105 -1703 0
1772 1660 0
-1772 -1660 0
1953 1663 0
-1953 -1663 0
1787 1666 0
-1787 -1666 0
317 1689 0
-317 -1689 0
1113 317 0
-1113 -317 0
2033 1687 0
-2033 -1687 0
323 528 0
-323 -528 0
1162 323 0
-1162 -323 0
327 765 0
-327 -765 0
1216 327 0
-1216 -327 0
1944 1741 0
-1944 -1741 0
330 1021 0
-330 -1021 0
332 1230 0
-332 -1230 0
1437 1943 0
-1437 -1943 0
336 1310 0
-336 -1310 0
338 1996 0
-338 -1996 0
340 2005 0
-340 -2005 0
342 1431 0
-342 -1431 0
344 2099 0
-344 -2099 0
346 1451 0
-346 -1451 0
348 2116 0
-348 -2116 0
350 1515 0
-350 -1515 0
352 1519 0
-352 -1519 0
354 2147 0
-354 -2147 0
356 2159 0
-356 -2159 0
358 2171 0
-358 -2171 0
360 2181 0
-360 -2181 0
379 2185 0
-379 -2185 0
364 2189 0
-364 -2189 0
381 2192 0
-381 -2192 0
383 2196 0
-383 -2196 0
387 2201 0
-387 -2201 0
389 2206 0
-389 -2206 0
374 2211 0
-374 -2211 0
391 2214 0
-391 -2214 0
1571 379 0
-1571 -379 0
1574 381 0
-1574 -381 0
1577 383 0
-1577 -383 0
384 2218 0
-384 -2218 0
1580 387 0
-1580 -387 0
1583 389 0
-1583 -389 0
1586 391 0
-1586 -391 0
392 2224 0
-392 -2224 0
-1685 1945 0
-1685 1691 0
1685 -1945 -1691 0
-1695 1945 0
-1695 1691 0
1695 -1945 -1691 0
-1736 1745 0
-1736 1945 0
-1736 1691 0
1736 -1745 -1945 -1691 0
-1712 1745 0
-1712 1689 0
1712 -1745 -1689 0
-1697 1652 0
-1697 1689 0
1697 -1652 -1689 0
-1797 1652 0
-1797 1689 0
1797 -1652 -1689 0
-1727 1722 0
-1727 1689 0
1727 -1722 -1689 0
-1961 1945 0
-1961 1689 0
1961 -1945 -1689 0
-1671 1622 0
-1671 2124 0
1671 -1622 -2124 0
-1676 1616 0
-1676 1623 0
1676 -1616 -1623 0
-1025 1290 0
-1025 1625 0
-1025 1691 0
1025 -1290 -1625 -1691 0
-1680 1652 0
-1680 1634 0
-1680 1689 0
1680 -1652 -1634 -1689 0
-1715 1623 0
-1715 1625 0
-1715 1634 0
-1715 2124 0
1715 -1623 -1625 -1634 -2124 0
-1740 1634 0
-1740 1689 0
1740 -1634 -1689 0
-1815 1634 0
-1815 1945 0
-1815 2124 0
1815 -1634 -1945 -2124 0
-1731 1634 0
-1731 1945 0
-1731 1691 0
1731 -1634 -1945 -1691 0
-668 1622 0
-668 1071 0
-668 1625 0
-668 1634 0
668 -1622 -1071 -1625 -1634 0
-1679 1649 0
-1679 1745 0
-1679 1942 0
1679 -1649 -1745 -1942 0
-1682 1942 0
-1682 1689 0
1682 -1942 -1689 0
-1701 1616 0
-1701 1942 0
1701 -1616 -1942 0
-1824 1625 0
-1824 1634 0
-1824 1942 0
1824 -1625 -1634 -1942 0
-1029 1593 0
-1029 1745 0
-1029 1942 0
1029 -1593 -1745 -1942 0
-1686 1634 0
-1686 1734 0
1686 -1634 -1734 0
-1800 1622 0
-1800 1734 0
-1800 2124 0
1800 -1622 -1734 -2124 0
-1833 1634 0
-1833 1734 0
-1833 1689 0
1833 -1634 -1734 -1689 0
-1821 1734 0
-1821 2124 0
1821 -1734 -2124 0
-1855 1330 0
-1855 1945 0
-1855 1734 0
1855 -1330 -1945 -1734 0
-1704 1634 0
-1704 1734 0
1704 -1634 -1734 0
-2095 1745 0
-2095 1689 0
-2095 1594 0
2095 -1745 -1689 -1594 0
-1698 1691 0
-1698 1782 0
1698 -1691 -1782 0
-1707 1071 0
-1707 1782 0
1707 -1071 -1782 0
-764 1625 0
-764 1945 0
-764 1782 0
764 -1625 -1945 -1782 0
-1758 1942 0
-1758 1782 0
1758 -1942 -1782 0
-1794 1634 0
-1794 1782 0
1794 -1634 -1782 0
-1888 1691 0
-1888 1782 0
1888 -1691 -1782 0
-1788 1945 0
-1788 1782 0
1788 -1945 -1782 0
-1806 1691 0
-1806 1782 0
1806 -1691 -1782 0
-1754 1691 0
-1754 1782 0
1754 -1691 -1782 0
-2123 1691 0
-2123 1782 0
2123 -1691 -1782 0
-528 1745 0
-528 1597 0
528 -1745 -1597 0
-1809 1597 0
-1809 2124 0
1809 -1597 -2124 0
-1713 1625 0
-1713 1849 0
1713 -1625 -1849 0
-1716 1745 0
-1716 1849 0
1716 -1745 -1849 0
-1885 1625 0
-1885 1945 0
-1885 1734 0
-1885 1849 0
1885 -1625 -1945 -1734 -1849 0
-1891 1634 0
-1891 1945 0
-1891 1782 0
-1891 1849 0
1891 -1634 -1945 -1782 -1849 0
-1767 1634 0
-1767 1782 0
-1767 1849 0
1767 -1634 -1782 -1849 0
-1921 1634 0
-1921 1945 0
-1921 1734 0
-1921 1849 0
1921 -1634 -1945 -1734 -1849 0
-1770 1613 0
-1770 1782 0
-1770 1849 0
1770 -1613 -1782 -1849 0
-1897 1634 0
-1897 1782 0
-1897 1849 0
1897 -1634 -1782 -1849 0
-1785 1290 0
-1785 1734 0
-1785 1849 0
1785 -1290 -1734 -1849 0
-1779 1734 0
-1779 1849 0
1779 -1734 -1849 0
-1930 1594 0
-1930 1849 0
1930 -1594 -1849 0
-1791 1634 0
-1791 1945 0
-1791 1782 0
-1791 1849 0
1791 -1634 -1945 -1782 -1849 0
-1776 1782 0
-1776 1849 0
1776 -1782 -1849 0
-1939 1591 0
-1939 1849 0
-1939 1594 0
1939 -1591 -1849 -1594 0
-1906 1623 0
-1906 1782 0
-1906 1849 0
1906 -1623 -1782 -1849 0
-1959 1849 0
-1959 1597 0
1959 -1849 -1597 0
-2072 1593 0
-2072 1849 0
2072 -1593 -1849 0
-1843 1600 0
-1843 1689 0
1843 -1600 -1689 0
-1718 1606 0
-1718 1782 0
1718 -1606 -1782 0
-1725 1734 0
-1725 1612 0
1725 -1734 -1612 0
-1728 1615 0
-1728 1782 0
1728 -1615 -1782 0
-1749 1618 0
-1749 1782 0
-1749 1849 0
1749 -1618 -1782 -1849 0
-1927 1624 0
-1927 1613 0
-1927 1945 0
-1927 1849 0
1927 -1624 -1613 -1945 -1849 0
-1737 1633 0
-1737 1734 0
1737 -1633 -1734 0
-1752 1689 0
-1752 1636 0
1752 -1689 -1636 0
-1746 1642 0
-1746 1689 0
1746 -1642 -1689 0
-1846 1745 0
-1846 1688 0
1846 -1745 -1688 0
-1748 1689 0
-1748 1688 0
1748 -1689 -1688 0
-1751 1648 0
-1751 1782 0
1751 -1648 -1782 0
-1755 1689 0
-1755 1648 0
1755 -1689 -1648 0
-1839 1623 0
-1839 1634 0
-1839 2124 0
-1839 1694 0
1839 -1623 -1634 -2124 -1694 0
-2144 1745 0
-2144 1849 0
-2144 1694 0
2144 -1745 -1849 -1694 0
-1764 1945 0
-1764 2124 0
-1764 1654 0
1764 -1945 -2124 -1654 0
-2125 1745 0
-2125 656 0
2125 -1745 -656 0
-2011 1945 0
-2011 1703 0
2011 -1945 -1703 0
-1870 1071 0
-1870 2124 0
-1870 1852 0
1870 -1071 -2124 -1852 0
-1861 1945 0
-1861 1849 0
-1861 1852 0
-1861 668 0
1861 -1945 -1849 -1852 -668 0
-1864 1634 0
-1864 1942 0
-1864 1852 0
1864 -1634 -1942 -1852 0
-1933 1945 0
-1933 1852 0
1933 -1945 -1852 0
-1763 1290 0
-1763 1849 0
-1763 1852 0
1763 -1290 -1849 -1852 0
-2046 1623 0
-2046 1945 0
-2046 1849 0
-2046 1852 0
2046 -1623 -1945 -1849 -1852 0
-1994 1945 0
-1994 2124 0
-1994 1852 0
1994 -1945 -2124 -1852 0
-989 1625 0
-989 1634 0
-989 1852 0
989 -1625 -1634 -1852 0
-1775 1660 0
-1775 1942 0
1775 -1660 -1942 0
-1948 1694 0
-1948 1660 0
1948 -1694 -1660 0
-1778 1663 0
-1778 1942 0
1778 -1663 -1942 0
-1836 1666 0
-1836 1734 0
1836 -1666 -1734 0
-1811 1634 0
-1811 1691 0
-1811 1285 0
1811 -1634 -1691 -1285 0
-2039 1782 0
-2039 1285 0
2039 -1782 -1285 0
-2202 1745 0
-2202 1691 0
-2202 1285 0
2202 -1745 -1691 -1285 0
-1790 1669 0
-1790 1745 0
-1790 1689 0
1790 -1669 -1745 -1689 0
-1936 1119 0
-1936 1594 0
1936 -1119 -1594 0
-1793 1745 0
-1793 1689 0
-1793 2081 0
1793 -1745 -1689 -2081 0
-1818 1634 0
-1818 1942 0
-1818 1782 0
-1818 2081 0
1818 -1634 -1942 -1782 -2081 0
-1796 1734 0
-1796 2081 0
1796 -1734 -2081 0
-1799 1745 0
-1799 1849 0
-1799 2081 0
1799 -1745 -1849 -2081 0
-1803 1945 0
-1803 2081 0
1803 -1945 -2081 0
-1893 1285 0
-1893 2081 0
1893 -1285 -2081 0
-2003 1634 0
-2003 1942 0
-2003 1852 0
-2003 2081 0
2003 -1634 -1942 -1852 -2081 0
-2036 1782 0
-2036 1285 0
-2036 2081 0
2036 -1782 -1285 -2081 0
-2000 1849 0
-2000 1694 0
-2000 2081 0
2000 -1849 -1694 -2081 0
-1967 1630 0
-1967 2081 0
1967 -1630 -2081 0
-1881 1849 0
-1881 1146 0
-1881 764 0
1881 -1849 -1146 -764 0
-765 1290 0
-765 2124 0
-765 1672 0
765 -1290 -2124 -1672 0
-1805 1675 0
-1805 1734 0
1805 -1675 -1734 0
-1808 1849 0
-1808 774 0
1808 -1849 -774 0
-1812 1945 0
-1812 1689 0
-1812 1730 0
1812 -1945 -1689 -1730 0
-1858 1649 0
-1858 1593 0
-1858 1730 0
1858 -1649 -1593 -1730 0
-1814 1649 0
-1814 1849 0
-1814 1733 0
1814 -1649 -1849 -1733 0
-1872 2124 0
-1872 1733 0
1872 -2124 -1733 0
-1914 1849 0
-1914 1733 0
1914 -1849 -1733 0
-1875 1603 0
-1875 1733 0
1875 -1603 -1733 0
-1817 1722 0
-1817 1147 0
1817 -1722 -1147 0
-1820 1849 0
-1820 1147 0
1820 -1849 -1147 0
-1823 1689 0
-1823 1147 0
1823 -1689 -1147 0
-1827 1745 0
-1827 1739 0
1827 -1745 -1739 0
-1830 1745 0
-1830 1689 0
-1830 1739 0
1830 -1745 -1689 -1739 0
-2020 1745 0
-2020 1689 0
-2020 1739 0
2020 -1745 -1689 -1739 0
-2121 1745 0
-2121 1689 0
-2121 1739 0
2121 -1745 -1689 -1739 0
-2098 1625 0
-2098 1691 0
-2098 1678 0
2098 -1625 -1691 -1678 0
-2087 1734 0
-2087 1681 0
2087 -1734 -1681 0
-1826 1634 0
-1826 1942 0
-1826 1742 0
1826 -1634 -1942 -1742 0
-1829 1634 0
-1829 1942 0
-1829 1742 0
1829 -1634 -1942 -1742 0
-1832 1733 0
-1832 1802 0
1832 -1733 -1802 0
-1835 2124 0
-1835 1802 0
1835 -2124 -1802 0
-1838 1071 0
-1838 847 0
-1838 1147 0
1838 -1071 -847 -1147 0
-1899 1651 0
-1899 847 0
1899 -1651 -847 0
-2017 1687 0
-2017 1945 0
2017 -1687 -1945 0
-1845 1849 0
-1845 1028 0
1845 -1849 -1028 0
-1866 1782 0
-1866 1028 0
1866 -1782 -1028 0
-2049 1782 0
-2049 1849 0
-2049 1028 0
2049 -1782 -1849 -1028 0
-2180 1690 0
-2180 1722 0
-2180 1745 0
-2180 1689 0
2180 -1690 -1722 -1745 -1689 0
-2025 1693 0
-2025 1634 0
-2025 1689 0
2025 -1693 -1634 -1689 0
-1848 1942 0
-1848 901 0
1848 -1942 -901 0
-1851 1674 0
-1851 901 0
1851 -1674 -901 0
-1917 1945 0
-1917 901 0
1917 -1945 -901 0
-1854 1942 0
-1854 901 0
1854 -1942 -901 0
-1857 1613 0
-1857 1625 0
-1857 1634 0
-1857 901 0
1857 -1613 -1625 -1634 -901 0
-1860 1745 0
-1860 1942 0
-1860 901 0
1860 -1745 -1942 -901 0
-1863 1652 0
-1863 1673 0
-1863 1745 0
-1863 901 0
1863 -1652 -1673 -1745 -901 0
-1878 1942 0
-1878 901 0
1878 -1942 -901 0
-1964 1634 0
-1964 901 0
1964 -1634 -901 0
-1867 1760 0
-1867 1634 0
1867 -1760 -1634 0
-1869 1652 0
-1869 1691 0
-1869 1105 0
1869 -1652 -1691 -1105 0
-1873 1634 0
-1873 1945 0
-1873 1105 0
1873 -1634 -1945 -1105 0
-1924 1691 0
-1924 1105 0
1924 -1691 -1105 0
-1876 1634 0
-1876 1105 0
1876 -1634 -1105 0
-2013 1734 0
-2013 1105 0
2013 -1734 -1105 0
-1978 1691 0
-1978 1105 0
1978 -1691 -1105 0
-2069 1627 0
-2069 1945 0
-2069 1105 0
2069 -1627 -1945 -1105 0
-2030 1945 0
-2030 1691 0
-2030 1105 0
2030 -1945 -1691 -1105 0
-1975 1634 0
-1975 1734 0
-1975 1105 0
1975 -1634 -1734 -1105 0
-2056 1622 0
-2056 1945 0
-2056 1105 0
2056 -1622 -1945 -1105 0
-1950 1942 0
-1950 1105 0
-1950 2081 0
-1950 1742 0
1950 -1942 -1105 -2081 -1742 0
-2084 1634 0
-2084 1734 0
-2084 1105 0
2084 -1634 -1734 -1105 0
-2110 1945 0
-2110 1691 0
-2110 1105 0
2110 -1945 -1691 -1105 0
-2092 1105 0
-2092 1642 0
2092 -1105 -1642 0
-2077 1945 0
-2077 1734 0
-2077 1105 0
2077 -1945 -1734 -1105 0
-2100 1634 0
-2100 1734 0
-2100 1105 0
2100 -1634 -1734 -1105 0
-2107 1684 0
-2107 1105 0
2107 -1684 -1105 0
-2176 1694 0
-2176 1105 0
2176 -1694 -1105 0
-1990 1699 0
-1990 1734 0
1990 -1699 -1734 0
-1956 1945 0
-1956 1702 0
1956 -1945 -1702 0
-1879 1705 0
-1879 1734 0
1879 -1705 -1734 0
-2101 1708 0
-2101 1745 0
2101 -1708 -1745 0
-2183 1745 0
-2183 1708 0
2183 -1745 -1708 0
-2212 1285 0
-2212 2081 0
-2212 989 0
2212 -1285 -2081 -989 0
-1882 1722 0
-1882 1593 0
-1882 1942 0
-1882 1772 0
1882 -1722 -1593 -1942 -1772 0
-1884 1593 0
-1884 1745 0
-1884 1772 0
-1884 1802 0
1884 -1593 -1745 -1772 -1802 0
-1887 1734 0
-1887 1772 0
1887 -1734 -1772 0
-1890 1649 0
-1890 1745 0
-1890 1772 0
1890 -1649 -1745 -1772 0
-1894 1290 0
-1894 1745 0
-1894 1772 0
-1894 1011 0
1894 -1290 -1745 -1772 -1011 0
-1896 1071 0
-1896 1772 0
1896 -1071 -1772 0
-1900 1734 0
-1900 1772 0
1900 -1734 -1772 0
-1908 1745 0
-1908 1772 0
1908 -1745 -1772 0
-1021 1772 0
-1021 1147 0
-1021 1673 0
-1021 1025 0
1021 -1772 -1147 -1673 -1025 0
-2006 1772 0
-2006 1028 0
-2006 1029 0
2006 -1772 -1028 -1029 0
-1903 1734 0
-1903 1772 0
1903 -1734 -1772 0
-2027 1945 0
-2027 1691 0
-2027 1772 0
2027 -1945 -1691 -1772 0
-2059 1330 0
-2059 1734 0
-2059 1772 0
2059 -1330 -1734 -1772 0
-1905 1672 0
-1905 1290 0
-1905 1772 0
1905 -1672 -1290 -1772 0
-2143 1945 0
-2143 1772 0
2143 -1945 -1772 0
-1909 1330 0
-1909 1711 0
1909 -1330 -1711 0
-1911 1616 0
-1911 1953 0
1911 -1616 -1953 0
-1987 1782 0
-1987 1953 0
1987 -1782 -1953 0
-1972 1782 0
-1972 1953 0
1972 -1782 -1953 0
-2169 1945 0
-2169 1782 0
-2169 1953 0
2169 -1945 -1782 -1953 0
-2115 1782 0
-2115 1953 0
2115 -1782 -1953 0
-1915 1616 0
-1915 1714 0
1915 -1616 -1714 0
-1918 1071 0
-1918 1852 0
-1918 1787 0
1918 -1071 -1852 -1787 0
-1920 1782 0
-1920 1787 0
1920 -1782 -1787 0
-1923 1593 0
-1923 1787 0
1923 -1593 -1787 0
-1926 1593 0
-1926 1691 0
-1926 1787 0
1926 -1593 -1691 -1787 0
-1929 1734 0
-1929 1787 0
1929 -1734 -1787 0
-1932 1654 0
-1932 1787 0
1932 -1654 -1787 0
-1935 1691 0
-1935 1787 0
1935 -1691 -1787 0
-1938 1691 0
-1938 1787 0
1938 -1691 -1787 0
-1984 1593 0
-1984 1745 0
-1984 1787 0
1984 -1593 -1745 -1787 0
-2053 1717 0
-2053 1942 0
2053 -1717 -1942 0
-1941 1720 0
-1941 1105 0
1941 -1720 -1105 0
-1954 1723 0
-1954 1782 0
1954 -1723 -1782 0
-1970 1745 0
-1970 1726 0
1970 -1745 -1726 0
-2194 1113 0
-2194 1593 0
-2194 1945 0
-2194 1849 0
2194 -1113 -1593 -1945 -1849 0
-2138 1729 0
-2138 1119 0
2138 -1729 -1119 0
-2044 1732 0
-2044 2124 0
2044 -1732 -2124 0
-2066 1593 0
-2066 1849 0
-2066 1735 0
2066 -1593 -1849 -1735 0
-2088 1738 0
-2088 1612 0
2088 -1738 -1612 0
-2184 1593 0
-2184 1849 0
-2184 1744 0
2184 -1593 -1849 -1744 0
-1947 1945 0
-1947 2033 0
1947 -1945 -2033 0
-1997 1593 0
-1997 2033 0
-1997 1147 0
1997 -1593 -2033 -1147 0
-1981 1942 0
-1981 2033 0
1981 -1942 -2033 0
-2104 2033 0
-2104 1146 0
-2104 1147 0
2104 -2033 -1146 -1147 0
-1951 1747 0
-1951 1945 0
1951 -1747 -1945 0
-1955 1745 0
-1955 1750 0
1955 -1745 -1750 0
-1958 1942 0
-1958 1753 0
1958 -1942 -1753 0
-1962 1625 0
-1962 1756 0
1962 -1625 -1756 0
-1965 1593 0
-1965 1162 0
1965 -1593 -1162 0
-1968 1759 0
-1968 1634 0
1968 -1759 -1634 0
-2130 1745 0
-2130 1762 0
2130 -1745 -1762 0
-2043 1616 0
-2043 1765 0
2043 -1616 -1765 0
-1973 1768 0
-1973 1734 0
1973 -1768 -1734 0
-2054 1771 0
-2054 1734 0
2054 -1771 -1734 0
-1976 1774 0
-1976 1745 0
-1976 1691 0
1976 -1774 -1745 -1691 0
-2075 1777 0
-2075 1593 0
-2075 1782 0
2075 -1777 -1593 -1782 0
-1979 1780 0
-1979 1734 0
1979 -1780 -1734 0
-2197 1783 0
-2197 1733 0
2197 -1783 -1733 0
-2160 1786 0
-2160 1730 0
2160 -1786 -1730 0
-1982 1789 0
-1982 1734 0
1982 -1789 -1734 0
-1985 1792 0
-1985 1625 0
-1985 1945 0
-1985 1849 0
1985 -1792 -1625 -1945 -1849 0
-1988 1795 0
-1988 1849 0
1988 -1795 -1849 0
-2063 1625 0
-2063 1689 0
-2063 1798 0
2063 -1625 -1689 -1798 0
-1991 1649 0
-1991 1849 0
-1991 1801 0
1991 -1649 -1849 -1801 0
-1992 1945 0
-1992 1216 0
1992 -1945 -1216 0
-2018 1804 0
-2018 2124 0
2018 -1804 -2124 0
-1995 1807 0
-1995 1942 0
1995 -1807 -1942 0
-2168 1810 0
-2168 1609 0
2168 -1810 -1609 0
-1998 1813 0
-1998 1625 0
-1998 1734 0
1998 -1813 -1625 -1734 0
-1230 1816 0
-1230 1625 0
-1230 1734 0
-1230 1849 0
1230 -1816 -1625 -1734 -1849 0
-2001 1616 0
-2001 1819 0
2001 -1616 -1819 0
-2023 1822 0
-2023 2081 0
2023 -1822 -2081 0
-2004 1825 0
-2004 1588 0
-2004 1689 0
2004 -1825 -1588 -1689 0
-2136 1612 0
-2136 1828 0
-2136 1849 0
2136 -1612 -1828 -1849 0
-2210 1593 0
-2210 1849 0
-2210 1831 0
2210 -1593 -1849 -1831 0
-2193 1834 0
-2193 1733 0
2193 -1834 -1733 0
-2007 1837 0
-2007 1290 0
-2007 1625 0
-2007 1782 0
2007 -1837 -1290 -1625 -1782 0
-2010 1634 0
-2010 1840 0
2010 -1634 -1840 0
-2009 1844 0
-2009 1782 0
2009 -1844 -1782 0
-2014 1847 0
-2014 1745 0
2014 -1847 -1745 0
-2016 1849 0
-2016 1850 0
-2016 2081 0
2016 -1849 -1850 -2081 0
-2021 1634 0
-2021 1942 0
-2021 1850 0
2021 -1634 -1942 -1850 0
-2157 1634 0
-2157 1849 0
-2157 1853 0
2157 -1634 -1849 -1853 0
-2172 1674 0
-2172 1856 0
-2172 1285 0
2172 -1674 -1856 -1285 0
-2203 1649 0
-2203 1859 0
2203 -1649 -1859 0
-2152 1290 0
-2152 1862 0
-2152 2124 0
2152 -1290 -1862 -2124 0
-2024 1625 0
-2024 1865 0
-2024 1942 0
2024 -1625 -1865 -1942 0
-2028 1868 0
-2028 1942 0
2028 -1868 -1942 0
-2208 1871 0
-2208 1734 0
2208 -1871 -1734 0
-2031 1874 0
-2031 1734 0
2031 -1874 -1734 0
-2141 1634 0
-2141 2124 0
-2141 1877 0
2141 -1634 -2124 -1877 0
-1310 1880 0
-1310 1745 0
-1310 1691 0
1310 -1880 -1745 -1691 0
-2209 1722 0
-2209 1883 0
2209 -1722 -1883 0
-2034 1886 0
-2034 1634 0
2034 -1886 -1634 0
-2156 1945 0
-2156 1886 0
2156 -1945 -1886 0
-2037 1330 0
-2037 1889 0
2037 -1330 -1889 0
-2040 1674 0
-2040 1892 0
2040 -1674 -1892 0
-2042 1330 0
-2042 1895 0
2042 -1330 -1895 0
-2047 1898 0
-2047 1942 0
2047 -1898 -1942 0
-2050 1901 0
-2050 1634 0
2050 -1901 -1634 0
-2052 1904 0
-2052 1945 0
2052 -1904 -1945 0
-2057 1907 0
-2057 1942 0
2057 -1907 -1942 0
-2060 1910 0
-2060 1634 0
2060 -1910 -1634 0
-2215 1913 0
-2215 1694 0
2215 -1913 -1694 0
-2154 1634 0
-2154 1916 0
2154 -1634 -1916 0
-2113 1623 0
-2113 1919 0
2113 -1623 -1919 0
-2062 1922 0
-2062 1745 0
2062 -1922 -1745 0
-2065 1649 0
-2065 1745 0
-2065 1925 0
2065 -1649 -1745 -1925 0
-2068 1928 0
-2068 1733 0
2068 -1928 -1733 0
-2188 1593 0
-2188 1931 0
-2188 1745 0
2188 -1593 -1931 -1745 0
-2071 1934 0
-2071 1689 0
2071 -1934 -1689 0
-2074 1937 0
-2074 1689 0
2074 -1937 -1689 0
-2078 1940 0
-2078 1691 0
2078 -1940 -1691 0
-2082 1943 0
-2082 1634 0
2082 -1943 -1634 0
-2085 1946 0
-2085 1745 0
2085 -1946 -1745 0
-2133 1634 0
-2133 1949 0
2133 -1634 -1949 0
-2118 1625 0
-2118 1952 0
2118 -1625 -1952 0
-2091 1745 0
-2091 1957 0
2091 -1745 -1957 0
-2094 1960 0
-2094 1691 0
2094 -1960 -1691 0
-2097 1963 0
-2097 1945 0
2097 -1963 -1945 0
-2102 1625 0
-2102 1966 0
2102 -1625 -1966 0
-2105 1971 0
-2105 1634 0
-2105 1942 0
2105 -1971 -1634 -1942 0
-2161 1593 0
-2161 1974 0
2161 -1593 -1974 0
-2108 1745 0
-2108 1977 0
2108 -1745 -1977 0
-2128 1722 0
-2128 1980 0
2128 -1722 -1980 0
-2186 1649 0
-2186 1983 0
2186 -1649 -1983 0
-2111 1986 0
-2111 1942 0
2111 -1986 -1942 0
-2114 1745 0
-2114 1989 0
2114 -1745 -1989 0
-2117 1993 0
-2117 1745 0
2117 -1993 -1745 0
-2140 1999 0
-2140 1782 0
2140 -1999 -1782 0
-1431 2002 0
-1431 1625 0
-1431 1849 0
1431 -2002 -1625 -1849 0
-2120 1634 0
-2120 1437 0
2120 -1634 -1437 0
-2165 1593 0
-2165 2012 0
2165 -1593 -2012 0
-2145 2015 0
-2145 1634 0
2145 -2015 -1634 0
-1518 2019 0
-1518 1614 0
-1518 1613 0
1518 -2019 -1614 -1613 0
-2149 2022 0
-2149 1849 0
2149 -2022 -1849 0
-1451 2026 0
-1451 1625 0
-1451 1634 0
1451 -2026 -1625 -1634 0
-2205 1593 0
-2205 2029 0
2205 -1593 -2029 0
-2222 2032 0
-2222 1942 0
2222 -2032 -1942 0
-2129 2035 0
-2129 1734 0
2129 -2035 -1734 0
-2151 2038 0
-2151 1691 0
2151 -2038 -1691 0
-2132 2041 0
-2132 1945 0
2132 -2041 -1945 0
-2167 1634 0
-2167 2045 0
2167 -1634 -2045 0
-2135 2048 0
-2135 1942 0
2135 -2048 -1942 0
-2139 1745 0
-2139 2051 0
2139 -1745 -2051 0
-2227 2055 0
-2227 1691 0
2227 -2055 -1691 0
-2146 1722 0
-2146 2058 0
2146 -1722 -2058 0
-2199 1649 0
-2199 2061 0
2199 -1649 -2061 0
-2173 2064 0
-2173 1689 0
2173 -2064 -1689 0
-2190 2067 0
-2190 1593 0
2190 -2067 -1593 0
-2220 1745 0
-2220 2070 0
2220 -1745 -2070 0
-2148 1745 0
-2148 2073 0
2148 -1745 -2073 0
-2153 1745 0
-2153 2076 0
2153 -1745 -2076 0
-2225 2083 0
-2225 1593 0
2225 -2083 -1593 0
-2162 1625 0
-2162 2086 0
2162 -1625 -2086 0
-2216 1593 0
-2216 2090 0
2216 -1593 -2090 0
-2164 2093 0
-2164 1849 0
2164 -2093 -1849 0
-1515 1625 0
-1515 1849 0
-1515 1518 0
1515 -1625 -1849 -1518 0
-1519 2096 0
-1519 1849 0
1519 -2096 -1849 0
-2174 1625 0
-2174 2103 0
2174 -1625 -2103 0
-2200 1593 0
-2200 2106 0
2200 -1593 -2106 0
-2177 1625 0
-2177 2109 0
2177 -1625 -2109 0
-2179 2119 0
-2179 2081 0
2179 -2119 -2081 0
-2182 1625 0
-2182 2122 0
2182 -1625 -2122 0
-2187 2131 0
-2187 1625 0
2187 -2131 -1625 0
-2191 2134 0
-2191 1625 0
2191 -2134 -1625 0
-2195 1625 0
-2195 2137 0
2195 -1625 -2137 0
-2198 2142 0
-2198 1625 0
2198 -2142 -1625 0
-2204 2150 0
-2204 1625 0
2204 -2150 -1625 0
-2207 2155 0
-2207 1625 0
2207 -2155 -1625 0
-2213 2163 0
-2213 1722 0
2213 -2163 -1722 0
-2217 1625 0
-2217 2166 0
2217 -1625 -2166 0
-2219 2175 0
-2219 1634 0
2219 -2175 -1634 0
-2223 2178 0
-2223 1849 0
2223 -2178 -1849 0
-2226 1625 0
-2226 2221 0
2226 -1625 -2221 0
-2239 1571 0
-2239 1587 0
2239 -1571 -1587 0
-2233 1574 0
-2233 1587 0
2233 -1574 -1587 0
-2237 1577 0
-2237 1587 0
2237 -1577 -1587 0
-2229 1580 0
-2229 1587 0
2229 -1580 -1587 0
-2231 1583 0
-2231 1587 0
2231 -1583 -1587 0
-2235 1586 0
-2235 1587 0
2235 -1586 -1587 0
1588 -1589 0
1588 -1614 0
-1588 1589 1614 0
1591 -1722 0
1591 -1593 0
-1591 1722 1593 0
1594 -1945 0
1594 -1691 0
-1594 1945 1691 0
1597 -1691 0
1597 -1689 0
-1597 1691 1689 0
1600 -1652 0
1600 -2124 0
-1600 1652 2124 0
1603 -1945 0
1603 -2124 0
-1603 1945 2124 0
1606 -1649 0
1606 -2124 0
-1606 1649 2124 0
1609 -1610 0
1609 -1613 0
-1609 1610 1613 0
1612 -1613 0
1612 -1614 0
-1612 1613 1614 0
1615 -1616 0
1615 -1623 0
-1615 1616 1623 0
1618 -1623 0
1618 -1691 0
-1618 1623 1691 0
1673 -1622 0
1673 -1623 0
-1673 1622 1623 0
1624 -1625 0
1624 -1691 0
-1624 1625 1691 0
1627 -1634 0
1627 -1691 0
-1627 1634 1691 0
1630 -1634 0
1630 -1689 0
-1630 1634 1689 0
1633 -1634 0
1633 -1942 0
-1633 1634 1942 0
1636 -1942 0
1636 -1722 0
-1636 1942 1722 0
1639 -1652 0
1639 -1734 0
-1639 1652 1734 0
1642 -1734 0
1642 -1945 0
-1642 1734 1945 0
1688 -1734 0
1688 -2124 0
-1688 1734 2124 0
1648 -1649 0
1648 -1734 0
-1648 1649 1734 0
1651 -1652 0
1651 -1782 0
-1651 1652 1782 0
1654 -1734 0
1654 -1782 0
-1654 1734 1782 0
1703 -1782 0
1703 -2124 0
-1703 1782 2124 0
1660 -1782 0
1660 -1849 0
-1660 1782 1849 0
1663 -1734 0
1663 -1849 0
-1663 1734 1849 0
1666 -1945 0
1666 -1849 0
-1666 1945 1849 0
1669 -1945 0
1669 -1671 0
-1669 1945 1671 0
1672 -1673 0
1672 -1674 0
-1672 1673 1674 0
1675 -1676 0
1675 -1689 0
-1675 1676 1689 0
1678 -1679 0
1678 -1680 0
-1678 1679 1680 0
1681 -1682 0
1681 -2124 0
-1681 1682 2124 0
1684 -1685 0
1684 -1686 0
-1684 1685 1686 0
1687 -1688 0
1687 -1689 0
-1687 1688 1689 0
1690 -1691 0
1690 -1692 0
-1690 1691 1692 0
1693 -1694 0
1693 -1695 0
-1693 1694 1695 0
1760 -1697 0
1760 -1698 0
-1760 1697 1698 0
1699 -1703 0
1699 -1701 0
-1699 1703 1701 0
1702 -1703 0
1702 -1704 0
-1702 1703 1704 0
1705 -1945 0
1705 -1707 0
-1705 1945 1707 0
1708 -1852 0
1708 -1942 0
-1708 1852 1942 0
1711 -1712 0
1711 -1713 0
-1711 1712 1713 0
1714 -1715 0
1714 -1716 0
-1714 1715 1716 0
1717 -1718 0
1717 -1719 0
-1717 1718 1719 0
1720 -2081 0
1720 -1722 0
-1720 2081 1722 0
1723 -2124 0
1723 -1725 0
-1723 2124 1725 0
1726 -1727 0
1726 -1728 0
-1726 1727 1728 0
1729 -1730 0
1729 -1731 0
-1729 1730 1731 0
1732 -1733 0
1732 -1734 0
-1732 1733 1734 0
1735 -1736 0
1735 -1737 0
-1735 1736 1737 0
1738 -1739 0
1738 -1740 0
-1738 1739 1740 0
1741 -1742 0
1741 -1782 0
-1741 1742 1782 0
1744 -1745 0
1744 -1746 0
-1744 1745 1746 0
1747 -1748 0
1747 -1749 0
-1747 1748 1749 0
1750 -1751 0
1750 -1752 0
-1750 1751 1752 0
1753 -1754 0
1753 -1755 0
-1753 1754 1755 0
1756 -1757 0
1756 -1758 0
-1756 1757 1758 0
1759 -1760 0
1759 -1945 0
-1759 1760 1945 0
1762 -1763 0
1762 -1764 0
-1762 1763 1764 0
1765 -1772 0
1765 -1767 0
-1765 1772 1767 0
1768 -1772 0
1768 -1770 0
-1768 1772 1770 0
1771 -1772 0
1771 -1773 0
-1771 1772 1773 0
1774 -1775 0
1774 -1776 0
-1774 1775 1776 0
1777 -1778 0
1777 -1779 0
-1777 1778 1779 0
1780 -1787 0
1780 -1782 0
-1780 1787 1782 0
1783 -1787 0
1783 -1785 0
-1783 1787 1785 0
1786 -1787 0
1786 -1788 0
-1786 1787 1788 0
1789 -1790 0
1789 -1791 0
-1789 1790 1791 0
1792 -1793 0
1792 -1794 0
-1792 1793 1794 0
1795 -1796 0
1795 -1797 0
-1795 1796 1797 0
1798 -1799 0
1798 -1800 0
-1798 1799 1800 0
1801 -1802 0
1801 -1803 0
-1801 1802 1803 0
1804 -1805 0
1804 -1806 0
-1804 1805 1806 0
1807 -1808 0
1807 -1809 0
-1807 1808 1809 0
1810 -1811 0
1810 -1812 0
-1810 1811 1812 0
1813 -1814 0
1813 -1815 0
-1813 1814 1815 0
1816 -1817 0
1816 -1818 0
-1816 1817 1818 0
1819 -1820 0
1819 -1821 0
-1819 1820 1821 0
1822 -1823 0
1822 -1824 0
-1822 1823 1824 0
1825 -1826 0
1825 -1827 0
-1825 1826 1827 0
1828 -1829 0
1828 -1830 0
-1828 1829 1830 0
1831 -1832 0
1831 -1833 0
-1831 1832 1833 0
1834 -1835 0
1834 -1836 0
-1834 1835 1836 0
1837 -1838 0
1837 -1839 0
-1837 1838 1839 0
1840 -2033 0
1840 -1945 0
1840 -1843 0
-1840 2033 1945 1843 0
1844 -1845 0
1844 -1846 0
-1844 1845 1846 0
1847 -1848 0
1847 -1849 0
-1847 1848 1849 0
1850 -1851 0
1850 -1852 0
-1850 1851 1852 0
1853 -1854 0
1853 -1855 0
-1853 1854 1855 0
1856 -1857 0
1856 -1858 0
-1856 1857 1858 0
1859 -1860 0
1859 -1861 0
-1859 1860 1861 0
1862 -1863 0
1862 -1864 0
-1862 1863 1864 0
1865 -1866 0
1865 -1867 0
-1865 1866 1867 0
1868 -1869 0
1868 -1870 0
-1868 1869 1870 0
1871 -1872 0
1871 -1873 0
-1871 1872 1873 0
1874 -1875 0
1874 -1876 0
-1874 1875 1876 0
1877 -1878 0
1877 -1879 0
-1877 1878 1879 0
1880 -1881 0
1880 -1882 0
-1880 1881 1882 0
1883 -1884 0
1883 -1885 0
-1883 1884 1885 0
1886 -1887 0
1886 -1888 0
-1886 1887 1888 0
1889 -1890 0
1889 -1891 0
-1889 1890 1891 0
1892 -1893 0
1892 -1894 0
-1892 1893 1894 0
1895 -1896 0
1895 -1897 0
-1895 1896 1897 0
1898 -1899 0
1898 -1900 0
-1898 1899 1900 0
1901 -2033 0
1901 -1903 0
-1901 2033 1903 0
1904 -1905 0
1904 -1906 0
-1904 1905 1906 0
1907 -1908 0
1907 -1909 0
-1907 1908 1909 0
1910 -1911 0
1910 -1945 0
-1910 1911 1945 0
1913 -1914 0
1913 -1915 0
-1913 1914 1915 0
1916 -1917 0
1916 -1918 0
-1916 1917 1918 0
1919 -1920 0
1919 -1921 0
-1919 1920 1921 0
1922 -1923 0
1922 -1924 0
-1922 1923 1924 0
1925 -1926 0
1925 -1927 0
-1925 1926 1927 0
1928 -1929 0
1928 -1930 0
-1928 1929 1930 0
1931 -1932 0
1931 -1933 0
-1931 1932 1933 0
1934 -1935 0
1934 -1936 0
-1934 1935 1936 0
1937 -1938 0
1937 -1939 0
-1937 1938 1939 0
1940 -1941 0
1940 -1942 0
-1940 1941 1942 0
1943 -1944 0
1943 -1945 0
-1943 1944 1945 0
1946 -1947 0
1946 -1948 0
-1946 1947 1948 0
1949 -1950 0
1949 -1951 0
-1949 1950 1951 0
1952 -1953 0
1952 -1954 0
1952 -1955 0
1952 -1956 0
-1952 1953 1954 1955 1956 0
1957 -1958 0
1957 -1959 0
-1957 1958 1959 0
1960 -1961 0
1960 -1962 0
-1960 1961 1962 0
1963 -1964 0
1963 -1965 0
-1963 1964 1965 0
1966 -1967 0
1966 -1968 0
1966 -2124 0
1966 -1970 0
-1966 1967 1968 2124 1970 0
1971 -1972 0
1971 -1973 0
-1971 1972 1973 0
1974 -1975 0
1974 -1976 0
-1974 1975 1976 0
1977 -1978 0
1977 -1979 0
-1977 1978 1979 0
1980 -1981 0
1980 -1982 0
-1980 1981 1982 0
1983 -1984 0
1983 -1985 0
-1983 1984 1985 0
1986 -1987 0
1986 -1988 0
-1986 1987 1988 0
1989 -1990 0
1989 -1991 0
1989 -1992 0
-1989 1990 1991 1992 0
1993 -1994 0
1993 -1995 0
-1993 1994 1995 0
1996 -1997 0
1996 -1998 0
-1996 1997 1998 0
1999 -2000 0
1999 -2001 0
-1999 2000 2001 0
2002 -2003 0
2002 -2004 0
-2002 2003 2004 0
2005 -2006 0
2005 -2007 0
-2005 2006 2007 0
2089 -2009 0
2089 -2010 0
2089 -2011 0
-2089 2009 2010 2011 0
2012 -2013 0
2012 -2014 0
-2012 2013 2014 0
2015 -2016 0
2015 -2017 0
2015 -2018 0
-2015 2016 2017 2018 0
2019 -2020 0
2019 -2021 0
-2019 2020 2021 0
2022 -2023 0
2022 -2024 0
2022 -2025 0
-2022 2023 2024 2025 0
2026 -2027 0
2026 -2028 0
-2026 2027 2028 0
2029 -2030 0
2029 -2031 0
-2029 2030 2031 0
2032 -2033 0
2032 -2034 0
-2032 2033 2034 0
2035 -2036 0
2035 -2037 0
-2035 2036 2037 0
2038 -2039 0
2038 -2040 0
-2038 2039 2040 0
2041 -2042 0
2041 -2043 0
2041 -2044 0
-2041 2042 2043 2044 0
2045 -2046 0
2045 -2047 0
-2045 2046 2047 0
2048 -2049 0
2048 -2050 0
-2048 2049 2050 0
2051 -2052 0
2051 -2053 0
2051 -2054 0
-2051 2052 2053 2054 0
2055 -2056 0
2055 -2057 0
-2055 2056 2057 0
2058 -2059 0
2058 -2060 0
-2058 2059 2060 0
2061 -2062 0
2061 -2063 0
-2061 2062 2063 0
2064 -2065 0
2064 -2066 0
-2064 2065 2066 0
2067 -2068 0
2067 -2069 0
-2067 2068 2069 0
2070 -2071 0
2070 -2072 0
-2070 2071 2072 0
2073 -2074 0
2073 -2075 0
-2073 2074 2075 0
2076 -2077 0
2076 -2078 0
-2076 2077 2078 0
2126 -2080 0
2126 -2081 0
2126 -2082 0
-2126 2080 2081 2082 0
2083 -2084 0
2083 -2085 0
-2083 2084 2085 0
2086 -2087 0
2086 -2088 0
2086 -2089 0
-2086 2087 2088 2089 0
2090 -2091 0
2090 -2092 0
-2090 2091 2092 0
2093 -2094 0
2093 -2095 0
-2093 2094 2095 0
2096 -2097 0
2096 -2098 0
-2096 2097 2098 0
2099 -2100 0
2099 -2101 0
2099 -2102 0
-2099 2100 2101 2102 0
2103 -2104 0
2103 -2105 0
-2103 2104 2105 0
2106 -2107 0
2106 -2108 0
-2106 2107 2108 0
2109 -2110 0
2109 -2111 0
-2109 2110 2111 0
2158 -2113 0
2158 -2114 0
2158 -2115 0
-2158 2113 2114 2115 0
2116 -2117 0
2116 -2118 0
-2116 2117 2118 0
2119 -2120 0
2119 -2121 0
-2119 2120 2121 0
2122 -2123 0
2122 -2124 0
2122 -2125 0
2122 -2126 0
-2122 2123 2124 2125 2126 0
2170 -2128 0
2170 -2129 0
2170 -2130 0
-2170 2128 2129 2130 0
2131 -2132 0
2131 -2133 0
-2131 2132 2133 0
2134 -2135 0
2134 -2136 0
-2134 2135 2136 0
2137 -2138 0
2137 -2139 0
2137 -2140 0
2137 -2141 0
-2137 2138 2139 2140 2141 0
2142 -2143 0
2142 -2144 0
2142 -2145 0
2142 -2146 0
-2142 2143 2144 2145 2146 0
2147 -2148 0
2147 -2149 0
-2147 2148 2149 0
2150 -2151 0
2150 -2152 0
2150 -2153 0
2150 -2154 0
-2150 2151 2152 2153 2154 0
2155 -2156 0
2155 -2157 0
2155 -2158 0
-2155 2156 2157 2158 0
2159 -2160 0
2159 -2161 0
2159 -2162 0
-2159 2160 2161 2162 0
2163 -2164 0
2163 -2165 0
-2163 2164 2165 0
2166 -2167 0
2166 -2168 0
2166 -2169 0
2166 -2170 0
-2166 2167 2168 2169 2170 0
2171 -2172 0
2171 -2173 0
2171 -2174 0
-2171 2172 2173 2174 0
2175 -2176 0
2175 -2177 0
-2175 2176 2177 0
2178 -2179 0
2178 -2180 0
-2178 2179 2180 0
2181 -2182 0
2181 -2183 0
2181 -2184 0
-2181 2182 2183 2184 0
2185 -2186 0
2185 -2187 0
2185 -2188 0
-2185 2186 2187 2188 0
2189 -2190 0
2189 -2191 0
-2189 2190 2191 0
2192 -2193 0
2192 -2194 0
2192 -2195 0
-2192 2193 2194 2195 0
2196 -2197 0
2196 -2198 0
2196 -2199 0
2196 -2200 0
-2196 2197 2198 2199 2200 0
2201 -2202 0
2201 -2203 0
2201 -2204 0
2201 -2205 0
-2201 2202 2203 2204 2205 0
2206 -2207 0
2206 -2208 0
2206 -2209 0
2206 -2210 0
-2206 2207 2208 2209 2210 0
2211 -2212 0
2211 -2213 0
-2211 2212 2213 0
2214 -2215 0
2214 -2216 0
2214 -2217 0
-2214 2215 2216 2217 0
2218 -2219 0
2218 -2220 0
-2218 2219 2220 0
2221 -2222 0
2221 -2223 0
-2221 2222 2223 0
2224 -2225 0
2224 -2226 0
2224 -2227 0
-2224 2225 2226 2227 0
-2229 4138 0
2229 -4138 0
-2231 3703 0
2231 -3703 0
-2233 3705 0
2233 -3705 0
-2235 3959 0
2235 -3959 0
-2237 3759 0
2237 -3759 0
-2239 3607 0
2239 -3607 0
3688 3666 0
-3688 -3666 0
3344 3636 0
-3344 -3636 0
3663 3736 0
-3663 -3736 0
3630 3304 0
-3630 -3304 0
3624 3628 0
-3624 -3628 0
3627 3603 0
-3627 -3603 0
3637 3085 0
-3637 -3085 0
3639 3607 0
-3639 -3607 0
3648 3759 0
-3648 -3759 0
3956 3959 0
-3956 -3959 0
3748 3705 0
-3748 -3705 0
3796 3703 0
-3796 -3703 0
3863 4138 0
-3863 -4138 0
4094 3602 0
-4094 -3602 0
2271 3959 0
-2271 -3959 0
3706 2271 0
-3706 -2271 0
3708 3608 0
-3708 -3608 0
2277 3736 0
-2277 -3736 0
2670 2277 0
-2670 -2277 0
3866 3611 0
-3866 -3611 0
2283 3748 0
-2283 -3748 0
3733 2283 0
-3733 -2283 0
3299 3617 0
-3299 -3617 0
3133 3620 0
-3133 -3620 0
4095 3623 0
-4095 -3623 0
2293 3623 0
-2293 -3623 0
3787 2293 0
-3787 -2293 0
3160 3629 0
-3160 -3629 0
3025 3687 0
-3025 -3687 0
2788 3638 0
-2788 -3638 0
3744 3641 0
-3744 -3641 0
3747 3644 0
-3747 -3644 0
3161 3647 0
-3161 -3647 0
3753 3650 0
-3753 -3650 0
3756 3653 0
-3756 -3653 0
3816 3656 0
-3816 -3656 0
2861 3702 0
-2861 -3702 0
3042 3662 0
-3042 -3662 0
3771 3665 0
-3771 -3665 0
2915 3668 0
-2915 -3668 0
3119 3717 0
-3119 -3717 0
3786 3674 0
-3786 -3674 0
3967 3677 0
-3967 -3677 0
3801 3680 0
-3801 -3680 0
2331 3703 0
-2331 -3703 0
3127 2331 0
-3127 -2331 0
4047 3701 0
-4047 -3701 0
2337 2542 0
-2337 -2542 0
3176 2337 0
-3176 -2337 0
2341 2779 0
-2341 -2779 0
3230 2341 0
-3230 -2341 0
3958 3755 0
-3958 -3755 0
2344 3035 0
-2344 -3035 0
2346 3244 0
-2346 -3244 0
3451 3957 0
-3451 -3957 0
2350 3324 0
-2350 -3324 0
2352 4010 0
-2352 -4010 0
2354 4019 0
-2354 -4019 0
2356 3445 0
-2356 -3445 0
2358 4113 0
-2358 -4113 0
2360 3465 0
-2360 -3465 0
2362 4130 0
-2362 -4130 0
2364 3529 0
-2364 -3529 0
2366 3533 0
-2366 -3533 0
2368 4161 0
-2368 -4161 0
2370 4173 0
-2370 -4173 0
2372 4185 0
-2372 -4185 0
2374 4195 0
-2374 -4195 0
2393 4199 0
-2393 -4199 0
2378 4203 0
-2378 -4203 0
2395 4206 0
-2395 -4206 0
2397 4210 0
-2397 -4210 0
2401 4215 0
-2401 -4215 0
2403 4220 0
-2403 -4220 0
2388 4225 0
-2388 -4225 0
2405 4228 0
-2405 -4228 0
3585 2393 0
-3585 -2393 0
3588 2395 0
-3588 -2395 0
3591 2397 0
-3591 -2397 0
2398 4232 0
-2398 -4232 0
3594 2401 0
-3594 -2401 0
3597 2403 0
-3597 -2403 0
3600 2405 0
-3600 -2405 0
2406 4238 0
-2406 -4238 0
-3699 3959 0
-3699 3705 0
3699 -3959 -3705 0
-3709 3959 0
-3709 3705 0
3709 -3959 -3705 0
-3750 3759 0
-3750 3959 0
-3750 3705 0
3750 -3759 -3959 -3705 0
-3726 3759 0
-3726 3703 0
3726 -3759 -3703 0
-3711 3666 0
-3711 3703 0
3711 -3666 -3703 0
-3811 3666 0
-3811 3703 0
3811 -3666 -3703 0
-3741 3736 0
-3741 3703 0
3741 -3736 -3703 0
-3975 3959 0
-3975 3703 0
3975 -3959 -3703 0
-3685 3636 0
-3685 4138 0
3685 -3636 -4138 0
-3690 3630 0
-3690 3637 0
3690 -3630 -3637 0
-3039 3304 0
-3039 3639 0
-3039 3705 0
3039 -3304 -3639 -3705 0
-3694 3666 0
-3694 3648 0
-3694 3703 0
3694 -3666 -3648 -3703 0
-3729 3637 0
-3729 3639 0
-3729 3648 0
-3729 4138 0
3729 -3637 -3639 -3648 -4138 0
-3754 3648 0
-3754 3703 0
3754 -3648 -3703 0
-3829 3648 0
-3829 3959 0
-3829 4138 0
3829 -3648 -3959 -4138 0
-3745 3648 0
-3745 3959 0
-3745 3705 0
3745 -3648 -3959 -3705 0
-2682 3636 0
-2682 3085 0
-2682 3639 0
-2682 3648 0
2682 -3636 -3085 -3639 -3648 0
-3693 3663 0
-3693 3759 0
-3693 3956 0
3693 -3663 -3759 -3956 0
-3696 3956 0
-3696 3703 0
3696 -3956 -3703 0
-3715 3630 0
-3715 3956 0
3715 -3630 -3956 0
-3838 3639 0
-3838 3648 0
-3838 3956 0
3838 -3639 -3648 -3956 0
-3043 3607 0
-3043 3759 0
-3043 3956 0
3043 -3607 -3759 -3956 0
-3700 3648 0
-3700 3748 0
3700 -3648 -3748 0
-3814 3636 0
-3814 3748 0
-3814 4138 0
3814 -3636 -3748 -4138 0
-3847 3648 0
-3847 3748 0
-3847 3703 0
3847 -3648 -3748 -3703 0
-3835 3748 0
-3835 4138 0
3835 -3748 -4138 0
-3869 3344 0
-3869 3959 0
-3869 3748 0
3869 -3344 -3959 -3748 0
-3718 3648 0
-3718 3748 0
3718 -3648 -3748 0
-4109 3759 0
-4109 3703 0
-4109 3608 0
4109 -3759 -3703 -3608 0
-3712 3705 0
-3712 3796 0
3712 -3705 -3796 0
-3721 3085 0
-3721 3796 0
3721 -3085 -3796 0
-2778 3639 0
-2778 3959 0
-2778 3796 0
2778 -3639 -3959 -3796 0
-3772 3956 0
-3772 3796 0
3772 -3956 -3796 0
-3808 3648 0
-3808 3796 0
3808 -3648 -3796 0
-3902 3705 0
-3902 3796 0
3902 -3705 -3796 0
-3802 3959 0
-3802 3796 0
3802 -3959 -3796 0
-3820 3705 0
-3820 3796 0
3820 -3705 -3796 0
-3768 3705 0
-3768 3796 0
3768 -3705 -3796 0
-4137 3705 0
-4137 3796 0
4137 -3705 -3796 0
-2542 3759 0
-2542 3611 0
2542 -3759 -3611 0
-3823 3611 0
-3823 4138 0
3823 -3611 -4138 0
-3727 3639 0
-3727 3863 0
3727 -3639 -3863 0
-3730 3759 0
-3730 3863 0
3730 -3759 -3863 0
-3899 3639 0
-3899 3959 0
-3899 3748 0
-3899 3863 0
3899 -3639 -3959 -3748 -3863 0
-3905 3648 0
-3905 3959 0
-3905 3796 0
-3905 3863 0
3905 -3648 -3959 -3796 -3863 0
-3781 3648 0
-3781 3796 0
-3781 3863 0
3781 -3648 -3796 -3863 0
-3935 3648 0
-3935 3959 0
-3935 3748 0
-3935 3863 0
3935 -3648 -3959 -3748 -3863 0
-3784 3627 0
-3784 3796 0
-3784 3863 0
3784 -3627 -3796 -3863 0
-3911 3648 0
-3911 3796 0
-3911 3863 0
3911 -3648 -3796 -3863 0
-3799 3304 0
-3799 3748 0
-3799 3863 0
3799 -3304 -3748 -3863 0
-3793 3748 0
-3793 3863 0
3793 -3748 -3863 0
-3944 3608 0
-3944 3863 0
3944 -3608 -3863 0
-3805 3648 0
-3805 3959 0
-3805 3796 0
-3805 3863 0
3805 -3648 -3959 -3796 -3863 0
-3790 3796 0
-3790 3863 0
3790 -3796 -3863 0
-3953 3605 0
-3953 3863 0
-3953 3608 0
3953 -3605 -3863 -3608 0
-3920 3637 0
-3920 3796 0
-3920 3863 0
3920 -3637 -3796 -3863 0
-3973 3863 0
-3973 3611 0
3973 -3863 -3611 0
-4086 3607 0
-4086 3863 0
4086 -3607 -3863 0
-3857 3614 0
-3857 3703 0
3857 -3614 -3703 0
-3732 3620 0
-3732 3796 0
3732 -3620 -3796 0
-3739 3748 0
-3739 3626 0
3739 -3748 -3626 0
-3742 3629 0
-3742 3796 0
3742 -3629 -3796 0
-3763 3632 0
-3763 3796 0
-3763 3863 0
3763 -3632 -3796 -3863 0
-3941 3638 0
-3941 3627 0
-3941 3959 0
-3941 3863 0
3941 -3638 -3627 -3959 -3863 0
-3751 3647 0
-3751 3748 0
3751 -3647 -3748 0
-3766 3703 0
-3766 3650 0
3766 -3703 -3650 0
-3760 3656 0
-3760 3703 0
3760 -3656 -3703 0
-3860 3759 0
-3860 3702 0
3860 -3759 -3702 0
-3762 3703 0
-3762 3702 0
3762 -3703 -3702 0
-3765 3662 0
-3765 3796 0
3765 -3662 -3796 0
-3769 3703 0
-3769 3662 0
3769 -3703 -3662 0
-3853 3637 0
-3853 3648 0
-3853 4138 0
-3853 3708 0
3853 -3637 -3648 -4138 -3708 0
-4158 3759 0
-4158 3863 0
-4158 3708 0
4158 -3759 -3863 -3708 0
-3778 3959 0
-3778 4138 0
-3778 3668 0
3778 -3959 -4138 -3668 0
-4139 3759 0
-4139 2670 0
4139 -3759 -2670 0
-4025 3959 0
-4025 3717 0
4025 -3959 -3717 0
-3884 3085 0
-3884 4138 0
-3884 3866 0
3884 -3085 -4138 -3866 0
-3875 3959 0
-3875 3863 0
-3875 3866 0
-3875 2682 0
3875 -3959 -3863 -3866 -2682 0
-3878 3648 0
-3878 3956 0
-3878 3866 0
3878 -3648 -3956 -3866 0
-3947 3959 0
-3947 3866 0
3947 -3959 -3866 0
-3777 3304 0
-3777 3863 0
-3777 3866 0
3777 -3304 -3863 -3866 0
-4060 3637 0
-4060 3959 0
-4060 3863 0
-4060 3866 0
4060 -3637 -3959 -3863 -3866 0
-4008 3959 0
-4008 4138 0
-4008 3866 0
4008 -3959 -4138 -3866 0
-3003 3639 0
-3003 3648 0
-3003 3866 0
3003 -3639 -3648 -3866 0
-3789 3674 0
-3789 3956 0
3789 -3674 -3956 0
-3962 3708 0
-3962 3674 0
3962 -3708 -3674 0
-3792 3677 0
-3792 3956 0
3792 -3677 -3956 0
-3850 3680 0
-3850 3748 0
3850 -3680 -3748 0
-3825 3648 0
-3825 3705 0
-3825 3299 0
3825 -3648 -3705 -3299 0
-4053 3796 0
-4053 3299 0
4053 -3796 -3299 0
-4216 3759 0
-4216 3705 0
-4216 3299 0
4216 -3759 -3705 -3299 0
-3804 3683 0
-3804 3759 0
-3804 3703 0
3804 -3683 -3759 -3703 0
-3950 3133 0
-3950 3608 0
3950 -3133 -3608 0
-3807 3759 0
-3807 3703 0
-3807 4095 0
3807 -3759 -3703 -4095 0
-3832 3648 0
-3832 3956 0
-3832 3796 0
-3832 4095 0
3832 -3648 -3956 -3796 -4095 0
-3810 3748 0
-3810 4095 0
3810 -3748 -4095 0
-3813 3759 0
-3813 3863 0
-3813 4095 0
3813 -3759 -3863 -4095 0
-3817 3959 0
-3817 4095 0
3817 -3959 -4095 0
-3907 3299 0
-3907 4095 0
3907 -3299 -4095 0
-4017 3648 0
-4017 3956 0
-4017 3866 0
-4017 4095 0
4017 -3648 -3956 -3866 -4095 0
-4050 3796 0
-4050 3299 0
-4050 4095 0
4050 -3796 -3299 -4095 0
-4014 3863 0
-4014 3708 0
-4014 4095 0
4014 -3863 -3708 -4095 0
-3981 3644 0
-3981 4095 0
3981 -3644 -4095 0
-3895 3863 0
-3895 3160 0
-3895 2778 0
3895 -3863 -3160 -2778 0
-2779 3304 0
-2779 4138 0
-2779 3686 0
2779 -3304 -4138 -3686 0
-3819 3689 0
-3819 3748 0
3819 -3689 -3748 0
-3822 3863 0
-3822 2788 0
3822 -3863 -2788 0
-3826 3959 0
-3826 3703 0
-3826 3744 0
3826 -3959 -3703 -3744 0
-3872 3663 0
-3872 3607 0
-3872 3744 0
3872 -3663 -3607 -3744 0
-3828 3663 0
-3828 3863 0
-3828 3747 0
3828 -3663 -3863 -3747 0
-3886 4138 0
-3886 3747 0
3886 -4138 -3747 0
-3928 3863 0
-3928 3747 0
3928 -3863 -3747 0
-3889 3617 0
-3889 3747 0
3889 -3617 -3747 0
-3831 3736 0
-3831 3161 0
3831 -3736 -3161 0
-3834 3863 0
-3834 3161 0
3834 -3863 -3161 0
-3837 3703 0
-3837 3161 0
3837 -3703 -3161 0
-3841 3759 0
-3841 3753 0
3841 -3759 -3753 0
-3844 3759 0
-3844 3703 0
-3844 3753 0
3844 -3759 -3703 -3753 0
-4034 3759 0
-4034 3703 0
-4034 3753 0
4034 -3759 -3703 -3753 0
-4135 3759 0
-4135 3703 0
-4135 3753 0
4135 -3759 -3703 -3753 0
-4112 3639 0
-4112 3705 0
-4112 3692 0
4112 -3639 -3705 -3692 0
-4101 3748 0
-4101 3695 0
4101 -3748 -3695 0
-3840 3648 0
-3840 3956 0
-3840 3756 0
3840 -3648 -3956 -3756 0
-3843 3648 0
-3843 3956 0
-3843 3756 0
3843 -3648 -3956 -3756 0
-3846 3747 0
-3846 3816 0
3846 -3747 -3816 0
-3849 4138 0
-3849 3816 0
3849 -4138 -3816 0
-3852 3085 0
-3852 2861 0
-3852 3161 0
3852 -3085 -2861 -3161 0
-3913 3665 0
-3913 2861 0
3913 -3665 -2861 0
-4031 3701 0
-4031 3959 0
4031 -3701 -3959 0
-3859 3863 0
-3859 3042 0
3859 -3863 -3042 0
-3880 3796 0
-3880 3042 0
3880 -3796 -3042 0
-4063 3796 0
-4063 3863 0
-4063 3042 0
4063 -3796 -3863 -3042 0
-4194 3704 0
-4194 3736 0
-4194 3759 0
-4194 3703 0
4194 -3704 -3736 -3759 -3703 0
-4039 3707 0
-4039 3648 0
-4039 3703 0
4039 -3707 -3648 -3703 0
-3862 3956 0
-3862 2915 0
3862 -3956 -2915 0
-3865 3688 0
-3865 2915 0
3865 -3688 -2915 0
-3931 3959 0
-3931 2915 0
3931 -3959 -2915 0
-3868 3956 0
-3868 2915 0
3868 -3956 -2915 0
-3871 3627 0
-3871 3639 0
-3871 3648 0
-3871 2915 0
3871 -3627 -3639 -3648 -2915 0
-3874 3759 0
-3874 3956 0
-3874 2915 0
3874 -3759 -3956 -2915 0
-3877 3666 0
-3877 3687 0
-3877 3759 0
-3877 2915 0
3877 -3666 -3687 -3759 -2915 0
-3892 3956 0
-3892 2915 0
3892 -3956 -2915 0
-3978 3648 0
-3978 2915 0
3978 -3648 -2915 0
-3881 3774 0
-3881 3648 0
3881 -3774 -3648 0
-3883 3666 0
-3883 3705 0
-3883 3119 0
3883 -3666 -3705 -3119 0
-3887 3648 0
-3887 3959 0
-3887 3119 0
3887 -3648 -3959 -3119 0
-3938 3705 0
-3938 3119 0
3938 -3705 -3119 0
-3890 3648 0
-3890 3119 0
3890 -3648 -3119 0
-4027 3748 0
-4027 3119 0
4027 -3748 -3119 0
-3992 3705 0
-3992 3119 0
3992 -3705 -3119 0
-4083 3641 0
-4083 3959 0
-4083 3119 0
4083 -3641 -3959 -3119 0
-4044 3959 0
-4044 3705 0
-4044 3119 0
4044 -3959 -3705 -3119 0
-3989 3648 0
-3989 3748 0
-3989 3119 0
3989 -3648 -3748 -3119 0
-4070 3636 0
-4070 3959 0
-4070 3119 0
4070 -3636 -3959 -3119 0
-3964 3956 0
-3964 3119 0
-3964 4095 0
-3964 3756 0
3964 -3956 -3119 -4095 -3756 0
-4098 3648 0
-4098 3748 0
-4098 3119 0
4098 -3648 -3748 -3119 0
-4124 3959 0
-4124 3705 0
-4124 3119 0
4124 -3959 -3705 -3119 0
-4106 3119 0
-4106 3656 0
4106 -3119 -3656 0
-4091 3959 0
-4091 3748 0
-4091 3119 0
4091 -3959 -3748 -3119 0
-4114 3648 0
-4114 3748 0
-4114 3119 0
4114 -3648 -3748 -3119 0
-4121 3698 0
-4121 3119 0
4121 -3698 -3119 0
-4190 3708 0
-4190 3119 0
4190 -3708 -3119 0
-4004 3713 0
-4004 3748 0
4004 -3713 -3748 0
-3970 3959 0
-3970 3716 0
3970 -3959 -3716 0
-3893 3719 0
-3893 3748 0
3893 -3719 -3748 0
-4115 3722 0
-4115 3759 0
4115 -3722 -3759 0
-4197 3759 0
-4197 3722 0
4197 -3759 -3722 0
-4226 3299 0
-4226 4095 0
-4226 3003 0
4226 -3299 -4095 -3003 0
-3896 3736 0
-3896 3607 0
-3896 3956 0
-3896 3786 0
3896 -3736 -3607 -3956 -3786 0
-3898 3607 0
-3898 3759 0
-3898 3786 0
-3898 3816 0
3898 -3607 -3759 -3786 -3816 0
-3901 3748 0
-3901 3786 0
3901 -3748 -3786 0
-3904 3663 0
-3904 3759 0
-3904 3786 0
3904 -3663 -3759 -3786 0
-3908 3304 0
-3908 3759 0
-3908 3786 0
-3908 3025 0
3908 -3304 -3759 -3786 -3025 0
-3910 3085 0
-3910 3786 0
3910 -3085 -3786 0
-3914 3748 0
-3914 3786 0
3914 -3748 -3786 0
-3922 3759 0
-3922 3786 0
3922 -3759 -3786 0
-3035 3786 0
-3035 3161 0
-3035 3687 0
-3035 3039 0
3035 -3786 -3161 -3687 -3039 0
-4020 3786 0
-4020 3042 0
-4020 3043 0
4020 -3786 -3042 -3043 0
-3917 3748 0
-3917 3786 0
3917 -3748 -3786 0
-4041 3959 0
-4041 3705 0
-4041 3786 0
4041 -3959 -3705 -3786 0
-4073 3344 0
-4073 3748 0
-4073 3786 0
4073 -3344 -3748 -3786 0
-3919 3686 0
-3919 3304 0
-3919 3786 0
3919 -3686 -3304 -3786 0
-4157 3959 0
-4157 3786 0
4157 -3959 -3786 0
-3923 3344 0
-3923 3725 0
3923 -3344 -3725 0
-3925 3630 0
-3925 3967 0
3925 -3630 -3967 0
-4001 3796 0
-4001 3967 0
4001 -3796 -3967 0
-3986 3796 0
-3986 3967 0
3986 -3796 -3967 0
-4183 3959 0
-4183 3796 0
-4183 3967 0
4183 -3959 -3796 -3967 0
-4129 3796 0
-4129 3967 0
4129 -3796 -3967 0
-3929 3630 0
-3929 3728 0
3929 -3630 -3728 0
-3932 3085 0
-3932 3866 0
-3932 3801 0
3932 -3085 -3866 -3801 0
-3934 3796 0
-3934 3801 0
3934 -3796 -3801 0
-3937 3607 0
-3937 3801 0
3937 -3607 -3801 0
-3940 3607 0
-3940 3705 0
-3940 3801 0
3940 -3607 -3705 -3801 0
-3943 3748 0
-3943 3801 0
3943 -3748 -3801 0
-3946 3668 0
-3946 3801 0
3946 -3668 -3801 0
-3949 3705 0
-3949 3801 0
3949 -3705 -3801 0
-3952 3705 0
-3952 3801 0
3952 -3705 -3801 0
-3998 3607 0
-3998 3759 0
-3998 3801 0
3998 -3607 -3759 -3801 0
-4067 3731 0
-4067 3956 0
4067 -3731 -3956 0
-3955 3734 0
-3955 3119 0
3955 -3734 -3119 0
-3968 3737 0
-3968 3796 0
3968 -3737 -3796 0
-3984 3759 0
-3984 3740 0
3984 -3759 -3740 0
-4208 3127 0
-4208 3607 0
-4208 3959 0
-4208 3863 0
4208 -3127 -3607 -3959 -3863 0
-4152 3743 0
-4152 3133 0
4152 -3743 -3133 0
-4058 3746 0
-4058 4138 0
4058 -3746 -4138 0
-4080 3607 0
-4080 3863 0
-4080 3749 0
4080 -3607 -3863 -3749 0
-4102 3752 0
-4102 3626 0
4102 -3752 -3626 0
-4198 3607 0
-4198 3863 0
-4198 3758 0
4198 -3607 -3863 -3758 0
-3961 3959 0
-3961 4047 0
3961 -3959 -4047 0
-4011 3607 0
-4011 4047 0
-4011 3161 0
4011 -3607 -4047 -3161 0
-3995 3956 0
-3995 4047 0
3995 -3956 -4047 0
-4118 4047 0
-4118 3160 0
-4118 3161 0
4118 -4047 -3160 -3161 0
-3965 3761 0
-3965 3959 0
3965 -3761 -3959 0
-3969 3759 0
-3969 3764 0
3969 -3759 -3764 0
-3972 3956 0
-3972 3767 0
3972 -3956 -3767 0
-3976 3639 0
-3976 3770 0
3976 -3639 -3770 0
-3979 3607 0
-3979 3176 0
3979 -3607 -3176 0
-3982 3773 0
-3982 3648 0
3982 -3773 -3648 0
-4144 3759 0
-4144 3776 0
4144 -3759 -3776 0
-4057 3630 0
-4057 3779 0
4057 -3630 -3779 0
-3987 3782 0
-3987 3748 0
3987 -3782 -3748 0
-4068 3785 0
-4068 3748 0
4068 -3785 -3748 0
-3990 3788 0
-3990 3759 0
-3990 3705 0
3990 -3788 -3759 -3705 0
-4089 3791 0
-4089 3607 0
-4089 3796 0
4089 -3791 -3607 -3796 0
-3993 3794 0
-3993 3748 0
3993 -3794 -3748 0
-4211 3797 0
-4211 3747 0
4211 -3797 -3747 0
-4174 3800 0
-4174 3744 0
4174 -3800 -3744 0
-3996 3803 0
-3996 3748 0
3996 -3803 -3748 0
-3999 3806 0
-3999 3639 0
-3999 3959 0
-3999 3863 0
3999 -3806 -3639 -3959 -3863 0
-4002 3809 0
-4002 3863 0
4002 -3809 -3863 0
-4077 3639 0
-4077 3703 0
-4077 3812 0
4077 -3639 -3703 -3812 0
-4005 3663 0
-4005 3863 0
-4005 3815 0
4005 -3663 -3863 -3815 0
-4006 3959 0
-4006 3230 0
4006 -3959 -3230 0
-4032 3818 0
-4032 4138 0
4032 -3818 -4138 0
-4009 3821 0
-4009 3956 0
4009 -3821 -3956 0
-4182 3824 0
-4182 3623 0
4182 -3824 -3623 0
-4012 3827 0
-4012 3639 0
-4012 3748 0
4012 -3827 -3639 -3748 0
-3244 3830 0
-3244 3639 0
-3244 3748 0
-3244 3863 0
3244 -3830 -3639 -3748 -3863 0
-4015 3630 0
-4015 3833 0
4015 -3630 -3833 0
-4037 3836 0
-4037 4095 0
4037 -3836 -4095 0
-4018 3839 0
-4018 3602 0
-4018 3703 0
4018 -3839 -3602 -3703 0
-4150 3626 0
-4150 3842 0
-4150 3863 0
4150 -3626 -3842 -3863 0
-4224 3607 0
-4224 3863 0
-4224 3845 0
4224 -3607 -3863 -3845 0
-4207 3848 0
-4207 3747 0
4207 -3848 -3747 0
-4021 3851 0
-4021 3304 0
-4021 3639 0
-4021 3796 0
4021 -3851 -3304 -3639 -3796 0
-4024 3648 0
-4024 3854 0
4024 -3648 -3854 0
-4023 3858 0
-4023 3796 0
4023 -3858 -3796 0
-4028 3861 0
-4028 3759 0
4028 -3861 -3759 0
-4030 3863 0
-4030 3864 0
-4030 4095 0
4030 -3863 -3864 -4095 0
-4035 3648 0
-4035 3956 0
-4035 3864 0
4035 -3648 -3956 -3864 0
-4171 3648 0
-4171 3863 0
-4171 3867 0
4171 -3648 -3863 -3867 0
-4186 3688 0
-4186 3870 0
-4186 3299 0
4186 -3688 -3870 -3299 0
-4217 3663 0
-4217 3873 0
4217 -3663 -3873 0
-4166 3304 0
-4166 3876 0
-4166 4138 0
4166 -3304 -3876 -4138 0
-4038 3639 0
-4038 3879 0
-4038 3956 0
4038 -3639 -3879 -3956 0
-4042 3882 0
-4042 3956 0
4042 -3882 -3956 0
-4222 3885 0
-4222 3748 0
4222 -3885 -3748 0
-4045 3888 0
-4045 3748 0
4045 -3888 -3748 0
-4155 3648 0
-4155 4138 0
-4155 3891 0
4155 -3648 -4138 -3891 0
-3324 3894 0
-3324 3759 0
-3324 3705 0
3324 -3894 -3759 -3705 0
-4223 3736 0
-4223 3897 0
4223 -3736 -3897 0
-4048 3900 0
-4048 3648 0
4048 -3900 -3648 0
-4170 3959 0
-4170 3900 0
4170 -3959 -3900 0
-4051 3344 0
-4051 3903 0
4051 -3344 -3903 0
-4054 3688 0
-4054 3906 0
4054 -3688 -3906 0
-4056 3344 0
-4056 3909 0
4056 -3344 -3909 0
-4061 3912 0
-4061 3956 0
4061 -3912 -3956 0
-4064 3915 0
-4064 3648 0
4064 -3915 -3648 0
-4066 3918 0
-4066 3959 0
4066 -3918 -3959 0
-4071 3921 0
-4071 3956 0
4071 -3921 -3956 0
-4074 3924 0
-4074 3648 0
4074 -3924 -3648 0
-4229 3927 0
-4229 3708 0
4229 -3927 -3708 0
-4168 3648 0
-4168 3930 0
4168 -3648 -3930 0
-4127 3637 0
-4127 3933 0
4127 -3637 -3933 0
-4076 3936 0
-4076 3759 0
4076 -3936 -3759 0
-4079 3663 0
-4079 3759 0
-4079 3939 0
4079 -3663 -3759 -3939 0
-4082 3942 0
-4082 3747 0
4082 -3942 -3747 0
-4202 3607 0
-4202 3945 0
-4202 3759 0
4202 -3607 -3945 -3759 0
-4085 3948 0
-4085 3703 0
4085 -3948 -3703 0
-4088 3951 0
-4088 3703 0
4088 -3951 -3703 0
-4092 3954 0
-4092 3705 0
4092 -3954 -3705 0
-4096 3957 0
-4096 3648 0
4096 -3957 -3648 0
-4099 3960 0
-4099 3759 0
4099 -3960 -3759 0
-4147 3648 0
-4147 3963 0
4147 -3648 -3963 0
-4132 3639 0
-4132 3966 0
4132 -3639 -3966 0
-4105 3759 0
-4105 3971 0
4105 -3759 -3971 0
-4108 3974 0
-4108 3705 0
4108 -3974 -3705 0
-4111 3977 0
-4111 3959 0
4111 -3977 -3959 0
-4116 3639 0
-4116 3980 0
4116 -3639 -3980 0
-4119 3985 0
-4119 3648 0
-4119 3956 0
4119 -3985 -3648 -3956 0
-4175 3607 0
-4175 3988 0
4175 -3607 -3988 0
-4122 3759 0
-4122 3991 0
4122 -3759 -3991 0
-4142 3736 0
-4142 3994 0
4142 -3736 -3994 0
-4200 3663 0
-4200 3997 0
4200 -3663 -3997 0
-4125 4000 0
-4125 3956 0
4125 -4000 -3956 0
-4128 3759 0
-4128 4003 0
4128 -3759 -4003 0
-4131 4007 0
-4131 3759 0
4131 -4007 -3759 0
-4154 4013 0
-4154 3796 0
4154 -4013 -3796 0
-3445 4016 0
-3445 3639 0
-3445 3863 0
3445 -4016 -3639 -3863 0
-4134 3648 0
-4134 3451 0
4134 -3648 -3451 0
-4179 3607 0
-4179 4026 0
4179 -3607 -4026 0
-4159 4029 0
-4159 3648 0
4159 -4029 -3648 0
-3532 4033 0
-3532 3628 0
-3532 3627 0
3532 -4033 -3628 -3627 0
-4163 4036 0
-4163 3863 0
4163 -4036 -3863 0
-3465 4040 0
-3465 3639 0
-3465 3648 0
3465 -4040 -3639 -3648 0
-4219 3607 0
-4219 4043 0
4219 -3607 -4043 0
-4236 4046 0
-4236 3956 0
4236 -4046 -3956 0
-4143 4049 0
-4143 3748 0
4143 -4049 -3748 0
-4165 4052 0
-4165 3705 0
4165 -4052 -3705 0
-4146 4055 0
-4146 3959 0
4146 -4055 -3959 0
-4181 3648 0
-4181 4059 0
4181 -3648 -4059 0
-4149 4062 0
-4149 3956 0
4149 -4062 -3956 0
-4153 3759 0
-4153 4065 0
4153 -3759 -4065 0
-4241 4069 0
-4241 3705 0
4241 -4069 -3705 0
-4160 3736 0
-4160 4072 0
4160 -3736 -4072 0
-4213 3663 0
-4213 4075 0
4213 -3663 -4075 0
-4187 4078 0
-4187 3703 0
4187 -4078 -3703 0
-4204 4081 0
-4204 3607 0
4204 -4081 -3607 0
-4234 3759 0
-4234 4084 0
4234 -3759 -4084 0
-4162 3759 0
-4162 4087 0
4162 -3759 -4087 0
-4167 3759 0
-4167 4090 0
4167 -3759 -4090 0
-4239 4097 0
-4239 3607 0
4239 -4097 -3607 0
-4176 3639 0
-4176 4100 0
4176 -3639 -4100 0
-4230 3607 0
-4230 4104 0
4230 -3607 -4104 0
-4178 4107 0
-4178 3863 0
4178 -4107 -3863 0
-3529 3639 0
-3529 3863 0
-3529 3532 0
3529 -3639 -3863 -3532 0
-3533 4110 0
-3533 3863 0
3533 -4110 -3863 0
-4188 3639 0
-4188 4117 0
4188 -3639 -4117 0
-4214 3607 0
-4214 4120 0
4214 -3607 -4120 0
-4191 3639 0
-4191 4123 0
4191 -3639 -4123 0
-4193 4133 0
-4193 4095 0
4193 -4133 -4095 0
-4196 3639 0
-4196 4136 0
4196 -3639 -4136 0
-4201 4145 0
-4201 3639 0
4201 -4145 -3639 0
-4205 4148 0
-4205 3639 0
4205 -4148 -3639 0
-4209 3639 0
-4209 4151 0
4209 -3639 -4151 0
-4212 4156 0
-4212 3639 0
4212 -4156 -3639 0
-4218 4164 0
-4218 3639 0
4218 -4164 -3639 0
-4221 4169 0
-4221 3639 0
4221 -4169 -3639 0
-4227 4177 0
-4227 3736 0
4227 -4177 -3736 0
-4231 3639 0
-4231 4180 0
4231 -3639 -4180 0
-4233 4189 0
-4233 3648 0
4233 -4189 -3648 0
-4237 4192 0
-4237 3863 0
4237 -4192 -3863 0
-4240 3639 0
-4240 4235 0
4240 -3639 -4235 0
-4253 3585 0
-4253 3601 0
4253 -3585 -3601 0
-4247 3588 0
-4247 3601 0
4247 -3588 -3601 0
-4251 3591 0
-4251 3601 0
4251 -3591 -3601 0
-4243 3594 0
-4243 3601 0
4243 -3594 -3601 0
-4245 3597 0
-4245 3601 0
4245 -3597 -3601 0
-4249 3600 0
-4249 3601 0
4249 -3600 -3601 0
3602 -3603 0
3602 -3628 0
-3602 3603 3628 0
3605 -3736 0
3605 -3607 0
-3605 3736 3607 0
3608 -3959 0
3608 -3705 0
-3608 3959 3705 0
3611 -3705 0
3611 -3703 0
-3611 3705 3703 0
3614 -3666 0
3614 -4138 0
-3614 3666 4138 0
3617 -3959 0
3617 -4138 0
-3617 3959 4138 0
3620 -3663 0
3620 -4138 0
-3620 3663 4138 0
3623 -3624 0
3623 -3627 0
-3623 3624 3627 0
3626 -3627 0
3626 -3628 0
-3626 3627 3628 0
3629 -3630 0
3629 -3637 0
-3629 3630 3637 0
3632 -3637 0
3632 -3705 0
-3632 3637 3705 0
3687 -3636 0
3687 -3637 0
-3687 3636 3637 0
3638 -3639 0
3638 -3705 0
-3638 3639 3705 0
3641 -3648 0
3641 -3705 0
-3641 3648 3705 0
3644 -3648 0
3644 -3703 0
-3644 3648 3703 0
3647 -3648 0
3647 -3956 0
-3647 3648 3956 0
3650 -3956 0
3650 -3736 0
-3650 3956 3736 0
3653 -3666 0
3653 -3748 0
-3653 3666 3748 0
3656 -3748 0
3656 -3959 0
-3656 3748 3959 0
3702 -3748 0
3702 -4138 0
-3702 3748 4138 0
3662 -3663 0
3662 -3748 0
-3662 3663 3748 0
3665 -3666 0
3665 -3796 0
-3665 3666 3796 0
3668 -3748 0
3668 -3796 0
-3668 3748 3796 0
3717 -3796 0
3717 -4138 0
-3717 3796 4138 0
3674 -3796 0
3674 -3863 0
-3674 3796 3863 0
3677 -3748 0
3677 -3863 0
-3677 3748 3863 0
3680 -3959 0
3680 -3863 0
-3680 3959 3863 0
3683 -3959 0
3683 -3685 0
-3683 3959 3685 0
3686 -3687 0
3686 -3688 0
-3686 3687 3688 0
3689 -3690 0
3689 -3703 0
-3689 3690 3703 0
3692 -3693 0
3692 -3694 0
-3692 3693 3694 0
3695 -3696 0
3695 -4138 0
-3695 3696 4138 0
3698 -3699 0
3698 -3700 0
-3698 3699 3700 0
3701 -3702 0
3701 -3703 0
-3701 3702 3703 0
3704 -3705 0
3704 -3706 0
-3704 3705 3706 0
3707 -3708 0
3707 -3709 0
-3707 3708 3709 0
3774 -3711 0
3774 -3712 0
-3774 3711 3712 0
3713 -3717 0
3713 -3715 0
-3713 3717 3715 0
3716 -3717 0
3716 -3718 0
-3716 3717 3718 0
3719 -3959 0
3719 -3721 0
-3719 3959 3721 0
3722 -3866 0
3722 -3956 0
-3722 3866 3956 0
3725 -3726 0
3725 -3727 0
-3725 3726 3727 0
3728 -3729 0
3728 -3730 0
-3728 3729 3730 0
3731 -3732 0
3731 -3733 0
-3731 3732 3733 0
3734 -4095 0
3734 -3736 0
-3734 4095 3736 0
3737 -4138 0
3737 -3739 0
-3737 4138 3739 0
3740 -3741 0
3740 -3742 0
-3740 3741 3742 0
3743 -3744 0
3743 -3745 0
-3743 3744 3745 0
3746 -3747 0
3746 -3748 0
-3746 3747 3748 0
3749 -3750 0
3749 -3751 0
-3749 3750 3751 0
3752 -3753 0
3752 -3754 0
-3752 3753 3754 0
3755 -3756 0
3755 -3796 0
-3755 3756 3796 0
3758 -3759 0
3758 -3760 0
-3758 3759 3760 0
3761 -3762 0
3761 -3763 0
-3761 3762 3763 0
3764 -3765 0
3764 -3766 0
-3764 3765 3766 0
3767 -3768 0
3767 -3769 0
-3767 3768 3769 0
3770 -3771 0
3770 -3772 0
-3770 3771 3772 0
3773 -3774 0
3773 -3959 0
-3773 3774 3959 0
3776 -3777 0
3776 -3778 0
-3776 3777 3778 0
3779 -3786 0
3779 -3781 0
-3779 3786 3781 0
3782 -3786 0
3782 -3784 0
-3782 3786 3784 0
3785 -3786 0
3785 -3787 0
-3785 3786 3787 0
3788 -3789 0
3788 -3790 0
-3788 3789 3790 0
3791 -3792 0
3791 -3793 0
-3791 3792 3793 0
3794 -3801 0
3794 -3796 0
-3794 3801 3796 0
3797 -3801 0
3797 -3799 0
-3797 3801 3799 0
3800 -3801 0
3800 -3802 0
-3800 3801 3802 0
3803 -3804 0
3803 -3805 0
-3803 3804 3805 0
3806 -3807 0
3806 -3808 0
-3806 3807 3808 0
3809 -3810 0
3809 -3811 0
-3809 3810 3811 0
3812 -3813 0
3812 -3814 0
-3812 3813 3814 0
3815 -3816 0
3815 -3817 0
-3815 3816 3817 0
3818 -3819 0
3818 -3820 0
-3818 3819 3820 0
3821 -3822 0
3821 -3823 0
-3821 3822 3823 0
3824 -3825 0
3824 -3826 0
-3824 3825 3826 0
3827 -3828 0
3827 -3829 0
-3827 3828 3829 0
3830 -3831 0
3830 -3832 0
-3830 3831 3832 0
3833 -3834 0
3833 -3835 0
-3833 3834 3835 0
3836 -3837 0
3836 -3838 0
-3836 3837 3838 0
3839 -3840 0
3839 -3841 0
-3839 3840 3841 0
3842 -3843 0
3842 -3844 0
-3842 3843 3844 0
3845 -3846 0
3845 -3847 0
-3845 3846 3847 0
3848 -3849 0
3848 -3850 0
-3848 3849 3850 0
3851 -3852 0
3851 -3853 0
-3851 3852 3853 0
3854 -4047 0
3854 -3959 0
3854 -3857 0
-3854 4047 3959 3857 0
3858 -3859 0
3858 -3860 0
-3858 3859 3860 0
3861 -3862 0
3861 -3863 0
-3861 3862 3863 0
3864 -3865 0
3864 -3866 0
-3864 3865 3866 0
3867 -3868 0
3867 -3869 0
-3867 3868 3869 0
3870 -3871 0
3870 -3872 0
-3870 3871 3872 0
3873 -3874 0
3873 -3875 0
-3873 3874 3875 0
3876 -3877 0
3876 -3878 0
-3876 3877 3878 0
3879 -3880 0
3879 -3881 0
-3879 3880 3881 0
3882 -3883 0
3882 -3884 0
-3882 3883 3884 0
3885 -3886 0
3885 -3887 0
-3885 3886 3887 0
3888 -3889 0
3888 -3890 0
-3888 3889 3890 0
3891 -3892 0
3891 -3893 0
-3891 3892 3893 0
3894 -3895 0
3894 -3896 0
-3894 3895 3896 0
3897 -3898 0
3897 -3899 0
-3897 3898 3899 0
3900 -3901 0
3900 -3902 0
-3900 3901 3902 0
3903 -3904 0
3903 -3905 0
-3903 3904 3905 0
3906 -3907 0
3906 -3908 0
-3906 3907 3908 0
3909 -3910 0
3909 -3911 0
-3909 3910 3911 0
3912 -3913 0
3912 -3914 0
-3912 3913 3914 0
3915 -4047 0
3915 -3917 0
-3915 4047 3917 0
3918 -3919 0
3918 -3920 0
-3918 3919 3920 0
3921 -3922 0
3921 -3923 0
-3921 3922 3923 0
3924 -3925 0
3924 -3959 0
-3924 3925 3959 0
3927 -3928 0
3927 -3929 0
-3927 3928 3929 0
3930 -3931 0
3930 -3932 0
-3930 3931 3932 0
3933 -3934 0
3933 -3935 0
-3933 3934 3935 0
3936 -3937 0
3936 -3938 0
-3936 3937 3938 0
3939 -3940 0
3939 -3941 0
-3939 3940 3941 0
3942 -3943 0
3942 -3944 0
-3942 3943 3944 0
3945 -3946 0
3945 -3947 0
-3945 3946 3947 0
3948 -3949 0
3948 -3950 0
-3948 3949 3950 0
3951 -3952 0
3951 -3953 0
-3951 3952 3953 0
3954 -3955 0
3954 -3956 0
-3954 3955 3956 0
3957 -3958 0
3957 -3959 0
-3957 3958 3959 0
3960 -3961 0
3960 -3962 0
-3960 3961 3962 0
3963 -3964 0
3963 -3965 0
-3963 3964 3965 0
3966 -3967 0
3966 -3968 0
3966 -3969 0
3966 -3970 0
-3966 3967 3968 3969 3970 0
3971 -3972 0
3971 -3973 0
-3971 3972 3973 0
3974 -3975 0
3974 -3976 0
-3974 3975 3976 0
3977 -3978 0
3977 -3979 0
-3977 3978 3979 0
3980 -3981 0
3980 -3982 0
3980 -4138 0
3980 -3984 0
-3980 3981 3982 4138 3984 0
3985 -3986 0
3985 -3987 0
-3985 3986 3987 0
3988 -3989 0
3988 -3990 0
-3988 3989 3990 0
3991 -3992 0
3991 -3993 0
-3991 3992 3993 0
3994 -3995 0
3994 -3996 0
-3994 3995 3996 0
3997 -3998 0
3997 -3999 0
-3997 3998 3999 0
4000 -4001 0
4000 -4002 0
-4000 4001 4002 0
4003 -4004 0
4003 -4005 0
4003 -4006 0
-4003 4004 4005 4006 0
4007 -4008 0
4007 -4009 0
-4007 4008 4009 0
4010 -4011 0
4010 -4012 0
-4010 4011 4012 0
4013 -4014 0
4013 -4015 0
-4013 4014 4015 0
4016 -4017 0
4016 -4018 0
-4016 4017 4018 0
4019 -4020 0
4019 -4021 0
-4019 4020 4021 0
4103 -4023 0
4103 -4024 0
4103 -4025 0
-4103 4023 4024 4025 0
4026 -4027 0
4026 -4028 0
-4026 4027 4028 0
4029 -4030 0
4029 -4031 0
4029 -4032 0
-4029 4030 4031 4032 0
4033 -4034 0
4033 -4035 0
-4033 4034 4035 0
4036 -4037 0
4036 -4038 0
4036 -4039 0
-4036 4037 4038 4039 0
4040 -4041 0
4040 -4042 0
-4040 4041 4042 0
4043 -4044 0
4043 -4045 0
-4043 4044 4045 0
4046 -4047 0
4046 -4048 0
-4046 4047 4048 0
4049 -4050 0
4049 -4051 0
-4049 4050 4051 0
4052 -4053 0
4052 -4054 0
-4052 4053 4054 0
4055 -4056 0
4055 -4057 0
4055 -4058 0
-4055 4056 4057 4058 0
4059 -4060 0
4059 -4061 0
-4059 4060 4061 0
4062 -4063 0
4062 -4064 0
-4062 4063 4064 0
4065 -4066 0
4065 -4067 0
4065 -4068 0
-4065 4066 4067 4068 0
4069 -4070 0
4069 -4071 0
-4069 4070 4071 0
4072 -4073 0
4072 -4074 0
-4072 4073 4074 0
4075 -4076 0
4075 -4077 0
-4075 4076 4077 0
4078 -4079 0
4078 -4080 0
-4078 4079 4080 0
4081 -4082 0
4081 -4083 0
-4081 4082 4083 0
4084 -4085 0
4084 -4086 0
-4084 4085 4086 0
4087 -4088 0
4087 -4089 0
-4087 4088 4089 0
4090 -4091 0
4090 -4092 0
-4090 4091 4092 0
4140 -4094 0
4140 -4095 0
4140 -4096 0
-4140 4094 4095 4096 0
4097 -4098 0
4097 -4099 0
-4097 4098 4099 0
4100 -4101 0
4100 -4102 0
4100 -4103 0
-4100 4101 4102 4103 0
4104 -4105 0
4104 -4106 0
-4104 4105 4106 0
4107 -4108 0
4107 -4109 0
-4107 4108 4109 0
4110 -4111 0
4110 -4112 0
-4110 4111 4112 0
4113 -4114 0
4113 -4115 0
4113 -4116 0
-4113 4114 4115 4116 0
4117 -4118 0
4117 -4119 0
-4117 4118 4119 0
4120 -4121 0
4120 -4122 0
-4120 4121 4122 0
4123 -4124 0
4123 -4125 0
-4123 4124 4125 0
4172 -4127 0
4172 -4128 0
4172 -4129 0
-4172 4127 4128 4129 0
4130 -4131 0
4130 -4132 0
-4130 4131 4132 0
4133 -4134 0
4133 -4135 0
-4133 4134 4135 0
4136 -4137 0
4136 -4138 0
4136 -4139 0
4136 -4140 0
-4136 4137 4138 4139 4140 0
4184 -4142 0
4184 -4143 0
4184 -4144 0
-4184 4142 4143 4144 0
4145 -4146 0
4145 -4147 0
-4145 4146 4147 0
4148 -4149 0
4148 -4150 0
-4148 4149 4150 0
4151 -4152 0
4151 -4153 0
4151 -4154 0
4151 -4155 0
-4151 4152 4153 4154 4155 0
4156 -4157 0
4156 -4158 0
4156 -4159 0
4156 -4160 0
-4156 4157 4158 4159 4160 0
4161 -4162 0
4161 -4163 0
-4161 4162 4163 0
4164 -4165 0
4164 -4166 0
4164 -4167 0
4164 -4168 0
-4164 4165 4166 4167 4168 0
4169 -4170 0
4169 -4171 0
4169 -4172 0
-4169 4170 4171 4172 0
4173 -4174 0
4173 -4175 0
4173 -4176 0
-4173 4174 4175 4176 0
4177 -4178 0
4177 -4179 0
-4177 4178 4179 0
4180 -4181 0
4180 -4182 0
4180 -4183 0
4180 -4184 0
-4180 4181 4182 4183 4184 0
4185 -4186 0
4185 -4187 0
4185 -4188 0
-4185 4186 4187 4188 0
4189 -4190 0
4189 -4191 0
-4189 4190 4191 0
4192 -4193 0
4192 -4194 0
-4192 4193 4194 0
4195 -4196 0
4195 -4197 0
4195 -4198 0
-4195 4196 4197 4198 0
4199 -4200 0
4199 -4201 0
4199 -4202 0
-4199 4200 4201 4202 0
4203 -4204 0
4203 -4205 0
-4203 4204 4205 0
4206 -4207 0
4206 -4208 0
4206 -4209 0
-4206 4207 4208 4209 0
4210 -4211 0
4210 -4212 0
4210 -4213 0
4210 -4214 0
-4210 4211 4212 4213 4214 0
4215 -4216 0
4215 -4217 0
4215 -4218 0
4215 -4219 0
-4215 4216 4217 4218 4219 0
4220 -4221 0
4220 -4222 0
4220 -4223 0
4220 -4224 0
-4220 4221 4222 4223 4224 0
4225 -4226 0
4225 -4227 0
-4225 4226 4227 0
4228 -4229 0
4228 -4230 0
4228 -4231 0
-4228 4229 4230 4231 0
4232 -4233 0
4232 -4234 0
-4232 4233 4234 0
4235 -4236 0
4235 -4237 0
-4235 4236 4237 0
4238 -4239 0
4238 -4240 0
4238 -4241 0
-4238 4239 4240 4241 0
-4243 6152 0
4243 -6152 0
-4245 5717 0
4245 -5717 0
-4247 5719 0
4247 -5719 0
-4249 5973 0
4249 -5973 0
-4251 5773 0
4251 -5773 0
-4253 5621 0
4253 -5621 0
5702 5680 0
-5702 -5680 0
5358 5650 0
-5358 -5650 0
5677 5750 0
-5677 -5750 0
5644 5318 0
-5644 -5318 0
5638 5642 0
-5638 -5642 0
5641 5617 0
-5641 -5617 0
5651 5099 0
-5651 -5099 0
5653 5621 0
-5653 -5621 0
5662 5773 0
-5662 -5773 0
5970 5973 0
-5970 -5973 0
5762 5719 0
-5762 -5719 0
5810 5717 0
-5810 -5717 0
5877 6152 0
-5877 -6152 0
6108 5616 0
-6108 -5616 0
4285 5973 0
-4285 -5973 0
5720 4285 0
-5720 -4285 0
5722 5622 0
-5722 -5622 0
4291 5750 0
-4291 -5750 0
4684 4291 0
-4684 -4291 0
5880 5625 0
-5880 -5625 0
4297 5762 0
-4297 -5762 0
5747 4297 0
-5747 -4297 0
5313 5631 0
-5313 -5631 0
5147 5634 0
-5147 -5634 0
6109 5637 0
-6109 -5637 0
4307 5637 0
-4307 -5637 0
5801 4307 0
-5801 -4307 0
5174 5643 0
-5174 -5643 0
5039 5701 0
-5039 -5701 0
4802 5652 0
-4802 -5652 0
5758 5655 0
-5758 -5655 0
5761 5658 0
-5761 -5658 0
5175 5661 0
-5175 -5661 0
5767 5664 0
-5767 -5664 0
5770 5667 0
-5770 -5667 0
5830 5670 0
-5830 -5670 0
4875 5716 0
-4875 -5716 0
5056 5676 0
-5056 -5676 0
5785 5679 0
-5785 -5679 0
4929 5682 0
-4929 -5682 0
5133 5731 0
-5133 -5731 0
5800 5688 0
-5800 -5688 0
5981 5691 0
-5981 -5691 0
5815 5694 0
-5815 -5694 0
4345 5717 0
-4345 -5717 0
5141 4345 0
-5141 -4345 0
6061 5715 0
-6061 -5715 0
4351 4556 0
-4351 -4556 0
5190 4351 0
-5190 -4351 0
4355 4793 0
-4355 -4793 0
5244 4355 0
-5244 -4355 0
5972 5769 0
-5972 -5769 0
4358 5049 0
-4358 -5049 0
4360 5258 0
-4360 -5258 0
5465 5971 0
-5465 -5971 0
4364 5338 0
-4364 -5338 0
4366 6024 0
-4366 -6024 0
4368 6033 0
-4368 -6033 0
4370 5459 0
-4370 -5459 0
4372 6127 0
-4372 -6127 0
4374 5479 0
-4374 -5479 0
4376 6144 0
-4376 -6144 0
4378 5543 0
-4378 -5543 0
4380 5547 0
-4380 -5547 0
4382 6175 0
-4382 -6175 0
4384 6187 0
-4384 -6187 0
4386 6199 0
-4386 -6199 0
4388 6209 0
-4388 -6209 0
4407 6213 0
-4407 -6213 0
4392 6217 0
-4392 -6217 0
4409 6220 0
-4409 -6220 0
4411 6224 0
-4411 -6224 0
4415 6229 0
-4415 -6229 0
4417 6234 0
-4417 -6234 0
4402 6239 0
-4402 -6239 0
4419 6242 0
-4419 -6242 0
5599 4407 0
-5599 -4407 0
5602 4409 0
-5602 -4409 0
5605 4411 0
-5605 -4411 0
4412 6246 0
-4412 -6246 0
5608 4415 0
-5608 -4415 0
5611 4417 0
-5611 -4417 0
5614 4419 0
-5614 -4419 0
4420 6252 0
-4420 -6252 0
-5713 5973 0
-5713 5719 0
5713 -5973 -5719 0
-5723 5973 0
-5723 5719 0
5723 -5973 -5719 0
-5764 5773 0
-5764 5973 0
-5764 5719 0
5764 -5773 -5973 -5719 0
-5740 5773 0
-5740 5717 0
5740 -5773 -5717 0
-5725 5680 0
-5725 5717 0
5725 -5680 -5717 0
-5825 5680 0
-5825 5717 0
5825 -5680 -5717 0
-5755 5750 0
-5755 5717 0
5755 -5750 -5717 0
-5989 5973 0
-5989 5717 0
5989 -5973 -5717 0
-5699 5650 0
-5699 6152 0
5699 -5650 -6152 0
-5704 5644 0
-5704 5651 0
5704 -5644 -5651 0
-5053 5318 0
-5053 5653 0
-5053 5719 0
5053 -5318 -5653 -5719 0
-5708 5680 0
-5708 5662 0
-5708 5717 0
5708 -5680 -5662 -5717 0
-5743 5651 0
-5743 5653 0
-5743 5662 0
-5743 6152 0
5743 -5651 -5653 -5662 -6152 0
-5768 5662 0
-5768 5717 0
5768 -5662 -5717 0
-5843 5662 0
-5843 5973 0
-5843 6152 0
5843 -5662 -5973 -6152 0
-5759 5662 0
-5759 5973 0
-5759 5719 0
5759 -5662 -5973 -5719 0
-4696 5650 0
-4696 5099 0
-4696 5653 0
-4696 5662 0
4696 -5650 -5099 -5653 -5662 0
-5707 5677 0
-5707 5773 0
-5707 5970 0
5707 -5677 -5773 -5970 0
-5710 5970 0
-5710 5717 0
5710 -5970 -5717 0
-5729 5644 0
-5729 5970 0
5729 -5644 -5970 0
-5852 5653 0
-5852 5662 0
-5852 5970 0
5852 -5653 -5662 -5970 0
-5057 5621 0
-5057 5773 0
-5057 5970 0
5057 -5621 -5773 -5970 0
-5714 5662 0
-5714 5762 0
5714 -5662 -5762 0
-5828 5650 0
-5828 5762 0
-5828 6152 0
5828 -5650 -5762 -6152 0
-5861 5662 0
-5861 5762 0
-5861 5717 0
5861 -5662 -5762 -5717 0
-5849 5762 0
-5849 6152 0
5849 -5762 -6152 0
-5883 5358 0
-5883 5973 0
-5883 5762 0
5883 -5358 -5973 -5762 0
-5732 5662 0
-5732 5762 0
5732 -5662 -5762 0
-6123 5773 0
-6123 5717 0
-6123 5622 0
6123 -5773 -5717 -5622 0
-5726 5719 0
-5726 5810 0
5726 -5719 -5810 0
-5735 5099 0
-5735 5810 0
5735 -5099 -5810 0
-4792 5653 0
-4792 5973 0
-4792 5810 0
4792 -5653 -5973 -5810 0
-5786 5970 0
-5786 5810 0
5786 -5970 -5810 0
-5822 5662 0
-5822 5810 0
5822 -5662 -5810 0
-5916 5719 0
-5916 5810 0
5916 -5719 -5810 0
-5816 5973 0
-5816 5810 0
5816 -5973 -5810 0
-5834 5719 0
-5834 5810 0
5834 -5719 -5810 0
-5782 5719 0
-5782 5810 0
5782 -5719 -5810 0
-6151 5719 0
-6151 5810 0
6151 -5719 -5810 0
-4556 5773 0
-4556 5625 0
4556 -5773 -5625 0
-5837 5625 0
-5837 6152 0
5837 -5625 -6152 0
-5741 5653 0
-5741 5877 0
5741 -5653 -5877 0
-5744 5773 0
-5744 5877 0
5744 -5773 -5877 0
-5913 5653 0
-5913 5973 0
-5913 5762 0
-5913 5877 0
5913 -5653 -5973 -5762 -5877 0
-5919 5662 0
-5919 5973 0
-5919 5810 0
-5919 5877 0
5919 -5662 -5973 -5810 -5877 0
-5795 5662 0
-5795 5810 0
-5795 5877 0
5795 -5662 -5810 -5877 0
-5949 5662 0
-5949 5973 0
-5949 5762 0
-5949 5877 0
5949 -5662 -5973 -5762 -5877 0
-5798 5641 0
-5798 5810 0
-5798 5877 0
5798 -5641 -5810 -5877 0
-5925 5662 0
-5925 5810 0
-5925 5877 0
5925 -5662 -5810 -5877 0
-5813 5318 0
-5813 5762 0
-5813 5877 0
5813 -5318 -5762 -5877 0
-5807 5762 0
-5807 5877 0
5807 -5762 -5877 0
-5958 5622 0
-5958 5877 0
5958 -5622 -5877 0
-5819 5662 0
-5819 5973 0
-5819 5810 0
-5819 5877 0
5819 -5662 -5973 -5810 -5877 0
-5804 5810 0
-5804 5877 0
5804 -5810 -5877 0
-5967 5619 0
-5967 5877 0
-5967 5622 0
5967 -5619 -5877 -5622 0
-5934 5651 0
-5934 5810 0
-5934 5877 0
5934 -5651 -5810 -5877 0
-5987 5877 0
-5987 5625 0
5987 -5877 -5625 0
-6100 5621 0
-6100 5877 0
6100 -5621 -5877 0
-5871 5628 0
-5871 5717 0
5871 -5628 -5717 0
-5746 5634 0
-5746 5810 0
5746 -5634 -5810 0
-5753 5762 0
-5753 5640 0
5753 -5762 -5640 0
-5756 5643 0
-5756 5810 0
5756 -5643 -5810 0
-5777 5646 0
-5777 5810 0
-5777 5877 0
5777 -5646 -5810 -5877 0
-5955 5652 0
-5955 5641 0
-5955 5973 0
-5955 5877 0
5955 -5652 -5641 -5973 -5877 0
-5765 5661 0
-5765 5762 0
5765 -5661 -5762 0
-5780 5717 0
-5780 5664 0
5780 -5717 -5664 0
-5774 5670 0
-5774 5717 0
5774 -5670 -5717 0
-5874 5773 0
-5874 5716 0
5874 -5773 -5716 0
-5776 5717 0
-5776 5716 0
5776 -5717 -5716 0
-5779 5676 0
-5779 5810 0
5779 -5676 -5810 0
-5783 5717 0
-5783 5676 0
5783 -5717 -5676 0
-5867 5651 0
-5867 5662 0
-5867 6152 0
-5867 5722 0
5867 -5651 -5662 -6152 -5722 0
-6172 5773 0
-6172 5877 0
-6172 5722 0
6172 -5773 -5877 -5722 0
-5792 5973 0
-5792 6152 0
-5792 5682 0
5792 -5973 -6152 -5682 0
-6153 5773 0
-6153 4684 0
6153 -5773 -4684 0
-6039 5973 0
-6039 5731 0
6039 -5973 -5731 0
-5898 5099 0
-5898 6152 0
-5898 5880 0
5898 -5099 -6152 -5880 0
-5889 5973 0
-5889 5877 0
-5889 5880 0
-5889 4696 0
5889 -5973 -5877 -5880 -4696 0
-5892 5662 0
-5892 5970 0
-5892 5880 0
5892 -5662 -5970 -5880 0
-5961 5973 0
-5961 5880 0
5961 -5973 -5880 0
-5791 5318 0
-5791 5877 0
-5791 5880 0
5791 -5318 -5877 -5880 0
-6074 5651 0
-6074 5973 0
-6074 5877 0
-6074 5880 0
6074 -5651 -5973 -5877 -5880 0
-6022 5973 0
-6022 6152 0
-6022 5880 0
6022 -5973 -6152 -5880 0
-5017 5653 0
-5017 5662 0
-5017 5880 0
5017 -5653 -5662 -5880 0
-5803 5688 0
-5803 5970 0
5803 -5688 -5970 0
-5976 5722 0
-5976 5688 0
5976 -5722 -5688 0
-5806 5691 0
-5806 5970 0
5806 -5691 -5970 0
-5864 5694 0
-5864 5762 0
5864 -5694 -5762 0
-5839 5662 0
-5839 5719 0
-5839 5313 0
5839 -5662 -5719 -5313 0
-6067 5810 0
-6067 5313 0
6067 -5810 -5313 0
-6230 5773 0
-6230 5719 0
-6230 5313 0
6230 -5773 -5719 -5313 0
-5818 5697 0
-5818 5773 0
-5818 5717 0
5818 -5697 -5773 -5717 0
-5964 5147 0
-5964 5622 0
5964 -5147 -5622 0
-5821 5773 0
-5821 5717 0
-5821 6109 0
5821 -5773 -5717 -6109 0
-5846 5662 0
-5846 5970 0
-5846 5810 0
-5846 6109 0
5846 -5662 -5970 -5810 -6109 0
-5824 5762 0
-5824 6109 0
5824 -5762 -6109 0
-5827 5773 0
-5827 5877 0
-5827 6109 0
5827 -5773 -5877 -6109 0
-5831 5973 0
-5831 6109 0
5831 -5973 -6109 0
-5921 5313 0
-5921 6109 0
5921 -5313 -6109 0
-6031 5662 0
-6031 5970 0
-6031 5880 0
-6031 6109 0
6031 -5662 -5970 -5880 -6109 0
-6064 5810 0
-6064 5313 0
-6064 6109 0
6064 -5810 -5313 -6109 0
-6028 5877 0
-6028 5722 0
-6028 6109 0
6028 -5877 -5722 -6109 0
-5995 5658 0
-5995 6109 0
5995 -5658 -6109 0
-5909 5877 0
-5909 5174 0
-5909 4792 0
5909 -5877 -5174 -4792 0
-4793 5318 0
-4793 6152 0
-4793 5700 0
4793 -5318 -6152 -5700 0
-5833 5703 0
-5833 5762 0
5833 -5703 -5762 0
-5836 5877 0
-5836 4802 0
5836 -5877 -4802 0
-5840 5973 0
-5840 5717 0
-5840 5758 0
5840 -5973 -5717 -5758 0
-5886 5677 0
-5886 5621 0
-5886 5758 0
5886 -5677 -5621 -5758 0
-5842 5677 0
-5842 5877 0
-5842 5761 0
5842 -5677 -5877 -5761 0
-5900 6152 0
-5900 5761 0
5900 -6152 -5761 0
-5942 5877 0
-5942 5761 0
5942 -5877 -5761 0
-5903 5631 0
-5903 5761 0
5903 -5631 -5761 0
-5845 5750 0
-5845 5175 0
5845 -5750 -5175 0
-5848 5877 0
-5848 5175 0
5848 -5877 -5175 0
-5851 5717 0
-5851 5175 0
5851 -5717 -5175 0
-5855 5773 0
-5855 5767 0
5855 -5773 -5767 0
-5858 5773 0
-5858 5717 0
-5858 5767 0
5858 -5773 -5717 -5767 0
-6048 5773 0
-6048 5717 0
-6048 5767 0
6048 -5773 -5717 -5767 0
-6149 5773 0
-6149 5717 0
-6149 5767 0
6149 -5773 -5717 -5767 0
-6126 5653 0
-6126 5719 0
-6126 5706 0
6126 -5653 -5719 -5706 0
-6115 5762 0
-6115 5709 0
6115 -5762 -5709 0
-5854 5662 0
-5854 5970 0
-5854 5770 0
5854 -5662 -5970 -5770 0
-5857 5662 0
-5857 5970 0
-5857 5770 0
5857 -5662 -5970 -5770 0
-5860 5761 0
-5860 5830 0
5860 -5761 -5830 0
-5863 6152 0
-5863 5830 0
5863 -6152 -5830 0
-5866 5099 0
-5866 4875 0
-5866 5175 0
5866 -5099 -4875 -5175 0
-5927 5679 0
-5927 4875 0
5927 -5679 -4875 0
-6045 5715 0
-6045 5973 0
6045 -5715 -5973 0
-5873 5877 0
-5873 5056 0
5873 -5877 -5056 0
-5894 5810 0
-5894 5056 0
5894 -5810 -5056 0
-6077 5810 0
-6077 5877 0
-6077 5056 0
6077 -5810 -5877 -5056 0
-6208 5718 0
-6208 5750 0
-6208 5773 0
-6208 5717 0
6208 -5718 -5750 -5773 -5717 0
-6053 5721 0
-6053 5662 0
-6053 5717 0
6053 -5721 -5662 -5717 0
-5876 5970 0
-5876 4929 0
5876 -5970 -4929 0
-5879 5702 0
-5879 4929 0
5879 -5702 -4929 0
-5945 5973 0
-5945 4929 0
5945 -5973 -4929 0
-5882 5970 0
-5882 4929 0
5882 -5970 -4929 0
-5885 5641 0
-5885 5653 0
-5885 5662 0
-5885 4929 0
5885 -5641 -5653 -5662 -4929 0
-5888 5773 0
-5888 5970 0
-5888 4929 0
5888 -5773 -5970 -4929 0
-5891 5680 0
-5891 5701 0
-5891 5773 0
-5891 4929 0
5891 -5680 -5701 -5773 -4929 0
-5906 5970 0
-5906 4929 0
5906 -5970 -4929 0
-5992 5662 0
-5992 4929 0
5992 -5662 -4929 0
-5895 5788 0
-5895 5662 0
5895 -5788 -5662 0
-5897 5680 0
-5897 5719 0
-5897 5133 0
5897 -5680 -5719 -5133 0
-5901 5662 0
-5901 5973 0
-5901 5133 0
5901 -5662 -5973 -5133 0
-5952 5719 0
-5952 5133 0
5952 -5719 -5133 0
-5904 5662 0
-5904 5133 0
5904 -5662 -5133 0
-6041 5762 0
-6041 5133 0
6041 -5762 -5133 0
-6006 5719 0
-6006 5133 0
6006 -5719 -5133 0
-6097 5655 0
-6097 5973 0
-6097 5133 0
6097 -5655 -5973 -5133 0
-6058 5973 0
-6058 5719 0
-6058 5133 0
6058 -5973 -5719 -5133 0
-6003 5662 0
-6003 5762 0
-6003 5133 0
6003 -5662 -5762 -5133 0
-6084 5650 0
-6084 5973 0
-6084 5133 0
6084 -5650 -5973 -5133 0
-5978 5970 0
-5978 5133 0
-5978 6109 0
-5978 5770 0
5978 -5970 -5133 -6109 -5770 0
-6112 5662 0
-6112 5762 0
-6112 5133 0
6112 -5662 -5762 -5133 0
-6138 5973 0
-6138 5719 0
-6138 5133 0
6138 -5973 -5719 -5133 0
-6120 5133 0
-6120 5670 0
6120 -5133 -5670 0
-6105 5973 0
-6105 5762 0
-6105 5133 0
6105 -5973 -5762 -5133 0
-6128 5662 0
-6128 5762 0
-6128 5133 0
6128 -5662 -5762 -5133 0
-6135 5712 0
-6135 5133 0
6135 -5712 -5133 0
-6204 5722 0
-6204 5133 0
6204 -5722 -5133 0
-6018 5727 0
-6018 5762 0
6018 -5727 -5762 0
-5984 5973 0
-5984 5730 0
5984 -5973 -5730 0
-5907 5733 0
-5907 5762 0
5907 -5733 -5762 0
-6129 5736 0
-6129 5773 0
6129 -5736 -5773 0
-6211 5773 0
-6211 5736 0
6211 -5773 -5736 0
-6240 5313 0
-6240 6109 0
-6240 5017 0
6240 -5313 -6109 -5017 0
-5910 5750 0
-5910 5621 0
-5910 5970 0
-5910 5800 0
5910 -5750 -5621 -5970 -5800 0
-5912 5621 0
-5912 5773 0
-5912 5800 0
-5912 5830 0
5912 -5621 -5773 -5800 -5830 0
-5915 5762 0
-5915 5800 0
5915 -5762 -5800 0
-5918 5677 0
-5918 5773 0
-5918 5800 0
5918 -5677 -5773 -5800 0
-5922 5318 0
-5922 5773 0
-5922 5800 0
-5922 5039 0
5922 -5318 -5773 -5800 -5039 0
-5924 5099 0
-5924 5800 0
5924 -5099 -5800 0
-5928 5762 0
-5928 5800 0
5928 -5762 -5800 0
-5936 5773 0
-5936 5800 0
5936 -5773 -5800 0
-5049 5800 0
-5049 5175 0
-5049 5701 0
-5049 5053 0
5049 -5800 -5175 -5701 -5053 0
-6034 5800 0
-6034 5056 0
-6034 5057 0
6034 -5800 -5056 -5057 0
-5931 5762 0
-5931 5800 0
5931 -5762 -5800 0
-6055 5973 0
-6055 5719 0
-6055 5800 0
6055 -5973 -5719 -5800 0
-6087 5358 0
-6087 5762 0
-6087 5800 0
6087 -5358 -5762 -5800 0
-5933 5700 0
-5933 5318 0
-5933 5800 0
5933 -5700 -5318 -5800 0
-6171 5973 0
-6171 5800 0
6171 -5973 -5800 0
-5937 5358 0
-5937 5739 0
5937 -5358 -5739 0
-5939 5644 0
-5939 5981 0
5939 -5644 -5981 0
-6015 5810 0
-6015 5981 0
6015 -5810 -5981 0
-6000 5810 0
-6000 5981 0
6000 -5810 -5981 0
-6197 5973 0
-6197 5810 0
-6197 5981 0
6197 -5973 -5810 -5981 0
-6143 5810 0
-6143 5981 0
6143 -5810 -5981 0
-5943 5644 0
-5943 5742 0
5943 -5644 -5742 0
-5946 5099 0
-5946 5880 0
-5946 5815 0
5946 -5099 -5880 -5815 0
-5948 5810 0
-5948 5815 0
5948 -5810 -5815 0
-5951 5621 0
-5951 5815 0
5951 -5621 -5815 0
-5954 5621 0
-5954 5719 0
-5954 5815 0
5954 -5621 -5719 -5815 0
-5957 5762 0
-5957 5815 0
5957 -5762 -5815 0
-5960 5682 0
-5960 5815 0
5960 -5682 -5815 0
-5963 5719 0
-5963 5815 0
5963 -5719 -5815 0
-5966 5719 0
-5966 5815 0
5966 -5719 -5815 0
-6012 5621 0
-6012 5773 0
-6012 5815 0
6012 -5621 -5773 -5815 0
-6081 5745 0
-6081 5970 0
6081 -5745 -5970 0
-5969 5748 0
-5969 5133 0
5969 -5748 -5133 0
-5982 5751 0
-5982 5810 0
5982 -5751 -5810 0
-5998 5773 0
-5998 5754 0
5998 -5773 -5754 0
-6222 5141 0
-6222 5621 0
-6222 5973 0
-6222 5877 0
6222 -5141 -5621 -5973 -5877 0
-6166 5757 0
-6166 5147 0
6166 -5757 -5147 0
-6072 5760 0
-6072 6152 0
6072 -5760 -6152 0
-6094 5621 0
-6094 5877 0
-6094 5763 0
6094 -5621 -5877 -5763 0
-6116 5766 0
-6116 5640 0
6116 -5766 -5640 0
-6212 5621 0
-6212 5877 0
-6212 5772 0
6212 -5621 -5877 -5772 0
-5975 5973 0
-5975 6061 0
5975 -5973 -6061 0
-6025 5621 0
-6025 6061 0
-6025 5175 0
6025 -5621 -6061 -5175 0
-6009 5970 0
-6009 6061 0
6009 -5970 -6061 0
-6132 6061 0
-6132 5174 0
-6132 5175 0
6132 -6061 -5174 -5175 0
-5979 5775 0
-5979 5973 0
5979 -5775 -5973 0
-5983 5773 0
-5983 5778 0
5983 -5773 -5778 0
-5986 5970 0
-5986 5781 0
5986 -5970 -5781 0
-5990 5653 0
-5990 5784 0
5990 -5653 -5784 0
-5993 5621 0
-5993 5190 0
5993 -5621 -5190 0
-5996 5787 0
-5996 5662 0
5996 -5787 -5662 0
-6158 5773 0
-6158 5790 0
6158 -5773 -5790 0
-6071 5644 0
-6071 5793 0
6071 -5644 -5793 0
-6001 5796 0
-6001 5762 0
6001 -5796 -5762 0
-6082 5799 0
-6082 5762 0
6082 -5799 -5762 0
-6004 5802 0
-6004 5773 0
-6004 5719 0
6004 -5802 -5773 -5719 0
-6103 5805 0
-6103 5621 0
-6103 5810 0
6103 -5805 -5621 -5810 0
-6007 5808 0
-6007 5762 0
6007 -5808 -5762 0
-6225 5811 0
-6225 5761 0
6225 -5811 -5761 0
-6188 5814 0
-6188 5758 0
6188 -5814 -5758 0
-6010 5817 0
-6010 5762 0
6010 -5817 -5762 0
-6013 5820 0
-6013 5653 0
-6013 5973 0
-6013 5877 0
6013 -5820 -5653 -5973 -5877 0
-6016 5823 0
-6016 5877 0
6016 -5823 -5877 0
-6091 5653 0
-6091 5717 0
-6091 5826 0
6091 -5653 -5717 -5826 0
-6019 5677 0
-6019 5877 0
-6019 5829 0
6019 -5677 -5877 -5829 0
-6020 5973 0
-6020 5244 0
6020 -5973 -5244 0
-6046 5832 0
-6046 6152 0
6046 -5832 -6152 0
-6023 5835 0
-6023 5970 0
6023 -5835 -5970 0
-6196 5838 0
-6196 5637 0
6196 -5838 -5637 0
-6026 5841 0
-6026 5653 0
-6026 5762 0
6026 -5841 -5653 -5762 0
-5258 5844 0
-5258 5653 0
-5258 5762 0
-5258 5877 0
5258 -5844 -5653 -5762 -5877 0
-6029 5644 0
-6029 5847 0
6029 -5644 -5847 0
-6051 5850 0
-6051 6109 0
6051 -5850 -6109 0
-6032 5853 0
-6032 5616 0
-6032 5717 0
6032 -5853 -5616 -5717 0
-6164 5640 0
-6164 5856 0
-6164 5877 0
6164 -5640 -5856 -5877 0
-6238 5621 0
-6238 5877 0
-6238 5859 0
6238 -5621 -5877 -5859 0
-6221 5862 0
-6221 5761 0
6221 -5862 -5761 0
-6035 5865 0
-6035 5318 0
-6035 5653 0
-6035 5810 0
6035 -5865 -5318 -5653 -5810 0
-6038 5662 0
-6038 5868 0
6038 -5662 -5868 0
-6037 5872 0
-6037 5810 0
6037 -5872 -5810 0
-6042 5875 0
-6042 5773 0
6042 -5875 -5773 0
-6044 5877 0
-6044 5878 0
-6044 6109 0
6044 -5877 -5878 -6109 0
-6049 5662 0
-6049 5970 0
-6049 5878 0
6049 -5662 -5970 -5878 0
-6185 5662 0
-6185 5877 0
-6185 5881 0
6185 -5662 -5877 -5881 0
-6200 5702 0
-6200 5884 0
-6200 5313 0
6200 -5702 -5884 -5313 0
-6231 5677 0
-6231 5887 0
6231 -5677 -5887 0
-6180 5318 0
-6180 5890 0
-6180 6152 0
6180 -5318 -5890 -6152 0
-6052 5653 0
-6052 5893 0
-6052 5970 0
6052 -5653 -5893 -5970 0
-6056 5896 0
-6056 5970 0
6056 -5896 -5970 0
-6236 5899 0
-6236 5762 0
6236 -5899 -5762 0
-6059 5902 0
-6059 5762 0
6059 -5902 -5762 0
-6169 5662 0
-6169 6152 0
-6169 5905 0
6169 -5662 -6152 -5905 0
-5338 5908 0
-5338 5773 0
-5338 5719 0
5338 -5908 -5773 -5719 0
-6237 5750 0
-6237 5911 0
6237 -5750 -5911 0
-6062 5914 0
-6062 5662 0
6062 -5914 -5662 0
-6184 5973 0
-6184 5914 0
6184 -5973 -5914 0
-6065 5358 0
-6065 5917 0
6065 -5358 -5917 0
-6068 5702 0
-6068 5920 0
6068 -5702 -5920 0
-6070 5358 0
-6070 5923 0
6070 -5358 -5923 0
-6075 5926 0
-6075 5970 0
6075 -5926 -5970 0
-6078 5929 0
-6078 5662 0
6078 -5929 -5662 0
-6080 5932 0
-6080 5973 0
6080 -5932 -5973 0
-6085 5935 0
-6085 5970 0
6085 -5935 -5970 0
-6088 5938 0
-6088 5662 0
6088 -5938 -5662 0
-6243 5941 0
-6243 5722 0
6243 -5941 -5722 0
-6182 5662 0
-6182 5944 0
6182 -5662 -5944 0
-6141 5651 0
-6141 5947 0
6141 -5651 -5947 0
-6090 5950 0
-6090 5773 0
6090 -5950 -5773 0
-6093 5677 0
-6093 5773 0
-6093 5953 0
6093 -5677 -5773 -5953 0
-6096 5956 0
-6096 5761 0
6096 -5956 -5761 0
-6216 5621 0
-6216 5959 0
-6216 5773 0
6216 -5621 -5959 -5773 0
-6099 5962 0
-6099 5717 0
6099 -5962 -5717 0
-6102 5965 0
-6102 5717 0
6102 -5965 -5717 0
-6106 5968 0
-6106 5719 0
6106 -5968 -5719 0
-6110 5971 0
-6110 5662 0
6110 -5971 -5662 0
-6113 5974 0
-6113 5773 0
6113 -5974 -5773 0
-6161 5662 0
-6161 5977 0
6161 -5662 -5977 0
-6146 5653 0
-6146 5980 0
6146 -5653 -5980 0
-6119 5773 0
-6119 5985 0
6119 -5773 -5985 0
-6122 5988 0
-6122 5719 0
6122 -5988 -5719 0
-6125 5991 0
-6125 5973 0
6125 -5991 -5973 0
-6130 5653 0
-6130 5994 0
6130 -5653 -5994 0
-6133 5999 0
-6133 5662 0
-6133 5970 0
6133 -5999 -5662 -5970 0
-6189 5621 0
-6189 6002 0
6189 -5621 -6002 0
-6136 5773 0
-6136 6005 0
6136 -5773 -6005 0
-6156 5750 0
-6156 6008 0
6156 -5750 -6008 0
-6214 5677 0
-6214 6011 0
6214 -5677 -6011 0
-6139 6014 0
-6139 5970 0
6139 -6014 -5970 0
-6142 5773 0
-6142 6017 0
6142 -5773 -6017 0
-6145 6021 0
-6145 5773 0
6145 -6021 -5773 0
-6168 6027 0
-6168 5810 0
6168 -6027 -5810 0
-5459 6030 0
-5459 5653 0
-5459 5877 0
5459 -6030 -5653 -5877 0
-6148 5662 0
-6148 5465 0
6148 -5662 -5465 0
-6193 5621 0
-6193 6040 0
6193 -5621 -6040 0
-6173 6043 0
-6173 5662 0
6173 -6043 -5662 0
-5546 6047 0
-5546 5642 0
-5546 5641 0
5546 -6047 -5642 -5641 0
-6177 6050 0
-6177 5877 0
6177 -6050 -5877 0
-5479 6054 0
-5479 5653 0
-5479 5662 0
5479 -6054 -5653 -5662 0
-6233 5621 0
-6233 6057 0
6233 -5621 -6057 0
-6250 6060 0
-6250 5970 0
6250 -6060 -5970 0
-6157 6063 0
-6157 5762 0
6157 -6063 -5762 0
-6179 6066 0
-6179 5719 0
6179 -6066 -5719 0
-6160 6069 0
-6160 5973 0
6160 -6069 -5973 0
-6195 5662 0
-6195 6073 0
6195 -5662 -6073 0
-6163 6076 0
-6163 5970 0
6163 -6076 -5970 0
-6167 5773 0
-6167 6079 0
6167 -5773 -6079 0
-6255 6083 0
-6255 5719 0
6255 -6083 -5719 0
-6174 5750 0
-6174 6086 0
6174 -5750 -6086 0
-6227 5677 0
-6227 6089 0
6227 -5677 -6089 0
-6201 6092 0
-6201 5717 0
6201 -6092 -5717 0
-6218 6095 0
-6218 5621 0
6218 -6095 -5621 0
-6248 5773 0
-6248 6098 0
6248 -5773 -6098 0
-6176 5773 0
-6176 6101 0
6176 -5773 -6101 0
-6181 5773 0
-6181 6104 0
6181 -5773 -6104 0
-6253 6111 0
-6253 5621 0
6253 -6111 -5621 0
-6190 5653 0
-6190 6114 0
6190 -5653 -6114 0
-6244 5621 0
-6244 6118 0
6244 -5621 -6118 0
-6192 6121 0
-6192 5877 0
6192 -6121 -5877 0
-5543 5653 0
-5543 5877 0
-5543 5546 0
5543 -5653 -5877 -5546 0
-5547 6124 0
-5547 5877 0
5547 -6124 -5877 0
-6202 5653 0
-6202 6131 0
6202 -5653 -6131 0
-6228 5621 0
-6228 6134 0
6228 -5621 -6134 0
-6205 5653 0
-6205 6137 0
6205 -5653 -6137 0
-6207 6147 0
-6207 6109 0
6207 -6147 -6109 0
-6210 5653 0
-6210 6150 0
6210 -5653 -6150 0
-6215 6159 0
-6215 5653 0
6215 -6159 -5653 0
-6219 6162 0
-6219 5653 0
6219 -6162 -5653 0
-6223 5653 0
-6223 6165 0
6223 -5653 -6165 0
-6226 6170 0
-6226 5653 0
6226 -6170 -5653 0
-6232 6178 0
-6232 5653 0
6232 -6178 -5653 0
-6235 6183 0
-6235 5653 0
6235 -6183 -5653 0
-6241 6191 0
-6241 5750 0
6241 -6191 -5750 0
-6245 5653 0
-6245 6194 0
6245 -5653 -6194 0
-6247 6203 0
-6247 5662 0
6247 -6203 -5662 0
-6251 6206 0
-6251 5877 0
6251 -6206 -5877 0
-6254 5653 0
-6254 6249 0
6254 -5653 -6249 0
-6267 5599 0
-6267 5615 0
6267 -5599 -5615 0
-6261 5602 0
-6261 5615 0
6261 -5602 -5615 0
-6265 5605 0
-6265 5615 0
6265 -5605 -5615 0
-6257 5608 0
-6257 5615 0
6257 -5608 -5615 0
-6259 5611 0
-6259 5615 0
6259 -5611 -5615 0
-6263 5614 0
-6263 5615 0
6263 -5614 -5615 0
5616 -5617 0
5616 -5642 0
-5616 5617 5642 0
5619 -5750 0
5619 -5621 0
-5619 5750 5621 0
5622 -5973 0
5622 -5719 0
-5622 5973 5719 0
5625 -5719 0
5625 -5717 0
-5625 5719 5717 0
5628 -5680 0
5628 -6152 0
-5628 5680 6152 0
5631 -5973 0
5631 -6152 0
-5631 5973 6152 0
5634 -5677 0
5634 -6152 0
-5634 5677 6152 0
5637 -5638 0
5637 -5641 0
-5637 5638 5641 0
5640 -5641 0
5640 -5642 0
-5640 5641 5642 0
5643 -5644 0
5643 -5651 0
-5643 5644 5651 0
5646 -5651 0
5646 -5719 0
-5646 5651 5719 0
5701 -5650 0
5701 -5651 0
-5701 5650 5651 0
5652 -5653 0
5652 -5719 0
-5652 5653 5719 0
5655 -5662 0
5655 -5719 0
-5655 5662 5719 0
5658 -5662 0
5658 -5717 0
-5658 5662 5717 0
5661 -5662 0
5661 -5970 0
-5661 5662 5970 0
5664 -5970 0
5664 -5750 0
-5664 5970 5750 0
5667 -5680 0
5667 -5762 0
-5667 5680 5762 0
5670 -5762 0
5670 -5973 0
-5670 5762 5973 0
5716 -5762 0
5716 -6152 0
-5716 5762 6152 0
5676 -5677 0
5676 -5762 0
-5676 5677 5762 0
5679 -5680 0
5679 -5810 0
-5679 5680 5810 0
5682 -5762 0
5682 -5810 0
-5682 5762 5810 0
5731 -5810 0
5731 -6152 0
-5731 5810 6152 0
5688 -5810 0
5688 -5877 0
-5688 5810 5877 0
5691 -5762 0
5691 -5877 0
-5691 5762 5877 0
5694 -5973 0
5694 -5877 0
-5694 5973 5877 0
5697 -5973 0
5697 -5699 0
-5697 5973 5699 0
5700 -5701 0
5700 -5702 0
-5700 5701 5702 0
5703 -5704 0
5703 -5717 0
-5703 5704 5717 0
5706 -5707 0
5706 -5708 0
-5706 5707 5708 0
5709 -5710 0
5709 -6152 0
-5709 5710 6152 0
5712 -5713 0
5712 -5714 0
-5712 5713 5714 0
5715 -5716 0
5715 -5717 0
-5715 5716 5717 0
5718 -5719 0
5718 -5720 0
-5718 5719 5720 0
5721 -5722 0
5721 -5723 0
-5721 5722 5723 0
5788 -5725 0
5788 -5726 0
-5788 5725 5726 0
5727 -5731 0
5727 -5729 0
-5727 5731 5729 0
5730 -5731 0
5730 -5732 0
-5730 5731 5732 0
5733 -5973 0
5733 -5735 0
-5733 5973 5735 0
5736 -5880 0
5736 -5970 0
-5736 5880 5970 0
5739 -5740 0
5739 -5741 0
-5739 5740 5741 0
5742 -5743 0
5742 -5744 0
-5742 5743 5744 0
5745 -5746 0
5745 -5747 0
-5745 5746 5747 0
5748 -6109 0
5748 -5750 0
-5748 6109 5750 0
5751 -6152 0
5751 -5753 0
-5751 6152 5753 0
5754 -5755 0
5754 -5756 0
-5754 5755 5756 0
5757 -5758 0
5757 -5759 0
-5757 5758 5759 0
5760 -5761 0
5760 -5762 0
-5760 5761 5762 0
5763 -5764 0
5763 -5765 0
-5763 5764 5765 0
5766 -5767 0
5766 -5768 0
-5766 5767 5768 0
5769 -5770 0
5769 -5810 0
-5769 5770 5810 0
5772 -5773 0
5772 -5774 0
-5772 5773 5774 0
5775 -5776 0
5775 -5777 0
-5775 5776 5777 0
5778 -5779 0
5778 -5780 0
-5778 5779 5780 0
5781 -5782 0
5781 -5783 0
-5781 5782 5783 0
5784 -5785 0
5784 -5786 0
-5784 5785 5786 0
5787 -5788 0
5787 -5973 0
-5787 5788 5973 0
5790 -5791 0
5790 -5792 0
-5790 5791 5792 0
5793 -5800 0
5793 -5795 0
-5793 5800 5795 0
5796 -5800 0
5796 -5798 0
-5796 5800 5798 0
5799 -5800 0
5799 -5801 0
-5799 5800 5801 0
5802 -5803 0
5802 -5804 0
-5802 5803 5804 0
5805 -5806 0
5805 -5807 0
-5805 5806 5807 0
5808 -5815 0
5808 -5810 0
-5808 5815 5810 0
5811 -5815 0
5811 -5813 0
-5811 5815 5813 0
5814 -5815 0
5814 -5816 0
-5814 5815 5816 0
5817 -5818 0
5817 -5819 0
-5817 5818 5819 0
5820 -5821 0
5820 -5822 0
-5820 5821 5822 0
5823 -5824 0
5823 -5825 0
-5823 5824 5825 0
5826 -5827 0
5826 -5828 0
-5826 5827 5828 0
5829 -5830 0
5829 -5831 0
-5829 5830 5831 0
5832 -5833 0
5832 -5834 0
-5832 5833 5834 0
5835 -5836 0
5835 -5837 0
-5835 5836 5837 0
5838 -5839 0
5838 -5840 0
-5838 5839 5840 0
5841 -5842 0
5841 -5843 0
-5841 5842 5843 0
5844 -5845 0
5844 -5846 0
-5844 5845 5846 0
5847 -5848 0
5847 -5849 0
-5847 5848 5849 0
5850 -5851 0
5850 -5852 0
-5850 5851 5852 0
5853 -5854 0
5853 -5855 0
-5853 5854 5855 0
5856 -5857 0
5856 -5858 0
-5856 5857 5858 0
5859 -5860 0
5859 -5861 0
-5859 5860 5861 0
5862 -5863 0
5862 -5864 0
-5862 5863 5864 0
5865 -5866 0
5865 -5867 0
-5865 5866 5867 0
5868 -6061 0
5868 -5973 0
5868 -5871 0
-5868 6061 5973 5871 0
5872 -5873 0
5872 -5874 0
-5872 5873 5874 0
5875 -5876 0
5875 -5877 0
-5875 5876 5877 0
5878 -5879 0
5878 -5880 0
-5878 5879 5880 0
5881 -5882 0
5881 -5883 0
-5881 5882 5883 0
5884 -5885 0
5884 -5886 0
-5884 5885 5886 0
5887 -5888 0
5887 -5889 0
-5887 5888 5889 0
5890 -5891 0
5890 -5892 0
-5890 5891 5892 0
5893 -5894 0
5893 -5895 0
-5893 5894 5895 0
5896 -5897 0
5896 -5898 0
-5896 5897 5898 0
5899 -5900 0
5899 -5901 0
-5899 5900 5901 0
5902 -5903 0
5902 -5904 0
-5902 5903 5904 0
5905 -5906 0
5905 -5907 0
-5905 5906 5907 0
5908 -5909 0
5908 -5910 0
-5908 5909 5910 0
5911 -5912 0
5911 -5913 0
-5911 5912 5913 0
5914 -5915 0
5914 -5916 0
-5914 5915 5916 0
5917 -5918 0
5917 -5919 0
-5917 5918 5919 0
5920 -5921 0
5920 -5922 0
-5920 5921 5922 0
5923 -5924 0
5923 -5925 0
-5923 5924 5925 0
5926 -5927 0
5926 -5928 0
-5926 5927 5928 0
5929 -6061 0
5929 -5931 0
-5929 6061 5931 0
5932 -5933 0
5932 -5934 0
-5932 5933 5934 0
5935 -5936 0
5935 -5937 0
-5935 5936 5937 0
5938 -5939 0
5938 -5973 0
-5938 5939 5973 0
5941 -5942 0
5941 -5943 0
-5941 5942 5943 0
5944 -5945 0
5944 -5946 0
-5944 5945 5946 0
5947 -5948 0
5947 -5949 0
-5947 5948 5949 0
5950 -5951 0
5950 -5952 0
-5950 5951 5952 0
5953 -5954 0
5953 -5955 0
-5953 5954 5955 0
5956 -5957 0
5956 -5958 0
-5956 5957 5958 0
5959 -5960 0
5959 -5961 0
-5959 5960 5961 0
5962 -5963 0
5962 -5964 0
-5962 5963 5964 0
5965 -5966 0
5965 -5967 0
-5965 5966 5967 0
5968 -5969 0
5968 -5970 0
-5968 5969 5970 0
5971 -5972 0
5971 -5973 0
-5971 5972 5973 0
5974 -5975 0
5974 -5976 0
-5974 5975 5976 0
5977 -5978 0
5977 -5979 0
-5977 5978 5979 0
5980 -5981 0
5980 -5982 0
5980 -5983 0
5980 -5984 0
-5980 5981 5982 5983 5984 0
5985 -5986 0
5985 -5987 0
-5985 5986 5987 0
5988 -5989 0
5988 -5990 0
-5988 5989 5990 0
5991 -5992 0
5991 -5993 0
-5991 5992 5993 0
5994 -5995 0
5994 -5996 0
5994 -6152 0
5994 -5998 0
-5994 5995 5996 6152 5998 0
5999 -6000 0
5999 -6001 0
-5999 6000 6001 0
6002 -6003 0
6002 -6004 0
-6002 6003 6004 0
6005 -6006 0
6005 -6007 0
-6005 6006 6007 0
6008 -6009 0
6008 -6010 0
-6008 6009 6010 0
6011 -6012 0
6011 -6013 0
-6011 6012 6013 0
6014 -6015 0
6014 -6016 0
-6014 6015 6016 0
6017 -6018 0
6017 -6019 0
6017 -6020 0
-6017 6018 6019 6020 0
6021 -6022 0
6021 -6023 0
-6021 6022 6023 0
6024 -6025 0
6024 -6026 0
-6024 6025 6026 0
6027 -6028 0
6027 -6029 0
-6027 6028 6029 0
6030 -6031 0
6030 -6032 0
-6030 6031 6032 0
6033 -6034 0
6033 -6035 0
-6033 6034 6035 0
6117 -6037 0
6117 -6038 0
6117 -6039 0
-6117 6037 6038 6039 0
6040 -6041 0
6040 -6042 0
-6040 6041 6042 0
6043 -6044 0
6043 -6045 0
6043 -6046 0
-6043 6044 6045 6046 0
6047 -6048 0
6047 -6049 0
-6047 6048 6049 0
6050 -6051 0
6050 -6052 0
6050 -6053 0
-6050 6051 6052 6053 0
6054 -6055 0
6054 -6056 0
-6054 6055 6056 0
6057 -6058 0
6057 -6059 0
-6057 6058 6059 0
6060 -6061 0
6060 -6062 0
-6060 6061 6062 0
6063 -6064 0
6063 -6065 0
-6063 6064 6065 0
6066 -6067 0
6066 -6068 0
-6066 6067 6068 0
6069 -6070 0
6069 -6071 0
6069 -6072 0
-6069 6070 6071 6072 0
6073 -6074 0
6073 -6075 0
-6073 6074 6075 0
6076 -6077 0
6076 -6078 0
-6076 6077 6078 0
6079 -6080 0
6079 -6081 0
6079 -6082 0
-6079 6080 6081 6082 0
6083 -6084 0
6083 -6085 0
-6083 6084 6085 0
6086 -6087 0
6086 -6088 0
-6086 6087 6088 0
6089 -6090 0
6089 -6091 0
-6089 6090 6091 0
6092 -6093 0
6092 -6094 0
-6092 6093 6094 0
6095 -6096 0
6095 -6097 0
-6095 6096 6097 0
6098 -6099 0
6098 -6100 0
-6098 6099 6100 0
6101 -6102 0
6101 -6103 0
-6101 6102 6103 0
6104 -6105 0
6104 -6106 0
-6104 6105 6106 0
6154 -6108 0
6154 -6109 0
6154 -6110 0
-6154 6108 6109 6110 0
6111 -6112 0
6111 -6113 0
-6111 6112 6113 0
6114 -6115 0
6114 -6116 0
6114 -6117 0
-6114 6115 6116 6117 0
6118 -6119 0
6118 -6120 0
-6118 6119 6120 0
6121 -6122 0
6121 -6123 0
-6121 6122 6123 0
6124 -6125 0
6124 -6126 0
-6124 6125 6126 0
6127 -6128 0
6127 -6129 0
6127 -6130 0
-6127 6128 6129 6130 0
6131 -6132 0
6131 -6133 0
-6131 6132 6133 0
6134 -6135 0
6134 -6136 0
-6134 6135 6136 0
6137 -6138 0
6137 -6139 0
-6137 6138 6139 0
6186 -6141 0
6186 -6142 0
6186 -6143 0
-6186 6141 6142 6143 0
6144 -6145 0
6144 -6146 0
-6144 6145 6146 0
6147 -6148 0
6147 -6149 0
-6147 6148 6149 0
6150 -6151 0
6150 -6152 0
6150 -6153 0
6150 -6154 0
-6150 6151 6152 6153 6154 0
6198 -6156 0
6198 -6157 0
6198 -6158 0
-6198 6156 6157 6158 0
6159 -6160 0
6159 -6161 0
-6159 6160 6161 0
6162 -6163 0
6162 -6164 0
-6162 6163 6164 0
6165 -6166 0
6165 -6167 0
6165 -6168 0
6165 -6169 0
-6165 6166 6167 6168 6169 0
6170 -6171 0
6170 -6172 0
6170 -6173 0
6170 -6174 0
-6170 6171 6172 6173 6174 0
6175 -6176 0
6175 -6177 0
-6175 6176 6177 0
6178 -6179 0
6178 -6180 0
6178 -6181 0
6178 -6182 0
-6178 6179 6180 6181 6182 0
6183 -6184 0
6183 -6185 0
6183 -6186 0
-6183 6184 6185 6186 0
6187 -6188 0
6187 -6189 0
6187 -6190 0
-6187 6188 6189 6190 0
6191 -6192 0
6191 -6193 0
-6191 6192 6193 0
6194 -6195 0
6194 -6196 0
6194 -6197 0
6194 -6198 0
-6194 6195 6196 6197 6198 0
6199 -6200 0
6199 -6201 0
6199 -6202 0
-6199 6200 6201 6202 0
6203 -6204 0
6203 -6205 0
-6203 6204 6205 0
6206 -6207 0
6206 -6208 0
-6206 6207 6208 0
6209 -6210 0
6209 -6211 0
6209 -6212 0
-6209 6210 6211 6212 0
6213 -6214 0
6213 -6215 0
6213 -6216 0
-6213 6214 6215 6216 0
6217 -6218 0
6217 -6219 0
-6217 6218 6219 0
6220 -6221 0
6220 -6222 0
6220 -6223 0
-6220 6221 6222 6223 0
6224 -6225 0
6224 -6226 0
6224 -6227 0
6224 -6228 0
-6224 6225 6226 6227 6228 0
6229 -6230 0
6229 -6231 0
6229 -6232 0
6229 -6233 0
-6229 6230 6231 6232 6233 0
6234 -6235 0
6234 -6236 0
6234 -6237 0
6234 -6238 0
-6234 6235 6236 6237 6238 0
6239 -6240 0
6239 -6241 0
-6239 6240 6241 0
6242 -6243 0
6242 -6244 0
6242 -6245 0
-6242 6243 6244 6245 0
6246 -6247 0
6246 -6248 0
-6246 6247 6248 0
6249 -6250 0
6249 -6251 0
-6249 6250 6251 0
6252 -6253 0
6252 -6254 0
6252 -6255 0
-6252 6253 6254 6255 0
-6257 8166 0
6257 -8166 0
-6259 7731 0
6259 -7731 0
-6261 7733 0
6261 -7733 0
-6263 7987 0
6263 -7987 0
-6265 7787 0
6265 -7787 0
-6267 7635 0
6267 -7635 0
7716 7694 0
-7716 -7694 0
7372 7664 0
-7372 -7664 0
7691 7764 0
-7691 -7764 0
7658 7332 0
-7658 -7332 0
7652 7656 0
-7652 -7656 0
7655 7631 0
-7655 -7631 0
7665 7113 0
-7665 -7113 0
7667 7635 0
-7667 -7635 0
7676 7787 0
-7676 -7787 0
7984 7987 0
-7984 -7987 0
7776 7733 0
-7776 -7733 0
7824 7731 0
-7824 -7731 0
7891 8166 0
-7891 -8166 0
8122 7630 0
-8122 -7630 0
6299 7987 0
-6299 -7987 0
7734 6299 0
-7734 -6299 0
7736 7636 0
-7736 -7636 0
6305 7764 0
-6305 -7764 0
6698 6305 0
-6698 -6305 0
7894 7639 0
-7894 -7639 0
6311 7776 0
-6311 -7776 0
7761 6311 0
-7761 -6311 0
7327 7645 0
-7327 -7645 0
7161 7648 0
-7161 -7648 0
8123 7651 0
-8123 -7651 0
6321 7651 0
-6321 -7651 0
7815 6321 0
-7815 -6321 0
7188 7657 0
-7188 -7657 0
7053 7715 0
-7053 -7715 0
6816 7666 0
-6816 -7666 0
7772 7669 0
-7772 -7669 0
7775 7672 0
-7775 -7672 0
7189 7675 0
-7189 -7675 0
7781 7678 0
-7781 -7678 0
7784 7681 0
-7784 -7681 0
7844 7684 0
-7844 -7684 0
6889 7730 0
-6889 -7730 0
7070 7690 0
-7070 -7690 0
7799 7693 0
-7799 -7693 0
6943 7696 0
-6943 -7696 0
7147 7745 0
-7147 -7745 0
7814 7702 0
-7814 -7702 0
7995 7705 0
-7995 -7705 0
7829 7708 0
-7829 -7708 0
6359 7731 0
-6359 -7731 0
7155 6359 0
-7155 -6359 0
8075 7729 0
-8075 -7729 0
6365 6570 0
-6365 -6570 0
7204 6365 0
-7204 -6365 0
6369 6807 0
-6369 -6807 0
7258 6369 0
-7258 -6369 0
7986 7783 0
-7986 -7783 0
6372 7063 0
-6372 -7063 0
6374 7272 0
-6374 -7272 0
7479 7985 0
-7479 -7985 0
6378 7352 0
-6378 -7352 0
6380 8038 0
-6380 -8038 0
6382 8047 0
-6382 -8047 0
6384 7473 0
-6384 -7473 0
6386 8141 0
-6386 -8141 0
6388 7493 0
-6388 -7493 0
6390 8158 0
-6390 -8158 0
6392 7557 0
-6392 -7557 0
6394 7561 0
-6394 -7561 0
6396 8189 0
-6396 -8189 0
6398 8201 0
-6398 -8201 0
6400 8213 0
-6400 -8213 0
6402 8223 0
-6402 -8223 0
6421 8227 0
-6421 -8227 0
6406 8231 0
-6406 -8231 0
6423 8234 0
-6423 -8234 0
6425 8238 0
-6425 -8238 0
6429 8243 0
-6429 -8243 0
6431 8248 0
-6431 -8248 0
6416 8253 0
-6416 -8253 0
6433 8256 0
-6433 -8256 0
7613 6421 0
-7613 -6421 0
7616 6423 0
-7616 -6423 0
7619 6425 0
-7619 -6425 0
6426 8260 0
-6426 -8260 0
7622 6429 0
-7622 -6429 0
7625 6431 0
-7625 -6431 0
7628 6433 0
-7628 -6433 0
6434 8266 0
-6434 -8266 0
-7727 7987 0
-7727 7733 0
7727 -7987 -7733 0
-7737 7987 0
-7737 7733 0
7737 -7987 -7733 0
-7778 7787 0
-7778 7987 0
-7778 7733 0
7778 -7787 -7987 -7733 0
-7754 7787 0
-7754 7731 0
7754 -7787 -7731 0
-7739 7694 0
-7739 7731 0
7739 -7694 -7731 0
-7839 7694 0
-7839 7731 0
7839 -7694 -7731 0
-7769 7764 0
-7769 7731 0
7769 -7764 -7731 0
-8003 7987 0
-8003 7731 0
8003 -7987 -7731 0
-7713 7664 0
-7713 8166 0
7713 -7664 -8166 0
-7718 7658 0
-7718 7665 0
7718 -7658 -7665 0
-7067 7332 0
-7067 7667 0
-7067 7733 0
7067 -7332 -7667 -7733 0
-7722 7694 0
-7722 7676 0
-7722 7731 0
7722 -7694 -7676 -7731 0
-7757 7665 0
-7757 7667 0
-7757 7676 0
-7757 8166 0
7757 -7665 -7667 -7676 -8166 0
-7782 7676 0
-7782 7731 0
7782 -7676 -7731 0
-7857 7676 0
-7857 7987 0
-7857 8166 0
7857 -7676 -7987 -8166 0
-7773 7676 0
-7773 7987 0
-7773 7733 0
7773 -7676 -7987 -7733 0
-6710 7664 0
-6710 7113 0
-6710 7667 0
-6710 7676 0
6710 -7664 -7113 -7667 -7676 0
-7721 7691 0
-7721 7787 0
-7721 7984 0
7721 -7691 -7787 -7984 0
-7724 7984 0
-7724 7731 0
7724 -7984 -7731 0
-7743 7658 0
-7743 7984 0
7743 -7658 -7984 0
-7866 7667 0
-7866 7676 0
-7866 7984 0
7866 -7667 -7676 -7984 0
-7071 7635 0
-7071 7787 0
-7071 7984 0
7071 -7635 -7787 -7984 0
-7728 7676 0
-7728 7776 0
7728 -7676 -7776 0
-7842 7664 0
-7842 7776 0
-7842 8166 0
7842 -7664 -7776 -8166 0
-7875 7676 0
-7875 7776 0
-7875 7731 0
7875 -7676 -7776 -7731 0
-7863 7776 0
-7863 8166 0
7863 -7776 -8166 0
-7897 7372 0
-7897 7987 0
-7897 7776 0
7897 -7372 -7987 -7776 0
-7746 7676 0
-7746 7776 0
7746 -7676 -7776 0
-8137 7787 0
-8137 7731 0
-8137 7636 0
8137 -7787 -7731 -7636 0
-7740 7733 0
-7740 7824 0
7740 -7733 -7824 0
-7749 7113 0
-7749 7824 0
7749 -7113 -7824 0
-6806 7667 0
-6806 7987 0
-6806 7824 0
6806 -7667 -7987 -7824 0
-7800 7984 0
-7800 7824 0
7800 -7984 -7824 0
-7836 7676 0
-7836 7824 0
7836 -7676 -7824 0
-7930 7733 0
-7930 7824 0
7930 -7733 -7824 0
-7830 7987 0
-7830 7824 0
7830 -7987 -7824 0
-7848 7733 0
-7848 7824 0
7848 -7733 -7824 0
-7796 7733 0
-7796 7824 0
7796 -7733 -7824 0
-8165 7733 0
-8165 7824 0
8165 -7733 -7824 0
-6570 7787 0
-6570 7639 0
6570 -7787 -7639 0
-7851 7639 0
-7851 8166 0
7851 -7639 -8166 0
-7755 7667 0
-7755 7891 0
7755 -7667 -7891 0
-7758 7787 0
-7758 7891 0
7758 -7787 -7891 0
-7927 7667 0
-7927 7987 0
-7927 7776 0
-7927 7891 0
7927 -7667 -7987 -7776 -7891 0
-7933 7676 0
-7933 7987 0
-7933 7824 0
-7933 7891 0
7933 -7676 -7987 -7824 -7891 0
-7809 7676 0
-7809 7824 0
-7809 7891 0
7809 -7676 -7824 -7891 0
-7963 7676 0
-7963 7987 0
-7963 7776 0
-7963 7891 0
7963 -7676 -7987 -7776 -7891 0
-7812 7655 0
-7812 7824 0
-7812 7891 0
7812 -7655 -7824 -7891 0
-7939 7676 0
-7939 7824 0
-7939 7891 0
7939 -7676 -7824 -7891 0
-7827 7332 0
-7827 7776 0
-7827 7891 0
7827 -7332 -7776 -7891 0
-7821 7776 0
-7821 7891 0
7821 -7776 -7891 0
-7972 7636 0
-7972 7891 0
7972 -7636 -7891 0
-7833 7676 0
-7833 7987 0
-7833 7824 0
-7833 7891 0
7833 -7676 -7987 -7824 -7891 0
-7818 7824 0
-7818 7891 0
7818 -7824 -7891 0
-7981 7633 0
-7981 7891 0
-7981 7636 0
7981 -7633 -7891 -7636 0
-7948 7665 0
-7948 7824 0
-7948 7891 0
7948 -7665 -7824 -7891 0
-8001 7891 0
-8001 7639 0
8001 -7891 -7639 0
-8114 7635 0
-8114 7891 0
8114 -7635 -7891 0
-7885 7642 0
-7885 7731 0
7885 -7642 -7731 0
-7760 7648 0
-7760 7824 0
7760 -7648 -7824 0
-7767 7776 0
-7767 7654 0
7767 -7776 -7654 0
-7770 7657 0
-7770 7824 0
7770 -7657 -7824 0
-7791 7660 0
-7791 7824 0
-7791 7891 0
7791 -7660 -7824 -7891 0
-7969 7666 0
-7969 7655 0
-7969 7987 0
-7969 7891 0
7969 -7666 -7655 -7987 -7891 0
-7779 7675 0
-7779 7776 0
7779 -7675 -7776 0
-7794 7731 0
-7794 7678 0
7794 -7731 -7678 0
-7788 7684 0
-7788 7731 0
7788 -7684 -7731 0
-7888 7787 0
-7888 7730 0
7888 -7787 -7730 0
-7790 7731 0
-7790 7730 0
7790 -7731 -7730 0
-7793 7690 0
-7793 7824 0
7793 -7690 -7824 0
-7797 7731 0
-7797 7690 0
7797 -7731 -7690 0
-7881 7665 0
-7881 7676 0
-7881 8166 0
-7881 7736 0
7881 -7665 -7676 -8166 -7736 0
-8186 7787 0
-8186 7891 0
-8186 7736 0
8186 -7787 -7891 -7736 0
-7806 7987 0
-7806 8166 0
-7806 7696 0
7806 -7987 -8166 -7696 0
-8167 7787 0
-8167 6698 0
8167 -7787 -6698 0
-8053 7987 0
-8053 7745 0
8053 -7987 -7745 0
-7912 7113 0
-7912 8166 0
-7912 7894 0
7912 -7113 -8166 -7894 0
-7903 7987 0
-7903 7891 0
-7903 7894 0
-7903 6710 0
7903 -7987 -7891 -7894 -6710 0
-7906 7676 0
-7906 7984 0
-7906 7894 0
7906 -7676 -7984 -7894 0
-7975 7987 0
-7975 7894 0
7975 -7987 -7894 0
-7805 7332 0
-7805 7891 0
-7805 7894 0
7805 -7332 -7891 -7894 0
-8088 7665 0
-8088 7987 0
-8088 7891 0
-8088 7894 0
8088 -7665 -7987 -7891 -7894 0
-8036 7987 0
-8036 8166 0
-8036 7894 0
8036 -7987 -8166 -7894 0
-7031 7667 0
-7031 7676 0
-7031 7894 0
7031 -7667 -7676 -7894 0
-7817 7702 0
-7817 7984 0
7817 -7702 -7984 0
-7990 7736 0
-7990 7702 0
7990 -7736 -7702 0
-7820 7705 0
-7820 7984 0
7820 -7705 -7984 0
-7878 7708 0
-7878 7776 0
7878 -7708 -7776 0
-7853 7676 0
-7853 7733 0
-7853 7327 0
7853 -7676 -7733 -7327 0
-8081 7824 0
-8081 7327 0
8081 -7824 -7327 0
-8244 7787 0
-8244 7733 0
-8244 7327 0
8244 -7787 -7733 -7327 0
-7832 7711 0
-7832 7787 0
-7832 7731 0
7832 -7711 -7787 -7731 0
-7978 7161 0
-7978 7636 0
7978 -7161 -7636 0
-7835 7787 0
-7835 7731 0
-7835 8123 0
7835 -7787 -7731 -8123 0
-7860 7676 0
-7860 7984 0
-7860 7824 0
-7860 8123 0
7860 -7676 -7984 -7824 -8123 0
-7838 7776 0
-7838 8123 0
7838 -7776 -8123 0
-7841 7787 0
-7841 7891 0
-7841 8123 0
7841 -7787 -7891 -8123 0
-7845 7987 0
-7845 8123 0
7845 -7987 -8123 0
-7935 7327 0
-7935 8123 0
7935 -7327 -8123 0
-8045 7676 0
-8045 7984 0
-8045 7894 0
-8045 8123 0
8045 -7676 -7984 -7894 -8123 0
-8078 7824 0
-8078 7327 0
-8078 8123 0
8078 -7824 -7327 -8123 0
-8042 7891 0
-8042 7736 0
-8042 8123 0
8042 -7891 -7736 -8123 0
-8009 7672 0
-8009 8123 0
8009 -7672 -8123 0
-7923 7891 0
-7923 7188 0
-7923 6806 0
7923 -7891 -7188 -6806 0
-6807 7332 0
-6807 8166 0
-6807 7714 0
6807 -7332 -8166 -7714 0
-7847 7717 0
-7847 7776 0
7847 -7717 -7776 0
-7850 7891 0
-7850 6816 0
7850 -7891 -6816 0
-7854 7987 0
-7854 7731 0
-7854 7772 0
7854 -7987 -7731 -7772 0
-7900 7691 0
-7900 7635 0
-7900 7772 0
7900 -7691 -7635 -7772 0
-7856 7691 0
-7856 7891 0
-7856 7775 0
7856 -7691 -7891 -7775 0
-7914 8166 0
-7914 7775 0
7914 -8166 -7775 0
-7956 7891 0
-7956 7775 0
7956 -7891 -7775 0
-7917 7645 0
-7917 7775 0
7917 -7645 -7775 0
-7859 7764 0
-7859 7189 0
7859 -7764 -7189 0
-7862 7891 0
-7862 7189 0
7862 -7891 -7189 0
-7865 7731 0
-7865 7189 0
7865 -7731 -7189 0
-7869 7787 0
-7869 7781 0
7869 -7787 -7781 0
-7872 7787 0
-7872 7731 0
-7872 7781 0
7872 -7787 -7731 -7781 0
-8062 7787 0
-8062 7731 0
-8062 7781 0
8062 -7787 -7731 -7781 0
-8163 7787 0
-8163 7731 0
-8163 7781 0
8163 -7787 -7731 -7781 0
-8140 7667 0
-8140 7733 0
-8140 7720 0
8140 -7667 -7733 -7720 0
-8129 7776 0
-8129 7723 0
8129 -7776 -7723 0
-7868 7676 0
-7868 7984 0
-7868 7784 0
7868 -7676 -7984 -7784 0
-7871 7676 0
-7871 7984 0
-7871 7784 0
7871 -7676 -7984 -7784 0
-7874 7775 0
-7874 7844 0
7874 -7775 -7844 0
-7877 8166 0
-7877 7844 0
7877 -8166 -7844 0
-7880 7113 0
-7880 6889 0
-7880 7189 0
7880 -7113 -6889 -7189 0
-7941 7693 0
-7941 6889 0
7941 -7693 -6889 0
-8059 7729 0
-8059 7987 0
8059 -7729 -7987 0
-7887 7891 0
-7887 7070 0
7887 -7891 -7070 0
-7908 7824 0
-7908 7070 0
7908 -7824 -7070 0
-8091 7824 0
-8091 7891 0
-8091 7070 0
8091 -7824 -7891 -7070 0
-8222 7732 0
-8222 7764 0
-8222 7787 0
-8222 7731 0
8222 -7732 -7764 -7787 -7731 0
-8067 7735 0
-8067 7676 0
-8067 7731 0
8067 -7735 -7676 -7731 0
-7890 7984 0
-7890 6943 0
7890 -7984 -6943 0
-7893 7716 0
-7893 6943 0
7893 -7716 -6943 0
-7959 7987 0
-7959 6943 0
7959 -7987 -6943 0
-7896 7984 0
-7896 6943 0
7896 -7984 -6943 0
-7899 7655 0
-7899 7667 0
-7899 7676 0
-7899 6943 0
7899 -7655 -7667 -7676 -6943 0
-7902 7787 0
-7902 7984 0
-7902 6943 0
7902 -7787 -7984 -6943 0
-7905 7694 0
-7905 7715 0
-7905 7787 0
-7905 6943 0
7905 -7694 -7715 -7787 -6943 0
-7920 7984 0
-7920 6943 0
7920 -7984 -6943 0
-8006 7676 0
-8006 6943 0
8006 -7676 -6943 0
-7909 7802 0
-7909 7676 0
7909 -7802 -7676 0
-7911 7694 0
-7911 7733 0
-7911 7147 0
7911 -7694 -7733 -7147 0
-7915 7676 0
-7915 7987 0
-7915 7147 0
7915 -7676 -7987 -7147 0
-7966 7733 0
-7966 7147 0
7966 -7733 -7147 0
-7918 7676 0
-7918 7147 0
7918 -7676 -7147 0
-8055 7776 0
-8055 7147 0
8055 -7776 -7147 0
-8020 7733 0
-8020 7147 0
8020 -7733 -7147 0
-8111 7669 0
-8111 7987 0
-8111 7147 0
8111 -7669 -7987 -7147 0
-8072 7987 0
-8072 7733 0
-8072 7147 0
8072 -7987 -7733 -7147 0
-8017 7676 0
-8017 7776 0
-8017 7147 0
8017 -7676 -7776 -7147 0
-8098 7664 0
-8098 7987 0
-8098 7147 0
8098 -7664 -7987 -7147 0
-7992 7984 0
-7992 7147 0
-7992 8123 0
-7992 7784 0
7992 -7984 -7147 -8123 -7784 0
-8126 7676 0
-8126 7776 0
-8126 7147 0
8126 -7676 -7776 -7147 0
-8152 7987 0
-8152 7733 0
-8152 7147 0
8152 -7987 -7733 -7147 0
-8134 7147 0
-8134 7684 0
8134 -7147 -7684 0
-8119 7987 0
-8119 7776 0
-8119 7147 0
8119 -7987 -7776 -7147 0
-8142 7676 0
-8142 7776 0
-8142 7147 0
8142 -7676 -7776 -7147 0
-8149 7726 0
-8149 7147 0
8149 -7726 -7147 0
-8218 7736 0
-8218 7147 0
8218 -7736 -7147 0
-8032 7741 0
-8032 7776 0
8032 -7741 -7776 0
-7998 7987 0
-7998 7744 0
7998 -7987 -7744 0
-7921 7747 0
-7921 7776 0
7921 -7747 -7776 0
-8143 7750 0
-8143 7787 0
8143 -7750 -7787 0
-8225 7787 0
-8225 7750 0
8225 -7787 -7750 0
-8254 7327 0
-8254 8123 0
-8254 7031 0
8254 -7327 -8123 -7031 0
-7924 7764 0
-7924 7635 0
-7924 7984 0
-7924 7814 0
7924 -7764 -7635 -7984 -7814 0
-7926 7635 0
-7926 7787 0
-7926 7814 0
-7926 7844 0
7926 -7635 -7787 -7814 -7844 0
-7929 7776 0
-7929 7814 0
7929 -7776 -7814 0
-7932 7691 0
-7932 7787 0
-7932 7814 0
7932 -7691 -7787 -7814 0
-7936 7332 0
-7936 7787 0
-7936 7814 0
-7936 7053 0
7936 -7332 -7787 -7814 -7053 0
-7938 7113 0
-7938 7814 0
7938 -7113 -7814 0
-7942 7776 0
-7942 7814 0
7942 -7776 -7814 0
-7950 7787 0
-7950 7814 0
7950 -7787 -7814 0
-7063 7814 0
-7063 7189 0
-7063 7715 0
-7063 7067 0
7063 -7814 -7189 -7715 -7067 0
-8048 7814 0
-8048 7070 0
-8048 7071 0
8048 -7814 -7070 -7071 0
-7945 7776 0
-7945 7814 0
7945 -7776 -7814 0
-8069 7987 0
-8069 7733 0
-8069 7814 0
8069 -7987 -7733 -7814 0
-8101 7372 0
-8101 7776 0
-8101 7814 0
8101 -7372 -7776 -7814 0
-7947 7714 0
-7947 7332 0
-7947 7814 0
7947 -7714 -7332 -7814 0
-8185 7987 0
-8185 7814 0
8185 -7987 -7814 0
-7951 7372 0
-7951 7753 0
7951 -7372 -7753 0
-7953 7658 0
-7953 7995 0
7953 -7658 -7995 0
-8029 7824 0
-8029 7995 0
8029 -7824 -7995 0
-8014 7824 0
-8014 7995 0
8014 -7824 -7995 0
-8211 7987 0
-8211 7824 0
-8211 7995 0
8211 -7987 -7824 -7995 0
-8157 7824 0
-8157 7995 0
8157 -7824 -7995 0
-7957 7658 0
-7957 7756 0
7957 -7658 -7756 0
-7960 7113 0
-7960 7894 0
-7960 7829 0
7960 -7113 -7894 -7829 0
-7962 7824 0
-7962 7829 0
7962 -7824 -7829 0
-7965 7635 0
-7965 7829 0
7965 -7635 -7829 0
-7968 7635 0
-7968 7733 0
-7968 7829 0
7968 -7635 -7733 -7829 0
-7971 7776 0
-7971 7829 0
7971 -7776 -7829 0
-7974 7696 0
-7974 7829 0
7974 -7696 -7829 0
-7977 7733 0
-7977 7829 0
7977 -7733 -7829 0
-7980 7733 0
-7980 7829 0
7980 -7733 -7829 0
-8026 7635 0
-8026 7787 0
-8026 7829 0
8026 -7635 -7787 -7829 0
-8095 7759 0
-8095 7984 0
8095 -7759 -7984 0
-7983 7762 0
-7983 7147 0
7983 -7762 -7147 0
-7996 7765 0
-7996 7824 0
7996 -7765 -7824 0
-8012 7787 0
-8012 7768 0
8012 -7787 -7768 0
-8236 7155 0
-8236 7635 0
-8236 7987 0
-8236 7891 0
8236 -7155 -7635 -7987 -7891 0
-8180 7771 0
-8180 7161 0
8180 -7771 -7161 0
-8086 7774 0
-8086 8166 0
8086 -7774 -8166 0
-8108 7635 0
-8108 7891 0
-8108 7777 0
8108 -7635 -7891 -7777 0
-8130 7780 0
-8130 7654 0
8130 -7780 -7654 0
-8226 7635 0
-8226 7891 0
-8226 7786 0
8226 -7635 -7891 -7786 0
-7989 7987 0
-7989 8075 0
7989 -7987 -8075 0
-8039 7635 0
-8039 8075 0
-8039 7189 0
8039 -7635 -8075 -7189 0
-8023 7984 0
-8023 8075 0
8023 -7984 -8075 0
-8146 8075 0
-8146 7188 0
-8146 7189 0
8146 -8075 -7188 -7189 0
-7993 7789 0
-7993 7987 0
7993 -7789 -7987 0
-7997 7787 0
-7997 7792 0
7997 -7787 -7792 0
-8000 7984 0
-8000 7795 0
8000 -7984 -7795 0
-8004 7667 0
-8004 7798 0
8004 -7667 -7798 0
-8007 7635 0
-8007 7204 0
8007 -7635 -7204 0
-8010 7801 0
-8010 7676 0
8010 -7801 -7676 0
-8172 7787 0
-8172 7804 0
8172 -7787 -7804 0
-8085 7658 0
-8085 7807 0
8085 -7658 -7807 0
-8015 7810 0
-8015 7776 0
8015 -7810 -7776 0
-8096 7813 0
-8096 7776 0
8096 -7813 -7776 0
-8018 7816 0
-8018 7787 0
-8018 7733 0
8018 -7816 -7787 -7733 0
-8117 7819 0
-8117 7635 0
-8117 7824 0
8117 -7819 -7635 -7824 0
-8021 7822 0
-8021 7776 0
8021 -7822 -7776 0
-8239 7825 0
-8239 7775 0
8239 -7825 -7775 0
-8202 7828 0
-8202 7772 0
8202 -7828 -7772 0
-8024 7831 0
-8024 7776 0
8024 -7831 -7776 0
-8027 7834 0
-8027 7667 0
-8027 7987 0
-8027 7891 0
8027 -7834 -7667 -7987 -7891 0
-8030 7837 0
-8030 7891 0
8030 -7837 -7891 0
-8105 7667 0
-8105 7731 0
-8105 7840 0
8105 -7667 -7731 -7840 0
-8033 7691 0
-8033 7891 0
-8033 7843 0
8033 -7691 -7891 -7843 0
-8034 7987 0
-8034 7258 0
8034 -7987 -7258 0
-8060 7846 0
-8060 8166 0
8060 -7846 -8166 0
-8037 7849 0
-8037 7984 0
8037 -7849 -7984 0
-8210 7852 0
-8210 7651 0
8210 -7852 -7651 0
-8040 7855 0
-8040 7667 0
-8040 7776 0
8040 -7855 -7667 -7776 0
-7272 7858 0
-7272 7667 0
-7272 7776 0
-7272 7891 0
7272 -7858 -7667 -7776 -7891 0
-8043 7658 0
-8043 7861 0
8043 -7658 -7861 0
-8065 7864 0
-8065 8123 0
8065 -7864 -8123 0
-8046 7867 0
-8046 7630 0
-8046 7731 0
8046 -7867 -7630 -7731 0
-8178 7654 0
-8178 7870 0
-8178 7891 0
8178 -7654 -7870 -7891 0
-8252 7635 0
-8252 7891 0
-8252 7873 0
8252 -7635 -7891 -7873 0
-8235 7876 0
-8235 7775 0
8235 -7876 -7775 0
-8049 7879 0
-8049 7332 0
-8049 7667 0
-8049 7824 0
8049 -7879 -7332 -7667 -7824 0
-8052 7676 0
-8052 7882 0
8052 -7676 -7882 0
-8051 7886 0
-8051 7824 0
8051 -7886 -7824 0
-8056 7889 0
-8056 7787 0
8056 -7889 -7787 0
-8058 7891 0
-8058 7892 0
-8058 8123 0
8058 -7891 -7892 -8123 0
-8063 7676 0
-8063 7984 0
-8063 7892 0
8063 -7676 -7984 -7892 0
-8199 7676 0
-8199 7891 0
-8199 7895 0
8199 -7676 -7891 -7895 0
-8214 7716 0
-8214 7898 0
-8214 7327 0
8214 -7716 -7898 -7327 0
-8245 7691 0
-8245 7901 0
8245 -7691 -7901 0
-8194 7332 0
-8194 7904 0
-8194 8166 0
8194 -7332 -7904 -8166 0
-8066 7667 0
-8066 7907 0
-8066 7984 0
8066 -7667 -7907 -7984 0
-8070 7910 0
-8070 7984 0
8070 -7910 -7984 0
-8250 7913 0
-8250 7776 0
8250 -7913 -7776 0
-8073 7916 0
-8073 7776 0
8073 -7916 -7776 0
-8183 7676 0
-8183 8166 0
-8183 7919 0
8183 -7676 -8166 -7919 0
-7352 7922 0
-7352 7787 0
-7352 7733 0
7352 -7922 -7787 -7733 0
-8251 7764 0
-8251 7925 0
8251 -7764 -7925 0
-8076 7928 0
-8076 7676 0
8076 -7928 -7676 0
-8198 7987 0
-8198 7928 0
8198 -7987 -7928 0
-8079 7372 0
-8079 7931 0
8079 -7372 -7931 0
-8082 7716 0
-8082 7934 0
8082 -7716 -7934 0
-8084 7372 0
-8084 7937 0
8084 -7372 -7937 0
-8089 7940 0
-8089 7984 0
8089 -7940 -7984 0
-8092 7943 0
-8092 7676 0
8092 -7943 -7676 0
-8094 7946 0
-8094 7987 0
8094 -7946 -7987 0
-8099 7949 0
-8099 7984 0
8099 -7949 -7984 0
-8102 7952 0
-8102 7676 0
8102 -7952 -7676 0
-8257 7955 0
-8257 7736 0
8257 -7955 -7736 0
-8196 7676 0
-8196 7958 0
8196 -7676 -7958 0
-8155 7665 0
-8155 7961 0
8155 -7665 -7961 0
-8104 7964 0
-8104 7787 0
8104 -7964 -7787 0
-8107 7691 0
-8107 7787 0
-8107 7967 0
8107 -7691 -7787 -7967 0
-8110 7970 0
-8110 7775 0
8110 -7970 -7775 0
-8230 7635 0
-8230 7973 0
-8230 7787 0
8230 -7635 -7973 -7787 0
-8113 7976 0
-8113 7731 0
8113 -7976 -7731 0
-8116 7979 0
-8116 7731 0
8116 -7979 -7731 0
-8120 7982 0
-8120 7733 0
8120 -7982 -7733 0
-8124 7985 0
-8124 7676 0
8124 -7985 -7676 0
-8127 7988 0
-8127 7787 0
8127 -7988 -7787 0
-8175 7676 0
-8175 7991 0
8175 -7676 -7991 0
-8160 7667 0
-8160 7994 0
8160 -7667 -7994 0
-8133 7787 0
-8133 7999 0
8133 -7787 -7999 0
-8136 8002 0
-8136 7733 0
8136 -8002 -7733 0
-8139 8005 0
-8139 7987 0
8139 -8005 -7987 0
-8144 7667 0
-8144 8008 0
8144 -7667 -8008 0
-8147 8013 0
-8147 7676 0
-8147 7984 0
8147 -8013 -7676 -7984 0
-8203 7635 0
-8203 8016 0
8203 -7635 -8016 0
-8150 7787 0
-8150 8019 0
8150 -7787 -8019 0
-8170 7764 0
-8170 8022 0
8170 -7764 -8022 0
-8228 7691 0
-8228 8025 0
8228 -7691 -8025 0
-8153 8028 0
-8153 7984 0
8153 -8028 -7984 0
-8156 7787 0
-8156 8031 0
8156 -7787 -8031 0
-8159 8035 0
-8159 7787 0
8159 -8035 -7787 0
-8182 8041 0
-8182 7824 0
8182 -8041 -7824 0
-7473 8044 0
-7473 7667 0
-7473 7891 0
7473 -8044 -7667 -7891 0
-8162 7676 0
-8162 7479 0
8162 -7676 -7479 0
-8207 7635 0
-8207 8054 0
8207 -7635 -8054 0
-8187 8057 0
-8187 7676 0
8187 -8057 -7676 0
-7560 8061 0
-7560 7656 0
-7560 7655 0
7560 -8061 -7656 -7655 0
-8191 8064 0
-8191 7891 0
8191 -8064 -7891 0
-7493 8068 0
-7493 7667 0
-7493 7676 0
7493 -8068 -7667 -7676 0
-8247 7635 0
-8247 8071 0
8247 -7635 -8071 0
-8264 8074 0
-8264 7984 0
8264 -8074 -7984 0
-8171 8077 0
-8171 7776 0
8171 -8077 -7776 0
-8193 8080 0
-8193 7733 0
8193 -8080 -7733 0
-8174 8083 0
-8174 7987 0
8174 -8083 -7987 0
-8209 7676 0
-8209 8087 0
8209 -7676 -8087 0
-8177 8090 0
-8177 7984 0
8177 -8090 -7984 0
-8181 7787 0
-8181 8093 0
8181 -7787 -8093 0
-8269 8097 0
-8269 7733 0
8269 -8097 -7733 0
-8188 7764 0
-8188 8100 0
8188 -7764 -8100 0
-8241 7691 0
-8241 8103 0
8241 -7691 -8103 0
-8215 8106 0
-8215 7731 0
8215 -8106 -7731 0
-8232 8109 0
-8232 7635 0
8232 -8109 -7635 0
-8262 7787 0
-8262 8112 0
8262 -7787 -8112 0
-8190 7787 0
-8190 8115 0
8190 -7787 -8115 0
-8195 7787 0
-8195 8118 0
8195 -7787 -8118 0
-8267 8125 0
-8267 7635 0
8267 -8125 -7635 0
-8204 7667 0
-8204 8128 0
8204 -7667 -8128 0
-8258 7635 0
-8258 8132 0
8258 -7635 -8132 0
-8206 8135 0
-8206 7891 0
8206 -8135 -7891 0
-7557 7667 0
-7557 7891 0
-7557 7560 0
7557 -7667 -7891 -7560 0
-7561 8138 0
-7561 7891 0
7561 -8138 -7891 0
-8216 7667 0
-8216 8145 0
8216 -7667 -8145 0
-8242 7635 0
-8242 8148 0
8242 -7635 -8148 0
-8219 7667 0
-8219 8151 0
8219 -7667 -8151 0
-8221 8161 0
-8221 8123 0
8221 -8161 -8123 0
-8224 7667 0
-8224 8164 0
8224 -7667 -8164 0
-8229 8173 0
-8229 7667 0
8229 -8173 -7667 0
-8233 8176 0
-8233 7667 0
8233 -8176 -7667 0
-8237 7667 0
-8237 8179 0
8237 -7667 -8179 0
-8240 8184 0
-8240 7667 0
8240 -8184 -7667 0
-8246 8192 0
-8246 7667 0
8246 -8192 -7667 0
-8249 8197 0
-8249 7667 0
8249 -8197 -7667 0
-8255 8205 0
-8255 7764 0
8255 -8205 -7764 0
-8259 7667 0
-8259 8208 0
8259 -7667 -8208 0
-8261 8217 0
-8261 7676 0
8261 -8217 -7676 0
-8265 8220 0
-8265 7891 0
8265 -8220 -7891 0
-8268 7667 0
-8268 8263 0
8268 -7667 -8263 0
-8281 7613 0
-8281 7629 0
8281 -7613 -7629 0
-8275 7616 0
-8275 7629 0
8275 -7616 -7629 0
-8279 7619 0
-8279 7629 0
8279 -7619 -7629 0
-8271 7622 0
-8271 7629 0
8271 -7622 -7629 0
-8273 7625 0
-8273 7629 0
8273 -7625 -7629 0
-8277 7628 0
-8277 7629 0
8277 -7628 -7629 0
7630 -7631 0
7630 -7656 0
-7630 7631 7656 0
7633 -7764 0
7633 -7635 0
-7633 7764 7635 0
7636 -7987 0
7636 -7733 0
-7636 7987 7733 0
7639 -7733 0
7639 -7731 0
-7639 7733 7731 0
7642 -7694 0
7642 -8166 0
-7642 7694 8166 0
7645 -7987 0
7645 -8166 0
-7645 7987 8166 0
7648 -7691 0
7648 -8166 0
-7648 7691 8166 0
7651 -7652 0
7651 -7655 0
-7651 7652 7655 0
7654 -7655 0
7654 -7656 0
-7654 7655 7656 0
7657 -7658 0
7657 -7665 0
-7657 7658 7665 0
7660 -7665 0
7660 -7733 0
-7660 7665 7733 0
7715 -7664 0
7715 -7665 0
-7715 7664 7665 0
7666 -7667 0
7666 -7733 0
-7666 7667 7733 0
7669 -7676 0
7669 -7733 0
-7669 7676 7733 0
7672 -7676 0
7672 -7731 0
-7672 7676 7731 0
7675 -7676 0
7675 -7984 0
-7675 7676 7984 0
7678 -7984 0
7678 -7764 0
-7678 7984 7764 0
7681 -7694 0
7681 -7776 0
-7681 7694 7776 0
7684 -7776 0
7684 -7987 0
-7684 7776 7987 0
7730 -7776 0
7730 -8166 0
-7730 7776 8166 0
7690 -7691 0
7690 -7776 0
-7690 7691 7776 0
7693 -7694 0
7693 -7824 0
-7693 7694 7824 0
7696 -7776 0
7696 -7824 0
-7696 7776 7824 0
7745 -7824 0
7745 -8166 0
-7745 7824 8166 0
7702 -7824 0
7702 -7891 0
-7702 7824 7891 0
7705 -7776 0
7705 -7891 0
-7705 7776 7891 0
7708 -7987 0
7708 -7891 0
-7708 7987 7891 0
7711 -7987 0
7711 -7713 0
-7711 7987 7713 0
7714 -7715 0
7714 -7716 0
-7714 7715 7716 0
7717 -7718 0
7717 -7731 0
-7717 7718 7731 0
7720 -7721 0
7720 -7722 0
-7720 7721 7722 0
7723 -7724 0
7723 -8166 0
-7723 7724 8166 0
7726 -7727 0
7726 -7728 0
-7726 7727 7728 0
7729 -7730 0
7729 -7731 0
-7729 7730 7731 0
7732 -7733 0
7732 -7734 0
-7732 7733 7734 0
7735 -7736 0
7735 -7737 0
-7735 7736 7737 0
7802 -7739 0
7802 -7740 0
-7802 7739 7740 0
7741 -7745 0
7741 -7743 0
-7741 7745 7743 0
7744 -7745 0
7744 -7746 0
-7744 7745 7746 0
7747 -7987 0
7747 -7749 0
-7747 7987 7749 0
7750 -7894 0
7750 -7984 0
-7750 7894 7984 0
7753 -7754 0
7753 -7755 0
-7753 7754 7755 0
7756 -7757 0
7756 -7758 0
-7756 7757 7758 0
7759 -7760 0
7759 -7761 0
-7759 7760 7761 0
7762 -8123 0
7762 -7764 0
-7762 8123 7764 0
7765 -8166 0
7765 -7767 0
-7765 8166 7767 0
7768 -7769 0
7768 -7770 0
-7768 7769 7770 0
7771 -7772 0
7771 -7773 0
-7771 7772 7773 0
7774 -7775 0
7774 -7776 0
-7774 7775 7776 0
7777 -7778 0
7777 -7779 0
-7777 7778 7779 0
7780 -7781 0
7780 -7782 0
-7780 7781 7782 0
7783 -7784 0
7783 -7824 0
-7783 7784 7824 0
7786 -7787 0
7786 -7788 0
-7786 7787 7788 0
7789 -7790 0
7789 -7791 0
-7789 7790 7791 0
7792 -7793 0
7792 -7794 0
-7792 7793 7794 0
7795 -7796 0
7795 -7797 0
-7795 7796 7797 0
7798 -7799 0
7798 -7800 0
-7798 7799 7800 0
7801 -7802 0
7801 -7987 0
-7801 7802 7987 0
7804 -7805 0
7804 -7806 0
-7804 7805 7806 0
7807 -7814 0
7807 -7809 0
-7807 7814 7809 0
7810 -7814 0
7810 -7812 0
-7810 7814 7812 0
7813 -7814 0
7813 -7815 0
-7813 7814 7815 0
7816 -7817 0
7816 -7818 0
-7816 7817 7818 0
7819 -7820 0
7819 -7821 0
-7819 7820 7821 0
7822 -7829 0
7822 -7824 0
-7822 7829 7824 0
7825 -7829 0
7825 -7827 0
-7825 7829 7827 0
7828 -7829 0
7828 -7830 0
-7828 7829 7830 0
7831 -7832 0
7831 -7833 0
-7831 7832 7833 0
7834 -7835 0
7834 -7836 0
-7834 7835 7836 0
7837 -7838 0
7837 -7839 0
-7837 7838 7839 0
7840 -7841 0
7840 -7842 0
-7840 7841 7842 0
7843 -7844 0
7843 -7845 0
-7843 7844 7845 0
7846 -7847 0
7846 -7848 0
-7846 7847 7848 0
7849 -7850 0
7849 -7851 0
-7849 7850 7851 0
7852 -7853 0
7852 -7854 0
-7852 7853 7854 0
7855 -7856 0
7855 -7857 0
-7855 7856 7857 0
7858 -7859 0
7858 -7860 0
-7858 7859 7860 0
7861 -7862 0
7861 -7863 0
-7861 7862 7863 0
7864 -7865 0
7864 -7866 0
-7864 7865 7866 0
7867 -7868 0
7867 -7869 0
-7867 7868 7869 0
7870 -7871 0
7870 -7872 0
-7870 7871 7872 0
7873 -7874 0
7873 -7875 0
-7873 7874 7875 0
7876 -7877 0
7876 -7878 0
-7876 7877 7878 0
7879 -7880 0
7879 -7881 0
-7879 7880 7881 0
7882 -8075 0
7882 -7987 0
7882 -7885 0
-7882 8075 7987 7885 0
7886 -7887 0
7886 -7888 0
-7886 7887 7888 0
7889 -7890 0
7889 -7891 0
-7889 7890 7891 0
7892 -7893 0
7892 -7894 0
-7892 7893 7894 0
7895 -7896 0
7895 -7897 0
-7895 7896 7897 0
7898 -7899 0
7898 -7900 0
-7898 7899 7900 0
7901 -7902 0
7901 -7903 0
-7901 7902 7903 0
7904 -7905 0
7904 -7906 0
-7904 7905 7906 0
7907 -7908 0
7907 -7909 0
-7907 7908 7909 0
7910 -7911 0
7910 -7912 0
-7910 7911 7912 0
7913 -7914 0
7913 -7915 0
-7913 7914 7915 0
7916 -7917 0
7916 -7918 0
-7916 7917 7918 0
7919 -7920 0
7919 -7921 0
-7919 7920 7921 0
7922 -7923 0
7922 -7924 0
-7922 7923 7924 0
7925 -7926 0
7925 -7927 0
-7925 7926 7927 0
7928 -7929 0
7928 -7930 0
-7928 7929 7930 0
7931 -7932 0
7931 -7933 0
-7931 7932 7933 0
7934 -7935 0
7934 -7936 0
-7934 7935 7936 0
7937 -7938 0
7937 -7939 0
-7937 7938 7939 0
7940 -7941 0
7940 -7942 0
-7940 7941 7942 0
7943 -8075 0
7943 -7945 0
-7943 8075 7945 0
7946 -7947 0
7946 -7948 0
-7946 7947 7948 0
7949 -7950 0
7949 -7951 0
-7949 7950 7951 0
7952 -7953 0
7952 -7987 0
-7952 7953 7987 0
7955 -7956 0
7955 -7957 0
-7955 7956 7957 0
7958 -7959 0
7958 -7960 0
-7958 7959 7960 0
7961 -7962 0
7961 -7963 0
-7961 7962 7963 0
7964 -7965 0
7964 -7966 0
-7964 7965 7966 0
7967 -7968 0
7967 -7969 0
-7967 7968 7969 0
7970 -7971 0
7970 -7972 0
-7970 7971 7972 0
7973 -7974 0
7973 -7975 0
-7973 7974 7975 0
7976 -7977 0
7976 -7978 0
-7976 7977 7978 0
7979 -7980 0
7979 -7981 0
-7979 7980 7981 0
7982 -7983 0
7982 -7984 0
-7982 7983 7984 0
7985 -7986 0
7985 -7987 0
-7985 7986 7987 0
7988 -7989 0
7988 -7990 0
-7988 7989 7990 0
7991 -7992 0
7991 -7993 0
-7991 7992 7993 0
7994 -7995 0
7994 -7996 0
7994 -7997 0
7994 -7998 0
-7994 7995 7996 7997 7998 0
7999 -8000 0
7999 -8001 0
-7999 8000 8001 0
8002 -8003 0
8002 -8004 0
-8002 8003 8004 0
8005 -8006 0
8005 -8007 0
-8005 8006 8007 0
8008 -8009 0
8008 -8010 0
8008 -8166 0
8008 -8012 0
-8008 8009 8010 8166 8012 0
8013 -8014 0
8013 -8015 0
-8013 8014 8015 0
8016 -8017 0
8016 -8018 0
-8016 8017 8018 0
8019 -8020 0
8019 -8021 0
-8019 8020 8021 0
8022 -8023 0
8022 -8024 0
-8022 8023 8024 0
8025 -8026 0
8025 -8027 0
-8025 8026 8027 0
8028 -8029 0
8028 -8030 0
-8028 8029 8030 0
8031 -8032 0
8031 -8033 0
8031 -8034 0
-8031 8032 8033 8034 0
8035 -8036 0
8035 -8037 0
-8035 8036 8037 0
8038 -8039 0
8038 -8040 0
-8038 8039 8040 0
8041 -8042 0
8041 -8043 0
-8041 8042 8043 0
8044 -8045 0
8044 -8046 0
-8044 8045 8046 0
8047 -8048 0
8047 -8049 0
-8047 8048 8049 0
8131 -8051 0
8131 -8052 0
8131 -8053 0
-8131 8051 8052 8053 0
8054 -8055 0
8054 -8056 0
-8054 8055 8056 0
8057 -8058 0
8057 -8059 0
8057 -8060 0
-8057 8058 8059 8060 0
8061 -8062 0
8061 -8063 0
-8061 8062 8063 0
8064 -8065 0
8064 -8066 0
8064 -8067 0
-8064 8065 8066 8067 0
8068 -8069 0
8068 -8070 0
-8068 8069 8070 0
8071 -8072 0
8071 -8073 0
-8071 8072 8073 0
8074 -8075 0
8074 -8076 0
-8074 8075 8076 0
8077 -8078 0
8077 -8079 0
-8077 8078 8079 0
8080 -8081 0
8080 -8082 0
-8080 8081 8082 0
8083 -8084 0
8083 -8085 0
8083 -8086 0
-8083 8084 8085 8086 0
8087 -8088 0
8087 -8089 0
-8087 8088 8089 0
8090 -8091 0
8090 -8092 0
-8090 8091 8092 0
8093 -8094 0
8093 -8095 0
8093 -8096 0
-8093 8094 8095 8096 0
8097 -8098 0
8097 -8099 0
-8097 8098 8099 0
8100 -8101 0
8100 -8102 0
-8100 8101 8102 0
8103 -8104 0
8103 -8105 0
-8103 8104 8105 0
8106 -8107 0
8106 -8108 0
-8106 8107 8108 0
8109 -8110 0
8109 -8111 0
-8109 8110 8111 0
8112 -8113 0
8112 -8114 0
-8112 8113 8114 0
8115 -8116 0
8115 -8117 0
-8115 8116 8117 0
8118 -8119 0
8118 -8120 0
-8118 8119 8120 0
8168 -8122 0
8168 -8123 0
8168 -8124 0
-8168 8122 8123 8124 0
8125 -8126 0
8125 -8127 0
-8125 8126 8127 0
8128 -8129 0
8128 -8130 0
8128 -8131 0
-8128 8129 8130 8131 0
8132 -8133 0
8132 -8134 0
-8132 8133 8134 0
8135 -8136 0
8135 -8137 0
-8135 8136 8137 0
8138 -8139 0
8138 -8140 0
-8138 8139 8140 0
8141 -8142 0
8141 -8143 0
8141 -8144 0
-8141 8142 8143 8144 0
8145 -8146 0
8145 -8147 0
-8145 8146 8147 0
8148 -8149 0
8148 -8150 0
-8148 8149 8150 0
8151 -8152 0
8151 -8153 0
-8151 8152 8153 0
8200 -8155 0
8200 -8156 0
8200 -8157 0
-8200 8155 8156 8157 0
8158 -8159 0
8158 -8160 0
-8158 8159 8160 0
8161 -8162 0
8161 -8163 0
-8161 8162 8163 0
8164 -8165 0
8164 -8166 0
8164 -8167 0
8164 -8168 0
-8164 8165 8166 8167 8168 0
8212 -8170 0
8212 -8171 0
8212 -8172 0
-8212 8170 8171 8172 0
8173 -8174 0
8173 -8175 0
-8173 8174 8175 0
8176 -8177 0
8176 -8178 0
-8176 8177 8178 0
8179 -8180 0
8179 -8181 0
8179 -8182 0
8179 -8183 0
-8179 8180 8181 8182 8183 0
8184 -8185 0
8184 -8186 0
8184 -8187 0
8184 -8188 0
-8184 8185 8186 8187 8188 0
8189 -8190 0
8189 -8191 0
-8189 8190 8191 0
8192 -8193 0
8192 -8194 0
8192 -8195 0
8192 -8196 0
-8192 8193 8194 8195 8196 0
8197 -8198 0
8197 -8199 0
8197 -8200 0
-8197 8198 8199 8200 0
8201 -8202 0
8201 -8203 0
8201 -8204 0
-8201 8202 8203 8204 0
8205 -8206 0
8205 -8207 0
-8205 8206 8207 0
8208 -8209 0
8208 -8210 0
8208 -8211 0
8208 -8212 0
-8208 8209 8210 8211 8212 0
8213 -8214 0
8213 -8215 0
8213 -8216 0
-8213 8214 8215 8216 0
8217 -8218 0
8217 -8219 0
-8217 8218 8219 0
8220 -8221 0
8220 -8222 0
-8220 8221 8222 0
8223 -8224 0
8223 -8225 0
8223 -8226 0
-8223 8224 8225 8226 0
8227 -8228 0
8227 -8229 0
8227 -8230 0
-8227 8228 8229 8230 0
8231 -8232 0
8231 -8233 0
-8231 8232 8233 0
8234 -8235 0
8234 -8236 0
8234 -8237 0
-8234 8235 8236 8237 0
8238 -8239 0
8238 -8240 0
8238 -8241 0
8238 -8242 0
-8238 8239 8240 8241 8242 0
8243 -8244 0
8243 -8245 0
8243 -8246 0
8243 -8247 0
-8243 8244 8245 8246 8247 0
8248 -8249 0
8248 -8250 0
8248 -8251 0
8248 -8252 0
-8248 8249 8250 8251 8252 0
8253 -8254 0
8253 -8255 0
-8253 8254 8255 0
8256 -8257 0
8256 -8258 0
8256 -8259 0
-8256 8257 8258 8259 0
8260 -8261 0
8260 -8262 0
-8260 8261 8262 0
8263 -8264 0
8263 -8265 0
-8263 8264 8265 0
8266 -8267 0
8266 -8268 0
8266 -8269 0
-8266 8267 8268 8269 0
-8271 10180 0
8271 -10180 0
-8273 9745 0
8273 -9745 0
-8275 9747 0
8275 -9747 0
-8277 10001 0
8277 -10001 0
-8279 9801 0
8279 -9801 0
-8281 9649 0
8281 -9649 0
9730 9708 0
-9730 -9708 0
9386 9678 0
-9386 -9678 0
9705 9778 0
-9705 -9778 0
9672 9346 0
-9672 -9346 0
9666 9670 0
-9666 -9670 0
9669 9645 0
-9669 -9645 0
9679 9127 0
-9679 -9127 0
9681 9649 0
-9681 -9649 0
9690 9801 0
-9690 -9801 0
9998 10001 0
-9998 -10001 0
9790 9747 0
-9790 -9747 0
9838 9745 0
-9838 -9745 0
9905 10180 0
-9905 -10180 0
10136 9644 0
-10136 -9644 0
8313 10001 0
-8313 -10001 0
9748 8313 0
-9748 -8313 0
9750 9650 0
-9750 -9650 0
8319 9778 0
-8319 -9778 0
8712 8319 0
-8712 -8319 0
9908 9653 0
-9908 -9653 0
8325 9790 0
-8325 -9790 0
9775 8325 0
-9775 -8325 0
9341 9659 0
-9341 -9659 0
9175 9662 0
-9175 -9662 0
10137 9665 0
-10137 -9665 0
8335 9665 0
-8335 -9665 0
9829 8335 0
-9829 -8335 0
9202 9671 0
-9202 -9671 0
9067 9729 0
-9067 -9729 0
8830 9680 0
-8830 -9680 0
9786 9683 0
-9786 -9683 0
9789 9686 0
-9789 -9686 0
9203 9689 0
-9203 -9689 0
9795 9692 0
-9795 -9692 0
9798 9695 0
-9798 -9695 0
9858 9698 0
-9858 -9698 0
8903 9744 0
-8903 -9744 0
9084 9704 0
-9084 -9704 0
9813 9707 0
-9813 -9707 0
8957 9710 0
-8957 -9710 0
9161 9759 0
-9161 -9759 0
9828 9716 0
-9828 -9716 0
10009 9719 0
-10009 -9719 0
9843 9722 0
-9843 -9722 0
8373 9745 0
-8373 -9745 0
9169 8373 0
-9169 -8373 0
10089 9743 0
-10089 -9743 0
8379 8584 0
-8379 -8584 0
9218 8379 0
-9218 -8379 0
8383 8821 0
-8383 -8821 0
9272 8383 0
-9272 -8383 0
10000 9797 0
-10000 -9797 0
8386 9077 0
-8386 -9077 0
8388 9286 0
-8388 -9286 0
9493 9999 0
-9493 -9999 0
8392 9366 0
-8392 -9366 0
8394 10052 0
-8394 -10052 0
8396 10061 0
-8396 -10061 0
8398 9487 0
-8398 -9487 0
8400 10155 0
-8400 -10155 0
8402 9507 0
-8402 -9507 0
8404 10172 0
-8404 -10172 0
8406 9571 0
-8406 -9571 0
8408 9575 0
-8408 -9575 0
8410 10203 0
-8410 -10203 0
8412 10215 0
-8412 -10215 0
8414 10227 0
-8414 -10227 0
8416 10237 0
-8416 -10237 0
8435 10241 0
-8435 -10241 0
8420 10245 0
-8420 -10245 0
8437 10248 0
-8437 -10248 0
8439 10252 0
-8439 -10252 0
8443 10257 0
-8443 -10257 0
8445 10262 0
-8445 -10262 0
8430 10267 0
-8430 -10267 0
8447 10270 0
-8447 -10270 0
9627 8435 0
-9627 -8435 0
9630 8437 0
-9630 -8437 0
9633 8439 0
-9633 -8439 0
8440 10274 0
-8440 -10274 0
9636 8443 0
-9636 -8443 0
9639 8445 0
-9639 -8445 0
9642 8447 0
-9642 -8447 0
8448 10280 0
-8448 -10280 0
-9741 10001 0
-9741 9747 0
9741 -10001 -9747 0
-9751 10001 0
-9751 9747 0
9751 -10001 -9747 0
-9792 9801 0
-9792 10001 0
-9792 9747 0
9792 -9801 -10001 -9747 0
-9768 9801 0
-9768 9745 0
9768 -9801 -9745 0
-9753 9708 0
-9753 9745 0
9753 -9708 -9745 0
-9853 9708 0
-9853 9745 0
9853 -9708 -9745 0
-9783 9778 0
-9783 9745 0
9783 -9778 -9745 0
-10017 10001 0
-10017 9745 0
10017 -10001 -9745 0
-9727 9678 0
-9727 10180 0
9727 -9678 -10180 0
-9732 9672 0
-9732 9679 0
9732 -9672 -9679 0
-9081 9346 0
-9081 9681 0
-9081 9747 0
9081 -9346 -9681 -9747 0
-9736 9708 0
-9736 9690 0
-9736 9745 0
9736 -9708 -9690 -9745 0
-9771 9679 0
-9771 9681 0
-9771 9690 0
-9771 10180 0
9771 -9679 -9681 -9690 -10180 0
-9796 9690 0
-9796 9745 0
9796 -9690 -9745 0
-9871 9690 0
-9871 10001 0
-9871 10180 0
9871 -9690 -10001 -10180 0
-9787 9690 0
-9787 10001 0
-9787 9747 0
9787 -9690 -10001 -9747 0
-8724 9678 0
-8724 9127 0
-8724 9681 0
-8724 9690 0
8724 -9678 -9127 -9681 -9690 0
-9735 9705 0
-9735 9801 0
-9735 9998 0
9735 -9705 -9801 -9998 0
-9738 9998 0
-9738 9745 0
9738 -9998 -9745 0
-9757 9672 0
-9757 9998 0
9757 -9672 -9998 0
-9880 9681 0
-9880 9690 0
-9880 9998 0
9880 -9681 -9690 -9998 0
-9085 9649 0
-9085 9801 0
-9085 9998 0
9085 -9649 -9801 -9998 0
-9742 9690 0
-9742 9790 0
9742 -9690 -9790 0
-9856 9678 0
-9856 9790 0
-9856 10180 0
9856 -9678 -9790 -10180 0
-9889 9690 0
-9889 9790 0
-9889 9745 0
9889 -9690 -9790 -9745 0
-9877 9790 0
-9877 10180 0
9877 -9790 -10180 0
-9911 9386 0
-9911 10001 0
-9911 9790 0
9911 -9386 -10001 -9790 0
-9760 9690 0
-9760 9790 0
9760 -9690 -9790 0
-10151 9801 0
-10151 9745 0
-10151 9650 0
10151 -9801 -9745 -9650 0
-9754 9747 0
-9754 9838 0
9754 -9747 -9838 0
-9763 9127 0
-9763 9838 0
9763 -9127 -9838 0
-8820 9681 0
-8820 10001 0
-8820 9838 0
8820 -9681 -10001 -9838 0
-9814 9998 0
-9814 9838 0
9814 -9998 -9838 0
-9850 9690 0
-9850 9838 0
9850 -9690 -9838 0
-9944 9747 0
-9944 9838 0
9944 -9747 -9838 0
-9844 10001 0
-9844 9838 0
9844 -10001 -9838 0
-9862 9747 0
-9862 9838 0
9862 -9747 -9838 0
-9810 9747 0
-9810 9838 0
9810 -9747 -9838 0
-10179 9747 0
-10179 9838 0
10179 -9747 -9838 0
-8584 9801 0
-8584 9653 0
8584 -9801 -9653 0
-9865 9653 0
-9865 10180 0
9865 -9653 -10180 0
-9769 9681 0
-9769 9905 0
9769 -9681 -9905 0
-9772 9801 0
-9772 9905 0
9772 -9801 -9905 0
-9941 9681 0
-9941 10001 0
-9941 9790 0
-9941 9905 0
9941 -9681 -10001 -9790 -9905 0
-9947 9690 0
-9947 10001 0
-9947 9838 0
-9947 9905 0
9947 -9690 -10001 -9838 -9905 0
-9823 9690 0
-9823 9838 0
-9823 9905 0
9823 -9690 -9838 -9905 0
-9977 9690 0
-9977 10001 0
-9977 9790 0
-9977 9905 0
9977 -9690 -10001 -9790 -9905 0
-9826 9669 0
-9826 9838 0
-9826 9905 0
9826 -9669 -9838 -9905 0
-9953 9690 0
-9953 9838 0
-9953 9905 0
9953 -9690 -9838 -9905 0
-9841 9346 0
-9841 9790 0
-9841 9905 0
9841 -9346 -9790 -9905 0
-9835 9790 0
-9835 9905 0
9835 -9790 -9905 0
-9986 9650 0
-9986 9905 0
9986 -9650 -9905 0
-9847 9690 0
-9847 10001 0
-9847 9838 0
-9847 9905 0
9847 -9690 -10001 -9838 -9905 0
-9832 9838 0
-9832 9905 0
9832 -9838 -9905 0
-9995 9647 0
-9995 9905 0
-9995 9650 0
9995 -9647 -9905 -9650 0
-9962 9679 0
-9962 9838 0
-9962 9905 0
9962 -9679 -9838 -9905 0
-10015 9905 0
-10015 9653 0
10015 -9905 -9653 0
-10128 9649 0
-10128 9905 0
10128 -9649 -9905 0
-9899 9656 0
-9899 9745 0
9899 -9656 -9745 0
-9774 9662 0
-9774 9838 0
9774 -9662 -9838 0
-9781 9790 0
-9781 9668 0
9781 -9790 -9668 0
-9784 9671 0
-9784 9838 0
9784 -9671 -9838 0
-9805 9674 0
-9805 9838 0
-9805 9905 0
9805 -9674 -9838 -9905 0
-9983 9680 0
-9983 9669 0
-9983 10001 0
-9983 9905 0
9983 -9680 -9669 -10001 -9905 0
-9793 9689 0
-9793 9790 0
9793 -9689 -9790 0
-9808 9745 0
-9808 9692 0
9808 -9745 -9692 0
-9802 9698 0
-9802 9745 0
9802 -9698 -9745 0
-9902 9801 0
-9902 9744 0
9902 -9801 -9744 0
-9804 9745 0
-9804 9744 0
9804 -9745 -9744 0
-9807 9704 0
-9807 9838 0
9807 -9704 -9838 0
-9811 9745 0
-9811 9704 0
9811 -9745 -9704 0
-9895 9679 0
-9895 9690 0
-9895 10180 0
-9895 9750 0
9895 -9679 -9690 -10180 -9750 0
-10200 9801 0
-10200 9905 0
-10200 9750 0
10200 -9801 -9905 -9750 0
-9820 10001 0
-9820 10180 0
-9820 9710 0
9820 -10001 -10180 -9710 0
-10181 9801 0
-10181 8712 0
10181 -9801 -8712 0
-10067 10001 0
-10067 9759 0
10067 -10001 -9759 0
-9926 9127 0
-9926 10180 0
-9926 9908 0
9926 -9127 -10180 -9908 0
-9917 10001 0
-9917 9905 0
-9917 9908 0
-9917 8724 0
9917 -10001 -9905 -9908 -8724 0
-9920 9690 0
-9920 9998 0
-9920 9908 0
9920 -9690 -9998 -9908 0
-9989 10001 0
-9989 9908 0
9989 -10001 -9908 0
-9819 9346 0
-9819 9905 0
-9819 9908 0
9819 -9346 -9905 -9908 0
-10102 9679 0
-10102 10001 0
-10102 9905 0
-10102 9908 0
10102 -9679 -10001 -9905 -9908 0
-10050 10001 0
-10050 10180 0
-10050 9908 0
10050 -10001 -10180 -9908 0
-9045 9681 0
-9045 9690 0
-9045 9908 0
9045 -9681 -9690 -9908 0
-9831 9716 0
-9831 9998 0
9831 -9716 -9998 0
-10004 9750 0
-10004 9716 0
10004 -9750 -9716 0
-9834 9719 0
-9834 9998 0
9834 -9719 -9998 0
-9892 9722 0
-9892 9790 0
9892 -9722 -9790 0
-9867 9690 0
-9867 9747 0
-9867 9341 0
9867 -9690 -9747 -9341 0
-10095 9838 0
-10095 9341 0
10095 -9838 -9341 0
-10258 9801 0
-10258 9747 0
-10258 9341 0
10258 -9801 -9747 -9341 0
-9846 9725 0
-9846 9801 0
-9846 9745 0
9846 -9725 -9801 -9745 0
-9992 9175 0
-9992 9650 0
9992 -9175 -9650 0
-9849 9801 0
-9849 9745 0
-9849 10137 0
9849 -9801 -9745 -10137 0
-9874 9690 0
-9874 9998 0
-9874 9838 0
-9874 10137 0
9874 -9690 -9998 -9838 -10137 0
-9852 9790 0
-9852 10137 0
9852 -9790 -10137 0
-9855 9801 0
-9855 9905 0
-9855 10137 0
9855 -9801 -9905 -10137 0
-9859 10001 0
-9859 10137 0
9859 -10001 -10137 0
-9949 9341 0
-9949 10137 0
9949 -9341 -10137 0
-10059 9690 0
-10059 9998 0
-10059 9908 0
-10059 10137 0
10059 -9690 -9998 -9908 -10137 0
-10092 9838 0
-10092 9341 0
-10092 10137 0
10092 -9838 -9341 -10137 0
-10056 9905 0
-10056 9750 0
-10056 10137 0
10056 -9905 -9750 -10137 0
-10023 9686 0
-10023 10137 0
10023 -9686 -10137 0
-9937 9905 0
-9937 9202 0
-9937 8820 0
9937 -9905 -9202 -8820 0
-8821 9346 0
-8821 10180 0
-8821 9728 0
8821 -9346 -10180 -9728 0
-9861 9731 0
-9861 9790 0
9861 -9731 -9790 0
-9864 9905 0
-9864 8830 0
9864 -9905 -8830 0
-9868 10001 0
-9868 9745 0
-9868 9786 0
9868 -10001 -9745 -9786 0
-9914 9705 0
-9914 9649 0
-9914 9786 0
9914 -9705 -9649 -9786 0
-9870 9705 0
-9870 9905 0
-9870 9789 0
9870 -9705 -9905 -9789 0
-9928 10180 0
-9928 9789 0
9928 -10180 -9789 0
-9970 9905 0
-9970 9789 0
9970 -9905 -9789 0
-9931 9659 0
-9931 9789 0
9931 -9659 -9789 0
-9873 9778 0
-9873 9203 0
9873 -9778 -9203 0
-9876 9905 0
-9876 9203 0
9876 -9905 -9203 0
-9879 9745 0
-9879 9203 0
9879 -9745 -9203 0
-9883 9801 0
-9883 9795 0
9883 -9801 -9795 0
-9886 9801 0
-9886 9745 0
-9886 9795 0
9886 -9801 -9745 -9795 0
-10076 9801 0
-10076 9745 0
-10076 9795 0
10076 -9801 -9745 -9795 0
-10177 9801 0
-10177 9745 0
-10177 9795 0
10177 -9801 -9745 -9795 0
-10154 9681 0
-10154 9747 0
-10154 9734 0
10154 -9681 -9747 -9734 0
-10143 9790 0
-10143 9737 0
10143 -9790 -9737 0
-9882 9690 0
-9882 9998 0
-9882 9798 0
9882 -9690 -9998 -9798 0
-9885 9690 0
-9885 9998 0
-9885 9798 0
9885 -9690 -9998 -9798 0
-9888 9789 0
-9888 9858 0
9888 -9789 -9858 0
-9891 10180 0
-9891 9858 0
9891 -10180 -9858 0
-9894 9127 0
-9894 8903 0
-9894 9203 0
9894 -9127 -8903 -9203 0
-9955 9707 0
-9955 8903 0
9955 -9707 -8903 0
-10073 9743 0
-10073 10001 0
10073 -9743 -10001 0
-9901 9905 0
-9901 9084 0
9901 -9905 -9084 0
-9922 9838 0
-9922 9084 0
9922 -9838 -9084 0
-10105 9838 0
-10105 9905 0
-10105 9084 0
10105 -9838 -9905 -9084 0
-10236 9746 0
-10236 9778 0
-10236 9801 0
-10236 9745 0
10236 -9746 -9778 -9801 -9745 0
-10081 9749 0
-10081 9690 0
-10081 9745 0
10081 -9749 -9690 -9745 0
-9904 9998 0
-9904 8957 0
9904 -9998 -8957 0
-9907 9730 0
-9907 8957 0
9907 -9730 -8957 0
-9973 10001 0
-9973 8957 0
9973 -10001 -8957 0
-9910 9998 0
-9910 8957 0
9910 -9998 -8957 0
-9913 9669 0
-9913 9681 0
-9913 9690 0
-9913 8957 0
9913 -9669 -9681 -9690 -8957 0
-9916 9801 0
-9916 9998 0
-9916 8957 0
9916 -9801 -9998 -8957 0
-9919 9708 0
-9919 9729 0
-9919 9801 0
-9919 8957 0
9919 -9708 -9729 -9801 -8957 0
-9934 9998 0
-9934 8957 0
9934 -9998 -8957 0
-10020 9690 0
-10020 8957 0
10020 -9690 -8957 0
-9923 9816 0
-9923 9690 0
9923 -9816 -9690 0
-9925 9708 0
-9925 9747 0
-9925 9161 0
9925 -9708 -9747 -9161 0
-9929 9690 0
-9929 10001 0
-9929 9161 0
9929 -9690 -10001 -9161 0
-9980 9747 0
-9980 9161 0
9980 -9747 -9161 0
-9932 9690 0
-9932 9161 0
9932 -9690 -9161 0
-10069 9790 0
-10069 9161 0
10069 -9790 -9161 0
-10034 9747 0
-10034 9161 0
10034 -9747 -9161 0
-10125 9683 0
-10125 10001 0
-10125 9161 0
10125 -9683 -10001 -9161 0
-10086 10001 0
-10086 9747 0
-10086 9161 0
10086 -10001 -9747 -9161 0
-10031 9690 0
-10031 9790 0
-10031 9161 0
10031 -9690 -9790 -9161 0
-10112 9678 0
-10112 10001 0
-10112 9161 0
10112 -9678 -10001 -9161 0
-10006 9998 0
-10006 9161 0
-10006 10137 0
-10006 9798 0
10006 -9998 -9161 -10137 -9798 0
-10140 9690 0
-10140 9790 0
-10140 9161 0
10140 -9690 -9790 -9161 0
-10166 10001 0
-10166 9747 0
-10166 9161 0
10166 -10001 -9747 -9161 0
-10148 9161 0
-10148 9698 0
10148 -9161 -9698 0
-10133 10001 0
-10133 9790 0
-10133 9161 0
10133 -10001 -9790 -9161 0
-10156 9690 0
-10156 9790 0
-10156 9161 0
10156 -9690 -9790 -9161 0
-10163 9740 0
-10163 9161 0
10163 -9740 -9161 0
-10232 9750 0
-10232 9161 0
10232 -9750 -9161 0
-10046 9755 0
-10046 9790 0
10046 -9755 -9790 0
-10012 10001 0
-10012 9758 0
10012 -10001 -9758 0
-9935 9761 0
-9935 9790 0
9935 -9761 -9790 0
-10157 9764 0
-10157 9801 0
10157 -9764 -9801 0
-10239 9801 0
-10239 9764 0
10239 -9801 -9764 0
-10268 9341 0
-10268 10137 0
-10268 9045 0
10268 -9341 -10137 -9045 0
-9938 9778 0
-9938 9649 0
-9938 9998 0
-9938 9828 0
9938 -9778 -9649 -9998 -9828 0
-9940 9649 0
-9940 9801 0
-9940 9828 0
-9940 9858 0
9940 -9649 -9801 -9828 -9858 0
-9943 9790 0
-9943 9828 0
9943 -9790 -9828 0
-9946 9705 0
-9946 9801 0
-9946 9828 0
9946 -9705 -9801 -9828 0
-9950 9346 0
-9950 9801 0
-9950 9828 0
-9950 9067 0
9950 -9346 -9801 -9828 -9067 0
-9952 9127 0
-9952 9828 0
9952 -9127 -9828 0
-9956 9790 0
-9956 9828 0
9956 -9790 -9828 0
-9964 9801 0
-9964 9828 0
9964 -9801 -9828 0
-9077 9828 0
-9077 9203 0
-9077 9729 0
-9077 9081 0
9077 -9828 -9203 -9729 -9081 0
-10062 9828 0
-10062 9084 0
-10062 9085 0
10062 -9828 -9084 -9085 0
-9959 9790 0
-9959 9828 0
9959 -9790 -9828 0
-10083 10001 0
-10083 9747 0
-10083 9828 0
10083 -10001 -9747 -9828 0
-10115 9386 0
-10115 9790 0
-10115 9828 0
10115 -9386 -9790 -9828 0
-9961 9728 0
-9961 9346 0
-9961 9828 0
9961 -9728 -9346 -9828 0
-10199 10001 0
-10199 9828 0
10199 -10001 -9828 0
-9965 9386 0
-9965 9767 0
9965 -9386 -9767 0
-9967 9672 0
-9967 10009 0
9967 -9672 -10009 0
-10043 9838 0
-10043 10009 0
10043 -9838 -10009 0
-10028 9838 0
-10028 10009 0
10028 -9838 -10009 0
-10225 10001 0
-10225 9838 0
-10225 10009 0
10225 -10001 -9838 -10009 0
-10171 9838 0
-10171 10009 0
10171 -9838 -10009 0
-9971 9672 0
-9971 9770 0
9971 -9672 -9770 0
-9974 9127 0
-9974 9908 0
-9974 9843 0
9974 -9127 -9908 -9843 0
-9976 9838 0
-9976 9843 0
9976 -9838 -9843 0
-9979 9649 0
-9979 9843 0
9979 -9649 -9843 0
-9982 9649 0
-9982 9747 0
-9982 9843 0
9982 -9649 -9747 -9843 0
-9985 9790 0
-9985 9843 0
9985 -9790 -9843 0
-9988 9710 0
-9988 9843 0
9988 -9710 -9843 0
-9991 9747 0
-9991 9843 0
9991 -9747 -9843 0
-9994 9747 0
-9994 9843 0
9994 -9747 -9843 0
-10040 9649 0
-10040 9801 0
-10040 9843 0
10040 -9649 -9801 -9843 0
-10109 9773 0
-10109 9998 0
10109 -9773 -9998 0
-9997 9776 0
-9997 9161 0
9997 -9776 -9161 0
-10010 9779 0
-10010 9838 0
10010 -9779 -9838 0
-10026 9801 0
-10026 9782 0
10026 -9801 -9782 0
-10250 9169 0
-10250 9649 0
-10250 10001 0
-10250 9905 0
10250 -9169 -9649 -10001 -9905 0
-10194 9785 0
-10194 9175 0
10194 -9785 -9175 0
-10100 9788 0
-10100 10180 0
10100 -9788 -10180 0
-10122 9649 0
-10122 9905 0
-10122 9791 0
10122 -9649 -9905 -9791 0
-10144 9794 0
-10144 9668 0
10144 -9794 -9668 0
-10240 9649 0
-10240 9905 0
-10240 9800 0
10240 -9649 -9905 -9800 0
-10003 10001 0
-10003 10089 0
10003 -10001 -10089 0
-10053 9649 0
-10053 10089 0
-10053 9203 0
10053 -9649 -10089 -9203 0
-10037 9998 0
-10037 10089 0
10037 -9998 -10089 0
-10160 10089 0
-10160 9202 0
-10160 9203 0
10160 -10089 -9202 -9203 0
-10007 9803 0
-10007 10001 0
10007 -9803 -10001 0
-10011 9801 0
-10011 9806 0
10011 -9801 -9806 0
-10014 9998 0
-10014 9809 0
10014 -9998 -9809 0
-10018 9681 0
-10018 9812 0
10018 -9681 -9812 0
-10021 9649 0
-10021 9218 0
10021 -9649 -9218 0
-10024 9815 0
-10024 9690 0
10024 -9815 -9690 0
-10186 9801 0
-10186 9818 0
10186 -9801 -9818 0
-10099 9672 0
-10099 9821 0
10099 -9672 -9821 0
-10029 9824 0
-10029 9790 0
10029 -9824 -9790 0
-10110 9827 0
-10110 9790 0
10110 -9827 -9790 0
-10032 9830 0
-10032 9801 0
-10032 9747 0
10032 -9830 -9801 -9747 0
-10131 9833 0
-10131 9649 0
-10131 9838 0
10131 -9833 -9649 -9838 0
-10035 9836 0
-10035 9790 0
10035 -9836 -9790 0
-10253 9839 0
-10253 9789 0
10253 -9839 -9789 0
-10216 9842 0
-10216 9786 0
10216 -9842 -9786 0
-10038 9845 0
-10038 9790 0
10038 -9845 -9790 0
-10041 9848 0
-10041 9681 0
-10041 10001 0
-10041 9905 0
10041 -9848 -9681 -10001 -9905 0
-10044 9851 0
-10044 9905 0
10044 -9851 -9905 0
-10119 9681 0
-10119 9745 0
-10119 9854 0
10119 -9681 -9745 -9854 0
-10047 9705 0
-10047 9905 0
-10047 9857 0
10047 -9705 -9905 -9857 0
-10048 10001 0
-10048 9272 0
10048 -10001 -9272 0
-10074 9860 0
-10074 10180 0
10074 -9860 -10180 0
-10051 9863 0
-10051 9998 0
10051 -9863 -9998 0
-10224 9866 0
-10224 9665 0
10224 -9866 -9665 0
-10054 9869 0
-10054 9681 0
-10054 9790 0
10054 -9869 -9681 -9790 0
-9286 9872 0
-9286 9681 0
-9286 9790 0
-9286 9905 0
9286 -9872 -9681 -9790 -9905 0
-10057 9672 0
-10057 9875 0
10057 -9672 -9875 0
-10079 9878 0
-10079 10137 0
10079 -9878 -10137 0
-10060 9881 0
-10060 9644 0
-10060 9745 0
10060 -9881 -9644 -9745 0
-10192 9668 0
-10192 9884 0
-10192 9905 0
10192 -9668 -9884 -9905 0
-10266 9649 0
-10266 9905 0
-10266 9887 0
10266 -9649 -9905 -9887 0
-10249 9890 0
-10249 9789 0
10249 -9890 -9789 0
-10063 9893 0
-10063 9346 0
-10063 9681 0
-10063 9838 0
10063 -9893 -9346 -9681 -9838 0
-10066 9690 0
-10066 9896 0
10066 -9690 -9896 0
-10065 9900 0
-10065 9838 0
10065 -9900 -9838 0
-10070 9903 0
-10070 9801 0
10070 -9903 -9801 0
-10072 9905 0
-10072 9906 0
-10072 10137 0
10072 -9905 -9906 -10137 0
-10077 9690 0
-10077 9998 0
-10077 9906 0
10077 -9690 -9998 -9906 0
-10213 9690 0
-10213 9905 0
-10213 9909 0
10213 -9690 -9905 -9909 0
-10228 9730 0
-10228 9912 0
-10228 9341 0
10228 -9730 -9912 -9341 0
-10259 9705 0
-10259 9915 0
10259 -9705 -9915 0
-10208 9346 0
-10208 9918 0
-10208 10180 0
10208 -9346 -9918 -10180 0
-10080 9681 0
-10080 9921 0
-10080 9998 0
10080 -9681 -9921 -9998 0
-10084 9924 0
-10084 9998 0
10084 -9924 -9998 0
-10264 9927 0
-10264 9790 0
10264 -9927 -9790 0
-10087 9930 0
-10087 9790 0
10087 -9930 -9790 0
-10197 9690 0
-10197 10180 0
-10197 9933 0
10197 -9690 -10180 -9933 0
-9366 9936 0
-9366 9801 0
-9366 9747 0
9366 -9936 -9801 -9747 0
-10265 9778 0
-10265 9939 0
10265 -9778 -9939 0
-10090 9942 0
-10090 9690 0
10090 -9942 -9690 0
-10212 10001 0
-10212 9942 0
10212 -10001 -9942 0
-10093 9386 0
-10093 9945 0
10093 -9386 -9945 0
-10096 9730 0
-10096 9948 0
10096 -9730 -9948 0
-10098 9386 0
-10098 9951 0
10098 -9386 -9951 0
-10103 9954 0
-10103 9998 0
10103 -9954 -9998 0
-10106 9957 0
-10106 9690 0
10106 -9957 -9690 0
-10108 9960 0
-10108 10001 0
10108 -9960 -10001 0
-10113 9963 0
-10113 9998 0
10113 -9963 -9998 0
-10116 9966 0
-10116 9690 0
10116 -9966 -9690 0
-10271 9969 0
-10271 9750 0
10271 -9969 -9750 0
-10210 9690 0
-10210 9972 0
10210 -9690 -9972 0
-10169 9679 0
-10169 9975 0
10169 -9679 -9975 0
-10118 9978 0
-10118 9801 0
10118 -9978 -9801 0
-10121 9705 0
-10121 9801 0
-10121 9981 0
10121 -9705 -9801 -9981 0
-10124 9984 0
-10124 9789 0
10124 -9984 -9789 0
-10244 9649 0
-10244 9987 0
-10244 9801 0
10244 -9649 -9987 -9801 0
-10127 9990 0
-10127 9745 0
10127 -9990 -9745 0
-10130 9993 0
-10130 9745 0
10130 -9993 -9745 0
-10134 9996 0
-10134 9747 0
10134 -9996 -9747 0
-10138 9999 0
-10138 9690 0
10138 -9999 -9690 0
-10141 10002 0
-10141 9801 0
10141 -10002 -9801 0
-10189 9690 0
-10189 10005 0
10189 -9690 -10005 0
-10174 9681 0
-10174 10008 0
10174 -9681 -10008 0
-10147 9801 0
-10147 10013 0
10147 -9801 -10013 0
-10150 10016 0
-10150 9747 0
10150 -10016 -9747 0
-10153 10019 0
-10153 10001 0
10153 -10019 -10001 0
-10158 9681 0
-10158 10022 0
10158 -9681 -10022 0
-10161 10027 0
-10161 9690 0
-10161 9998 0
10161 -10027 -9690 -9998 0
-10217 9649 0
-10217 10030 0
10217 -9649 -10030 0
-10164 9801 0
-10164 10033 0
10164 -9801 -10033 0
-10184 9778 0
-10184 10036 0
10184 -9778 -10036 0
-10242 9705 0
-10242 10039 0
10242 -9705 -10039 0
-10167 10042 0
-10167 9998 0
10167 -10042 -9998 0
-10170 9801 0
-10170 10045 0
10170 -9801 -10045 0
-10173 10049 0
-10173 9801 0
10173 -10049 -9801 0
-10196 10055 0
-10196 9838 0
10196 -10055 -9838 0
-9487 10058 0
-9487 9681 0
-9487 9905 0
9487 -10058 -9681 -9905 0
-10176 9690 0
-10176 9493 0
10176 -9690 -9493 0
-10221 9649 0
-10221 10068 0
10221 -9649 -10068 0
-10201 10071 0
-10201 9690 0
10201 -10071 -9690 0
-9574 10075 0
-9574 9670 0
-9574 9669 0
9574 -10075 -9670 -9669 0
-10205 10078 0
-10205 9905 0
10205 -10078 -9905 0
-9507 10082 0
-9507 9681 0
-9507 9690 0
9507 -10082 -9681 -9690 0
-10261 9649 0
-10261 10085 0
10261 -9649 -10085 0
-10278 10088 0
-10278 9998 0
10278 -10088 -9998 0
-10185 10091 0
-10185 9790 0
10185 -10091 -9790 0
-10207 10094 0
-10207 9747 0
10207 -10094 -9747 0
-10188 10097 0
-10188 10001 0
10188 -10097 -10001 0
-10223 9690 0
-10223 10101 0
10223 -9690 -10101 0
-10191 10104 0
-10191 9998 0
10191 -10104 -9998 0
-10195 9801 0
-10195 10107 0
10195 -9801 -10107 0
-10283 10111 0
-10283 9747 0
10283 -10111 -9747 0
-10202 9778 0
-10202 10114 0
10202 -9778 -10114 0
-10255 9705 0
-10255 10117 0
10255 -9705 -10117 0
-10229 10120 0
-10229 9745 0
10229 -10120 -9745 0
-10246 10123 0
-10246 9649 0
10246 -10123 -9649 0
-10276 9801 0
-10276 10126 0
10276 -9801 -10126 0
-10204 9801 0
-10204 10129 0
10204 -9801 -10129 0
-10209 9801 0
-10209 10132 0
10209 -9801 -10132 0
-10281 10139 0
-10281 9649 0
10281 -10139 -9649 0
-10218 9681 0
-10218 10142 0
10218 -9681 -10142 0
-10272 9649 0
-10272 10146 0
10272 -9649 -10146 0
-10220 10149 0
-10220 9905 0
10220 -10149 -9905 0
-9571 9681 0
-9571 9905 0
-9571 9574 0
9571 -9681 -9905 -9574 0
-9575 10152 0
-9575 9905 0
9575 -10152 -9905 0
-10230 9681 0
-10230 10159 0
10230 -9681 -10159 0
-10256 9649 0
-10256 10162 0
10256 -9649 -10162 0
-10233 9681 0
-10233 10165 0
10233 -9681 -10165 0
-10235 10175 0
-10235 10137 0
10235 -10175 -10137 0
-10238 9681 0
-10238 10178 0
10238 -9681 -10178 0
-10243 10187 0
-10243 9681 0
10243 -10187 -9681 0
-10247 10190 0
-10247 9681 0
10247 -10190 -9681 0
-10251 9681 0
-10251 10193 0
10251 -9681 -10193 0
-10254 10198 0
-10254 9681 0
10254 -10198 -9681 0
-10260 10206 0
-10260 9681 0
10260 -10206 -9681 0
-10263 10211 0
-10263 9681 0
10263 -10211 -9681 0
-10269 10219 0
-10269 9778 0
10269 -10219 -9778 0
-10273 9681 0
-10273 10222 0
10273 -9681 -10222 0
-10275 10231 0
-10275 9690 0
10275 -10231 -9690 0
-10279 10234 0
-10279 9905 0
10279 -10234 -9905 0
-10282 9681 0
-10282 10277 0
10282 -9681 -10277 0
-10295 9627 0
-10295 9643 0
10295 -9627 -9643 0
-10289 9630 0
-10289 9643 0
10289 -9630 -9643 0
-10293 9633 0
-10293 9643 0
10293 -9633 -9643 0
-10285 9636 0
-10285 9643 0
10285 -9636 -9643 0
-10287 9639 0
-10287 9643 0
10287 -9639 -9643 0
-10291 9642 0
-10291 9643 0
10291 -9642 -9643 0
9644 -9645 0
9644 -9670 0
-9644 9645 9670 0
9647 -9778 0
9647 -9649 0
-9647 9778 9649 0
9650 -10001 0
9650 -9747 0
-9650 10001 9747 0
9653 -9747 0
9653 -9745 0
-9653 9747 9745 0
9656 -9708 0
9656 -10180 0
-9656 9708 10180 0
9659 -10001 0
9659 -10180 0
-9659 10001 10180 0
9662 -9705 0
9662 -10180 0
-9662 9705 10180 0
9665 -9666 0
9665 -9669 0
-9665 9666 9669 0
9668 -9669 0
9668 -9670 0
-9668 9669 9670 0
9671 -9672 0
9671 -9679 0
-9671 9672 9679 0
9674 -9679 0
9674 -9747 0
-9674 9679 9747 0
9729 -9678 0
9729 -9679 0
-9729 9678 9679 0
9680 -9681 0
9680 -9747 0
-9680 9681 9747 0
9683 -9690 0
9683 -9747 0
-9683 9690 9747 0
9686 -9690 0
9686 -9745 0
-9686 9690 9745 0
9689 -9690 0
9689 -9998 0
-9689 9690 9998 0
9692 -9998 0
9692 -9778 0
-9692 9998 9778 0
9695 -9708 0
9695 -9790 0
-9695 9708 9790 0
9698 -9790 0
9698 -10001 0
-9698 9790 10001 0
9744 -9790 0
9744 -10180 0
-9744 9790 10180 0
9704 -9705 0
9704 -9790 0
-9704 9705 9790 0
9707 -9708 0
9707 -9838 0
-9707 9708 9838 0
9710 -9790 0
9710 -9838 0
-9710 9790 9838 0
9759 -9838 0
9759 -10180 0
-9759 9838 10180 0
9716 -9838 0
9716 -9905 0
-9716 9838 9905 0
9719 -9790 0
9719 -9905 0
-9719 9790 9905 0
9722 -10001 0
9722 -9905 0
-9722 10001 9905 0
9725 -10001 0
9725 -9727 0
-9725 10001 9727 0
9728 -9729 0
9728 -9730 0
-9728 9729 9730 0
9731 -9732 0
9731 -9745 0
-9731 9732 9745 0
9734 -9735 0
9734 -9736 0
-9734 9735 9736 0
9737 -9738 0
9737 -10180 0
-9737 9738 10180 0
9740 -9741 0
9740 -9742 0
-9740 9741 9742 0
9743 -9744 0
9743 -9745 0
-9743 9744 9745 0
9746 -9747 0
9746 -9748 0
-9746 9747 9748 0
9749 -9750 0
9749 -9751 0
-9749 9750 9751 0
9816 -9753 0
9816 -9754 0
-9816 9753 9754 0
9755 -9759 0
9755 -9757 0
-9755 9759 9757 0
9758 -9759 0
9758 -9760 0
-9758 9759 9760 0
9761 -10001 0
9761 -9763 0
-9761 10001 9763 0
9764 -9908 0
9764 -9998 0
-9764 9908 9998 0
9767 -9768 0
9767 -9769 0
-9767 9768 9769 0
9770 -9771 0
9770 -9772 0
-9770 9771 9772 0
9773 -9774 0
9773 -9775 0
-9773 9774 9775 0
9776 -10137 0
9776 -9778 0
-9776 10137 9778 0
9779 -10180 0
9779 -9781 0
-9779 10180 9781 0
9782 -9783 0
9782 -9784 0
-9782 9783 9784 0
9785 -9786 0
9785 -9787 0
-9785 9786 9787 0
9788 -9789 0
9788 -9790 0
-9788 9789 9790 0
9791 -9792 0
9791 -9793 0
-9791 9792 9793 0
9794 -9795 0
9794 -9796 0
-9794 9795 9796 0
9797 -9798 0
9797 -9838 0
-9797 9798 9838 0
9800 -9801 0
9800 -9802 0
-9800 9801 9802 0
9803 -9804 0
9803 -9805 0
-9803 9804 9805 0
9806 -9807 0
9806 -9808 0
-9806 9807 9808 0
9809 -9810 0
9809 -9811 0
-9809 9810 9811 0
9812 -9813 0
9812 -9814 0
-9812 9813 9814 0
9815 -9816 0
9815 -10001 0
-9815 9816 10001 0
9818 -9819 0
9818 -9820 0
-9818 9819 9820 0
9821 -9828 0
9821 -9823 0
-9821 9828 9823 0
9824 -9828 0
9824 -9826 0
-9824 9828 9826 0
9827 -9828 0
9827 -9829 0
-9827 9828 9829 0
9830 -9831 0
9830 -9832 0
-9830 9831 9832 0
9833 -9834 0
9833 -9835 0
-9833 9834 9835 0
9836 -9843 0
9836 -9838 0
-9836 9843 9838 0
9839 -9843 0
9839 -9841 0
-9839 9843 9841 0
9842 -9843 0
9842 -9844 0
-9842 9843 9844 0
9845 -9846 0
9845 -9847 0
-9845 9846 9847 0
9848 -9849 0
9848 -9850 0
-9848 9849 9850 0
9851 -9852 0
9851 -9853 0
-9851 9852 9853 0
9854 -9855 0
9854 -9856 0
-9854 9855 9856 0
9857 -9858 0
9857 -9859 0
-9857 9858 9859 0
9860 -9861 0
9860 -9862 0
-9860 9861 9862 0
9863 -9864 0
9863 -9865 0
-9863 9864 9865 0
9866 -9867 0
9866 -9868 0
-9866 9867 9868 0
9869 -9870 0
9869 -9871 0
-9869 9870 9871 0
9872 -9873 0
9872 -9874 0
-9872 9873 9874 0
9875 -9876 0
9875 -9877 0
-9875 9876 9877 0
9878 -9879 0
9878 -9880 0
-9878 9879 9880 0
9881 -9882 0
9881 -9883 0
-9881 9882 9883 0
9884 -9885 0
9884 -9886 0
-9884 9885 9886 0
9887 -9888 0
9887 -9889 0
-9887 9888 9889 0
9890 -9891 0
9890 -9892 0
-9890 9891 9892 0
9893 -9894 0
9893 -9895 0
-9893 9894 9895 0
9896 -10089 0
9896 -10001 0
9896 -9899 0
-9896 10089 10001 9899 0
9900 -9901 0
9900 -9902 0
-9900 9901 9902 0
9903 -9904 0
9903 -9905 0
-9903 9904 9905 0
9906 -9907 0
9906 -9908 0
-9906 9907 9908 0
9909 -9910 0
9909 -9911 0
-9909 9910 9911 0
9912 -9913 0
9912 -9914 0
-9912 9913 9914 0
9915 -9916 0
9915 -9917 0
-9915 9916 9917 0
9918 -9919 0
9918 -9920 0
-9918 9919 9920 0
9921 -9922 0
9921 -9923 0
-9921 9922 9923 0
9924 -9925 0
9924 -9926 0
-9924 9925 9926 0
9927 -9928 0
9927 -9929 0
-9927 9928 9929 0
9930 -9931 0
9930 -9932 0
-9930 9931 9932 0
9933 -9934 0
9933 -9935 0
-9933 9934 9935 0
9936 -9937 0
9936 -9938 0
-9936 9937 9938 0
9939 -9940 0
9939 -9941 0
-9939 9940 9941 0
9942 -9943 0
9942 -9944 0
-9942 9943 9944 0
9945 -9946 0
9945 -9947 0
-9945 9946 9947 0
9948 -9949 0
9948 -9950 0
-9948 9949 9950 0
9951 -9952 0
9951 -9953 0
-9951 9952 9953 0
9954 -9955 0
9954 -9956 0
-9954 9955 9956 0
9957 -10089 0
9957 -9959 0
-9957 10089 9959 0
9960 -9961 0
9960 -9962 0
-9960 9961 9962 0
9963 -9964 0
9963 -9965 0
-9963 9964 9965 0
9966 -9967 0
9966 -10001 0
-9966 9967 10001 0
9969 -9970 0
9969 -9971 0
-9969 9970 9971 0
9972 -9973 0
9972 -9974 0
-9972 9973 9974 0
9975 -9976 0
9975 -9977 0
-9975 9976 9977 0
9978 -9979 0
9978 -9980 0
-9978 9979 9980 0
9981 -9982 0
9981 -9983 0
-9981 9982 9983 0
9984 -9985 0
9984 -9986 0
-9984 9985 9986 0
9987 -9988 0
9987 -9989 0
-9987 9988 9989 0
9990 -9991 0
9990 -9992 0
-9990 9991 9992 0
9993 -9994 0
9993 -9995 0
-9993 9994 9995 0
9996 -9997 0
9996 -9998 0
-9996 9997 9998 0
9999 -10000 0
9999 -10001 0
-9999 10000 10001 0
10002 -10003 0
10002 -10004 0
-10002 10003 10004 0
10005 -10006 0
10005 -10007 0
-10005 10006 10007 0
10008 -10009 0
10008 -10010 0
10008 -10011 0
10008 -10012 0
-10008 10009 10010 10011 10012 0
10013 -10014 0
10013 -10015 0
-10013 10014 10015 0
10016 -10017 0
10016 -10018 0
-10016 10017 10018 0
10019 -10020 0
10019 -10021 0
-10019 10020 10021 0
10022 -10023 0
10022 -10024 0
10022 -10180 0
10022 -10026 0
-10022 10023 10024 10180 10026 0
10027 -10028 0
10027 -10029 0
-10027 10028 10029 0
10030 -10031 0
10030 -10032 0
-10030 10031 10032 0
10033 -10034 0
10033 -10035 0
-10033 10034 10035 0
10036 -10037 0
10036 -10038 0
-10036 10037 10038 0
10039 -10040 0
10039 -10041 0
-10039 10040 10041 0
10042 -10043 0
10042 -10044 0
-10042 10043 10044 0
10045 -10046 0
10045 -10047 0
10045 -10048 0
-10045 10046 10047 10048 0
10049 -10050 0
10049 -10051 0
-10049 10050 10051 0
10052 -10053 0
10052 -10054 0
-10052 10053 10054 0
10055 -10056 0
10055 -10057 0
-10055 10056 10057 0
10058 -10059 0
10058 -10060 0
-10058 10059 10060 0
10061 -10062 0
10061 -10063 0
-10061 10062 10063 0
10145 -10065 0
10145 -10066 0
10145 -10067 0
-10145 10065 10066 10067 0
10068 -10069 0
10068 -10070 0
-10068 10069 10070 0
10071 -10072 0
10071 -10073 0
10071 -10074 0
-10071 10072 10073 10074 0
10075 -10076 0
10075 -10077 0
-10075 10076 10077 0
10078 -10079 0
10078 -10080 0
10078 -10081 0
-10078 10079 10080 10081 0
10082 -10083 0
10082 -10084 0
-10082 10083 10084 0
10085 -10086 0
10085 -10087 0
-10085 10086 10087 0
10088 -10089 0
10088 -10090 0
-10088 10089 10090 0
10091 -10092 0
10091 -10093 0
-10091 10092 10093 0
10094 -10095 0
10094 -10096 0
-10094 10095 10096 0
10097 -10098 0
10097 -10099 0
10097 -10100 0
-10097 10098 10099 10100 0
10101 -10102 0
10101 -10103 0
-10101 10102 10103 0
10104 -10105 0
10104 -10106 0
-10104 10105 10106 0
10107 -10108 0
10107 -10109 0
10107 -10110 0
-10107 10108 10109 10110 0
10111 -10112 0
10111 -10113 0
-10111 10112 10113 0
10114 -10115 0
10114 -10116 0
-10114 10115 10116 0
10117 -10118 0
10117 -10119 0
-10117 10118 10119 0
10120 -10121 0
10120 -10122 0
-10120 10121 10122 0
10123 -10124 0
10123 -10125 0
-10123 10124 10125 0
10126 -10127 0
10126 -10128 0
-10126 10127 10128 0
10129 -10130 0
10129 -10131 0
-10129 10130 10131 0
10132 -10133 0
10132 -10134 0
-10132 10133 10134 0
10182 -10136 0
10182 -10137 0
10182 -10138 0
-10182 10136 10137 10138 0
10139 -10140 0
10139 -10141 0
-10139 10140 10141 0
10142 -10143 0
10142 -10144 0
10142 -10145 0
-10142 10143 10144 10145 0
10146 -10147 0
10146 -10148 0
-10146 10147 10148 0
10149 -10150 0
10149 -10151 0
-10149 10150 10151 0
10152 -10153 0
10152 -10154 0
-10152 10153 10154 0
10155 -10156 0
10155 -10157 0
10155 -10158 0
-10155 10156 10157 10158 0
10159 -10160 0
10159 -10161 0
-10159 10160 10161 0
10162 -10163 0
10162 -10164 0
-10162 10163 10164 0
10165 -10166 0
10165 -10167 0
-10165 10166 10167 0
10214 -10169 0
10214 -10170 0
10214 -10171 0
-10214 10169 10170 10171 0
10172 -10173 0
10172 -10174 0
-10172 10173 10174 0
10175 -10176 0
10175 -10177 0
-10175 10176 10177 0
10178 -10179 0
10178 -10180 0
10178 -10181 0
10178 -10182 0
-10178 10179 10180 10181 10182 0
10226 -10184 0
10226 -10185 0
10226 -10186 0
-10226 10184 10185 10186 0
10187 -10188 0
10187 -10189 0
-10187 10188 10189 0
10190 -10191 0
10190 -10192 0
-10190 10191 10192 0
10193 -10194 0
10193 -10195 0
10193 -10196 0
10193 -10197 0
-10193 10194 10195 10196 10197 0
10198 -10199 0
10198 -10200 0
10198 -10201 0
10198 -10202 0
-10198 10199 10200 10201 10202 0
10203 -10204 0
10203 -10205 0
-10203 10204 10205 0
10206 -10207 0
10206 -10208 0
10206 -10209 0
10206 -10210 0
-10206 10207 10208 10209 10210 0
10211 -10212 0
10211 -10213 0
10211 -10214 0
-10211 10212 10213 10214 0
10215 -10216 0
10215 -10217 0
10215 -10218 0
-10215 10216 10217 10218 0
10219 -10220 0
10219 -10221 0
-10219 10220 10221 0
10222 -10223 0
10222 -10224 0
10222 -10225 0
10222 -10226 0
-10222 10223 10224 10225 10226 0
10227 -10228 0
10227 -10229 0
10227 -10230 0
-10227 10228 10229 10230 0
10231 -10232 0
10231 -10233 0
-10231 10232 10233 0
10234 -10235 0
10234 -10236 0
-10234 10235 10236 0
10237 -10238 0
10237 -10239 0
10237 -10240 0
-10237 10238 10239 10240 0
10241 -10242 0
10241 -10243 0
10241 -10244 0
-10241 10242 10243 10244 0
10245 -10246 0
10245 -10247 0
-10245 10246 10247 0
10248 -10249 0
10248 -10250 0
10248 -10251 0
-10248 10249 10250 10251 0
10252 -10253 0
10252 -10254 0
10252 -10255 0
10252 -10256 0
-10252 10253 10254 10255 10256 0
10257 -10258 0
10257 -10259 0
10257 -10260 0
10257 -10261 0
-10257 10258 10259 10260 10261 0
10262 -10263 0
10262 -10264 0
10262 -10265 0
10262 -10266 0
-10262 10263 10264 10265 10266 0
10267 -10268 0
10267 -10269 0
-10267 10268 10269 0
10270 -10271 0
10270 -10272 0
10270 -10273 0
-10270 10271 10272 10273 0
10274 -10275 0
10274 -10276 0
-10274 10275 10276 0
10277 -10278 0
10277 -10279 0
-10277 10278 10279 0
10280 -10281 0
10280 -10282 0
10280 -10283 0
-10280 10281 10282 10283 0
-10285 12194 0
10285 -12194 0
-10287 11759 0
10287 -11759 0
-10289 11761 0
10289 -11761 0
-10291 12015 0
10291 -12015 0
-10293 11815 0
10293 -11815 0
-10295 11663 0
10295 -11663 0
11744 11722 0
-11744 -11722 0
11400 11692 0
-11400 -11692 0
11719 11792 0
-11719 -11792 0
11686 11360 0
-11686 -11360 0
11680 11684 0
-11680 -11684 0
11683 11659 0
-11683 -11659 0
11693 11141 0
-11693 -11141 0
11695 11663 0
-11695 -11663 0
11704 11815 0
-11704 -11815 0
12012 12015 0
-12012 -12015 0
11804 11761 0
-11804 -11761 0
11852 11759 0
-11852 -11759 0
11919 12194 0
-11919 -12194 0
12150 11658 0
-12150 -11658 0
10327 12015 0
-10327 -12015 0
11762 10327 0
-11762 -10327 0
11764 11664 0
-11764 -11664 0
10333 11792 0
-10333 -11792 0
10726 10333 0
-10726 -10333 0
11922 11667 0
-11922 -11667 0
10339 11804 0
-10339 -11804 0
11789 10339 0
-11789 -10339 0
11355 11673 0
-11355 -11673 0
11189 11676 0
-11189 -11676 0
12151 11679 0
-12151 -11679 0
10349 11679 0
-10349 -11679 0
11843 10349 0
-11843 -10349 0
11216 11685 0
-11216 -11685 0
11081 11743 0
-11081 -11743 0
10844 11694 0
-10844 -11694 0
11800 11697 0
-11800 -11697 0
11803 11700 0
-11803 -11700 0
11217 11703 0
-11217 -11703 0
11809 11706 0
-11809 -11706 0
11812 11709 0
-11812 -11709 0
11872 11712 0
-11872 -11712 0
10917 11758 0
-10917 -11758 0
11098 11718 0
-11098 -11718 0
11827 11721 0
-11827 -11721 0
10971 11724 0
-10971 -11724 0
11175 11773 0
-11175 -11773 0
11842 11730 0
-11842 -11730 0
12023 11733 0
-12023 -11733 0
11857 11736 0
-11857 -11736 0
10387 11759 0
-10387 -11759 0
11183 10387 0
-11183 -10387 0
12103 11757 0
-12103 -11757 0
10393 10598 0
-10393 -10598 0
11232 10393 0
-11232 -10393 0
10397 10835 0
-10397 -10835 0
11286 10397 0
-11286 -10397 0
12014 11811 0
-12014 -11811 0
10400 11091 0
-10400 -11091 0
10402 11300 0
-10402 -11300 0
11507 12013 0
-11507 -12013 0
10406 11380 0
-10406 -11380 0
10408 12066 0
-10408 -12066 0
10410 12075 0
-10410 -12075 0
10412 11501 0
-10412 -11501 0
10414 12169 0
-10414 -12169 0
10416 11521 0
-10416 -11521 0
10418 12186 0
-10418 -12186 0
10420 11585 0
-10420 -11585 0
10422 11589 0
-10422 -11589 0
10424 12217 0
-10424 -12217 0
10426 12229 0
-10426 -12229 0
10428 12241 0
-10428 -12241 0
10430 12251 0
-10430 -12251 0
10449 12255 0
-10449 -12255 0
10434 12259 0
-10434 -12259 0
10451 12262 0
-10451 -12262 0
10453 12266 0
-10453 -12266 0
10457 12271 0
-10457 -12271 0
10459 12276 0
-10459 -12276 0
10444 12281 0
-10444 -12281 0
10461 12284 0
-10461 -12284 0
11641 10449 0
-11641 -10449 0
11644 10451 0
-11644 -10451 0
11647 10453 0
-11647 -10453 0
10454 12288 0
-10454 -12288 0
11650 10457 0
-11650 -10457 0
11653 10459 0
-11653 -10459 0
11656 10461 0
-11656 -10461 0
10462 12294 0
-10462 -12294 0
-11755 12015 0
-11755 11761 0
11755 -12015 -11761 0
-11765 12015 0
-11765 11761 0
11765 -12015 -11761 0
-11806 11815 0
-11806 12015 0
-11806 11761 0
11806 -11815 -12015 -11761 0
-11782 11815 0
-11782 11759 0
11782 -11815 -11759 0
-11767 11722 0
-11767 11759 0
11767 -11722 -11759 0
-11867 11722 0
-11867 11759 0
11867 -11722 -11759 0
-11797 11792 0
-11797 11759 0
11797 -11792 -11759 0
-12031 12015 0
-12031 11759 0
12031 -12015 -11759 0
-11741 11692 0
-11741 12194 0
11741 -11692 -12194 0
-11746 11686 0
-11746 11693 0
11746 -11686 -11693 0
-11095 11360 0
-11095 11695 0
-11095 11761 0
11095 -11360 -11695 -11761 0
-11750 11722 0
-11750 11704 0
-11750 11759 0
11750 -11722 -11704 -11759 0
-11785 11693 0
-11785 11695 0
-11785 11704 0
-11785 12194 0
11785 -11693 -11695 -11704 -12194 0
-11810 11704 0
-11810 11759 0
11810 -11704 -11759 0
-11885 11704 0
-11885 12015 0
-11885 12194 0
11885 -11704 -12015 -12194 0
-11801 11704 0
-11801 12015 0
-11801 11761 0
11801 -11704 -12015 -11761 0
-10738 11692 0
-10738 11141 0
-10738 11695 0
-10738 11704 0
10738 -11692 -11141 -11695 -11704 0
-11749 11719 0
-11749 11815 0
-11749 12012 0
11749 -11719 -11815 -12012 0
-11752 12012 0
-11752 11759 0
11752 -12012 -11759 0
-11771 11686 0
-11771 12012 0
11771 -11686 -12012 0
-11894 11695 0
-11894 11704 0
-11894 12012 0
11894 -11695 -11704 -12012 0
-11099 11663 0
-11099 11815 0
-11099 12012 0
11099 -11663 -11815 -12012 0
-11756 11704 0
-11756 11804 0
11756 -11704 -11804 0
-11870 11692 0
-11870 11804 0
-11870 12194 0
11870 -11692 -11804 -12194 0
-11903 11704 0
-11903 11804 0
-11903 11759 0
11903 -11704 -11804 -11759 0
-11891 11804 0
-11891 12194 0
11891 -11804 -12194 0
-11925 11400 0
-11925 12015 0
-11925 11804 0
11925 -11400 -12015 -11804 0
-11774 11704 0
-11774 11804 0
11774 -11704 -11804 0
-12165 11815 0
-12165 11759 0
-12165 11664 0
12165 -11815 -11759 -11664 0
-11768 11761 0
-11768 11852 0
11768 -11761 -11852 0
-11777 11141 0
-11777 11852 0
11777 -11141 -11852 0
-10834 11695 0
-10834 12015 0
-10834 11852 0
10834 -11695 -12015 -11852 0
-11828 12012 0
-11828 11852 0
11828 -12012 -11852 0
-11864 11704 0
-11864 11852 0
11864 -11704 -11852 0
-11958 11761 0
-11958 11852 0
11958 -11761 -11852 0
-11858 12015 0
-11858 11852 0
11858 -12015 -11852 0
-11876 11761 0
-11876 11852 0
11876 -11761 -11852 0
-11824 11761 0
-11824 11852 0
11824 -11761 -11852 0
-12193 11761 0
-12193 11852 0
12193 -11761 -11852 0
-10598 11815 0
-10598 11667 0
10598 -11815 -11667 0
-11879 11667 0
-11879 12194 0
11879 -11667 -12194 0
-11783 11695 0
-11783 11919 0
11783 -11695 -11919 0
-11786 11815 0
-11786 11919 0
11786 -11815 -11919 0
-11955 11695 0
-11955 12015 0
-11955 11804 0
-11955 11919 0
11955 -11695 -12015 -11804 -11919 0
-11961 11704 0
-11961 12015 0
-11961 11852 0
-11961 11919 0
11961 -11704 -12015 -11852 -11919 0
-11837 11704 0
-11837 11852 0
-11837 11919 0
11837 -11704 -11852 -11919 0
-11991 11704 0
-11991 12015 0
-11991 11804 0
-11991 11919 0
11991 -11704 -12015 -11804 -11919 0
-11840 11683 0
-11840 11852 0
-11840 11919 0
11840 -11683 -11852 -11919 0
-11967 11704 0
-11967 11852 0
-11967 11919 0
11967 -11704 -11852 -11919 0
-11855 11360 0
-11855 11804 0
-11855 11919 0
11855 -11360 -11804 -11919 0
-11849 11804 0
-11849 11919 0
11849 -11804 -11919 0
-12000 11664 0
-12000 11919 0
12000 -11664 -11919 0
-11861 11704 0
-11861 12015 0
-11861 11852 0
-11861 11919 0
11861 -11704 -12015 -11852 -11919 0
-11846 11852 0
-11846 11919 0
11846 -11852 -11919 0
-12009 11661 0
-12009 11919 0
-12009 11664 0
12009 -11661 -11919 -11664 0
-11976 11693 0
-11976 11852 0
-11976 11919 0
11976 -11693 -11852 -11919 0
-12029 11919 0
-12029 11667 0
12029 -11919 -11667 0
-12142 11663 0
-12142 11919 0
12142 -11663 -11919 0
-11913 11670 0
-11913 11759 0
11913 -11670 -11759 0
-11788 11676 0
-11788 11852 0
11788 -11676 -11852 0
-11795 11804 0
-11795 11682 0
11795 -11804 -11682 0
-11798 11685 0
-11798 11852 0
11798 -11685 -11852 0
-11819 11688 0
-11819 11852 0
-11819 11919 0
11819 -11688 -11852 -11919 0
-11997 11694 0
-11997 11683 0
-11997 12015 0
-11997 11919 0
11997 -11694 -11683 -12015 -11919 0
-11807 11703 0
-11807 11804 0
11807 -11703 -11804 0
-11822 11759 0
-11822 11706 0
11822 -11759 -11706 0
-11816 11712 0
-11816 11759 0
11816 -11712 -11759 0
-11916 11815 0
-11916 11758 0
11916 -11815 -11758 0
-11818 11759 0
-11818 11758 0
11818 -11759 -11758 0
-11821 11718 0
-11821 11852 0
11821 -11718 -11852 0
-11825 11759 0
-11825 11718 0
11825 -11759 -11718 0
-11909 11693 0
-11909 11704 0
-11909 12194 0
-11909 11764 0
11909 -11693 -11704 -12194 -11764 0
-12214 11815 0
-12214 11919 0
-12214 11764 0
12214 -11815 -11919 -11764 0
-11834 12015 0
-11834 12194 0
-11834 11724 0
11834 -12015 -12194 -11724 0
-12195 11815 0
-12195 10726 0
12195 -11815 -10726 0
-12081 12015 0
-12081 11773 0
12081 -12015 -11773 0
-11940 11141 0
-11940 12194 0
-11940 11922 0
11940 -11141 -12194 -11922 0
-11931 12015 0
-11931 11919 0
-11931 11922 0
-11931 10738 0
11931 -12015 -11919 -11922 -10738 0
-11934 11704 0
-11934 12012 0
-11934 11922 0
11934 -11704 -12012 -11922 0
-12003 12015 0
-12003 11922 0
12003 -12015 -11922 0
-11833 11360 0
-11833 11919 0
-11833 11922 0
11833 -11360 -11919 -11922 0
-12116 11693 0
-12116 12015 0
-12116 11919 0
-12116 11922 0
12116 -11693 -12015 -11919 -11922 0
-12064 12015 0
-12064 12194 0
-12064 11922 0
12064 -12015 -12194 -11922 0
-11059 11695 0
-11059 11704 0
-11059 11922 0
11059 -11695 -11704 -11922 0
-11845 11730 0
-11845 12012 0
11845 -11730 -12012 0
-12018 11764 0
-12018 11730 0
12018 -11764 -11730 0
-11848 11733 0
-11848 12012 0
11848 -11733 -12012 0
-11906 11736 0
-11906 11804 0
11906 -11736 -11804 0
-11881 11704 0
-11881 11761 0
-11881 11355 0
11881 -11704 -11761 -11355 0
-12109 11852 0
-12109 11355 0
12109 -11852 -11355 0
-12272 11815 0
-12272 11761 0
-12272 11355 0
12272 -11815 -11761 -11355 0
-11860 11739 0
-11860 11815 0
-11860 11759 0
11860 -11739 -11815 -11759 0
-12006 11189 0
-12006 11664 0
12006 -11189 -11664 0
-11863 11815 0
-11863 11759 0
-11863 12151 0
11863 -11815 -11759 -12151 0
-11888 11704 0
-11888 12012 0
-11888 11852 0
-11888 12151 0
11888 -11704 -12012 -11852 -12151 0
-11866 11804 0
-11866 12151 0
11866 -11804 -12151 0
-11869 11815 0
-11869 11919 0
-11869 12151 0
11869 -11815 -11919 -12151 0
-11873 12015 0
-11873 12151 0
11873 -12015 -12151 0
-11963 11355 0
-11963 12151 0
11963 -11355 -12151 0
-12073 11704 0
-12073 12012 0
-12073 11922 0
-12073 12151 0
12073 -11704 -12012 -11922 -12151 0
-12106 11852 0
-12106 11355 0
-12106 12151 0
12106 -11852 -11355 -12151 0
-12070 11919 0
-12070 11764 0
-12070 12151 0
12070 -11919 -11764 -12151 0
-12037 11700 0
-12037 12151 0
12037 -11700 -12151 0
-11951 11919 0
-11951 11216 0
-11951 10834 0
11951 -11919 -11216 -10834 0
-10835 11360 0
-10835 12194 0
-10835 11742 0
10835 -11360 -12194 -11742 0
-11875 11745 0
-11875 11804 0
11875 -11745 -11804 0
-11878 11919 0
-11878 10844 0
11878 -11919 -10844 0
-11882 12015 0
-11882 11759 0
-11882 11800 0
11882 -12015 -11759 -11800 0
-11928 11719 0
-11928 11663 0
-11928 11800 0
11928 -11719 -11663 -11800 0
-11884 11719 0
-11884 11919 0
-11884 11803 0
11884 -11719 -11919 -11803 0
-11942 12194 0
-11942 11803 0
11942 -12194 -11803 0
-11984 11919 0
-11984 11803 0
11984 -11919 -11803 0
-11945 11673 0
-11945 11803 0
11945 -11673 -11803 0
-11887 11792 0
-11887 11217 0
11887 -11792 -11217 0
-11890 11919 0
-11890 11217 0
11890 -11919 -11217 0
-11893 11759 0
-11893 11217 0
11893 -11759 -11217 0
-11897 11815 0
-11897 11809 0
11897 -11815 -11809 0
-11900 11815 0
-11900 11759 0
-11900 11809 0
11900 -11815 -11759 -11809 0
-12090 11815 0
-12090 11759 0
-12090 11809 0
12090 -11815 -11759 -11809 0
-12191 11815 0
-12191 11759 0
-12191 11809 0
12191 -11815 -11759 -11809 0
-12168 11695 0
-12168 11761 0
-12168 11748 0
12168 -11695 -11761 -11748 0
-12157 11804 0
-12157 11751 0
12157 -11804 -11751 0
-11896 11704 0
-11896 12012 0
-11896 11812 0
11896 -11704 -12012 -11812 0
-11899 11704 0
-11899 12012 0
-11899 11812 0
11899 -11704 -12012 -11812 0
-11902 11803 0
-11902 11872 0
11902 -11803 -11872 0
-11905 12194 0
-11905 11872 0
11905 -12194 -11872 0
-11908 11141 0
-11908 10917 0
-11908 11217 0
11908 -11141 -10917 -11217 0
-11969 11721 0
-11969 10917 0
11969 -11721 -10917 0
-12087 11757 0
-12087 12015 0
12087 -11757 -12015 0
-11915 11919 0
-11915 11098 0
11915 -11919 -11098 0
-11936 11852 0
-11936 11098 0
11936 -11852 -11098 0
-12119 11852 0
-12119 11919 0
-12119 11098 0
12119 -11852 -11919 -11098 0
-12250 11760 0
-12250 11792 0
-12250 11815 0
-12250 11759 0
12250 -11760 -11792 -11815 -11759 0
-12095 11763 0
-12095 11704 0
-12095 11759 0
12095 -11763 -11704 -11759 0
-11918 12012 0
-11918 10971 0
11918 -12012 -10971 0
-11921 11744 0
-11921 10971 0
11921 -11744 -10971 0
-11987 12015 0
-11987 10971 0
11987 -12015 -10971 0
-11924 12012 0
-11924 10971 0
11924 -12012 -10971 0
-11927 11683 0
-11927 11695 0
-11927 11704 0
-11927 10971 0
11927 -11683 -11695 -11704 -10971 0
-11930 11815 0
-11930 12012 0
-11930 10971 0
11930 -11815 -12012 -10971 0
-11933 11722 0
-11933 11743 0
-11933 11815 0
-11933 10971 0
11933 -11722 -11743 -11815 -10971 0
-11948 12012 0
-11948 10971 0
11948 -12012 -10971 0
-12034 11704 0
-12034 10971 0
12034 -11704 -10971 0
-11937 11830 0
-11937 11704 0
11937 -11830 -11704 0
-11939 11722 0
-11939 11761 0
-11939 11175 0
11939 -11722 -11761 -11175 0
-11943 11704 0
-11943 12015 0
-11943 11175 0
11943 -11704 -12015 -11175 0
-11994 11761 0
-11994 11175 0
11994 -11761 -11175 0
-11946 11704 0
-11946 11175 0
11946 -11704 -11175 0
-12083 11804 0
-12083 11175 0
12083 -11804 -11175 0
-12048 11761 0
-12048 11175 0
12048 -11761 -11175 0
-12139 11697 0
-12139 12015 0
-12139 11175 0
12139 -11697 -12015 -11175 0
-12100 12015 0
-12100 11761 0
-12100 11175 0
12100 -12015 -11761 -11175 0
-12045 11704 0
-12045 11804 0
-12045 11175 0
12045 -11704 -11804 -11175 0
-12126 11692 0
-12126 12015 0
-12126 11175 0
12126 -11692 -12015 -11175 0
-12020 12012 0
-12020 11175 0
-12020 12151 0
-12020 11812 0
12020 -12012 -11175 -12151 -11812 0
-12154 11704 0
-12154 11804 0
-12154 11175 0
12154 -11704 -11804 -11175 0
-12180 12015 0
-12180 11761 0
-12180 11175 0
12180 -12015 -11761 -11175 0
-12162 11175 0
-12162 11712 0
12162 -11175 -11712 0
-12147 12015 0
-12147 11804 0
-12147 11175 0
12147 -12015 -11804 -11175 0
-12170 11704 0
-12170 11804 0
-12170 11175 0
12170 -11704 -11804 -11175 0
-12177 11754 0
-12177 11175 0
12177 -11754 -11175 0
-12246 11764 0
-12246 11175 0
12246 -11764 -11175 0
-12060 11769 0
-12060 11804 0
12060 -11769 -11804 0
-12026 12015 0
-12026 11772 0
12026 -12015 -11772 0
-11949 11775 0
-11949 11804 0
11949 -11775 -11804 0
-12171 11778 0
-12171 11815 0
12171 -11778 -11815 0
-12253 11815 0
-12253 11778 0
12253 -11815 -11778 0
-12282 11355 0
-12282 12151 0
-12282 11059 0
12282 -11355 -12151 -11059 0
-11952 11792 0
-11952 11663 0
-11952 12012 0
-11952 11842 0
11952 -11792 -11663 -12012 -11842 0
-11954 11663 0
-11954 11815 0
-11954 11842 0
-11954 11872 0
11954 -11663 -11815 -11842 -11872 0
-11957 11804 0
-11957 11842 0
11957 -11804 -11842 0
-11960 11719 0
-11960 11815 0
-11960 11842 0
11960 -11719 -11815 -11842 0
-11964 11360 0
-11964 11815 0
-11964 11842 0
-11964 11081 0
11964 -11360 -11815 -11842 -11081 0
-11966 11141 0
-11966 11842 0
11966 -11141 -11842 0
-11970 11804 0
-11970 11842 0
11970 -11804 -11842 0
-11978 11815 0
-11978 11842 0
11978 -11815 -11842 0
-11091 11842 0
-11091 11217 0
-11091 11743 0
-11091 11095 0
11091 -11842 -11217 -11743 -11095 0
-12076 11842 0
-12076 11098 0
-12076 11099 0
12076 -11842 -11098 -11099 0
-11973 11804 0
-11973 11842 0
11973 -11804 -11842 0
-12097 12015 0
-12097 11761 0
-12097 11842 0
12097 -12015 -11761 -11842 0
-12129 11400 0
-12129 11804 0
-12129 11842 0
12129 -11400 -11804 -11842 0
-11975 11742 0
-11975 11360 0
-11975 11842 0
11975 -11742 -11360 -11842 0
-12213 12015 0
-12213 11842 0
12213 -12015 -11842 0
-11979 11400 0
-11979 11781 0
11979 -11400 -11781 0
-11981 11686 0
-11981 12023 0
11981 -11686 -12023 0
-12057 11852 0
-12057 12023 0
12057 -11852 -12023 0
-12042 11852 0
-12042 12023 0
12042 -11852 -12023 0
-12239 12015 0
-12239 11852 0
-12239 12023 0
12239 -12015 -11852 -12023 0
-12185 11852 0
-12185 12023 0
12185 -11852 -12023 0
-11985 11686 0
-11985 11784 0
11985 -11686 -11784 0
-11988 11141 0
-11988 11922 0
-11988 11857 0
11988 -11141 -11922 -11857 0
-11990 11852 0
-11990 11857 0
11990 -11852 -11857 0
-11993 11663 0
-11993 11857 0
11993 -11663 -11857 0
-11996 11663 0
-11996 11761 0
-11996 11857 0
11996 -11663 -11761 -11857 0
-11999 11804 0
-11999 11857 0
11999 -11804 -11857 0
-12002 11724 0
-12002 11857 0
12002 -11724 -11857 0
-12005 11761 0
-12005 11857 0
12005 -11761 -11857 0
-12008 11761 0
-12008 11857 0
12008 -11761 -11857 0
-12054 11663 0
-12054 11815 0
-12054 11857 0
12054 -11663 -11815 -11857 0
-12123 11787 0
-12123 12012 0
12123 -11787 -12012 0
-12011 11790 0
-12011 11175 0
12011 -11790 -11175 0
-12024 11793 0
-12024 11852 0
12024 -11793 -11852 0
-12040 11815 0
-12040 11796 0
12040 -11815 -11796 0
-12264 11183 0
-12264 11663 0
-12264 12015 0
-12264 11919 0
12264 -11183 -11663 -12015 -11919 0
-12208 11799 0
-12208 11189 0
12208 -11799 -11189 0
-12114 11802 0
-12114 12194 0
12114 -11802 -12194 0
-12136 11663 0
-12136 11919 0
-12136 11805 0
12136 -11663 -11919 -11805 0
-12158 11808 0
-12158 11682 0
12158 -11808 -11682 0
-12254 11663 0
-12254 11919 0
-12254 11814 0
12254 -11663 -11919 -11814 0
-12017 12015 0
-12017 12103 0
12017 -12015 -12103 0
-12067 11663 0
-12067 12103 0
-12067 11217 0
12067 -11663 -12103 -11217 0
-12051 12012 0
-12051 12103 0
12051 -12012 -12103 0
-12174 12103 0
-12174 11216 0
-12174 11217 0
12174 -12103 -11216 -11217 0
-12021 11817 0
-12021 12015 0
12021 -11817 -12015 0
-12025 11815 0
-12025 11820 0
12025 -11815 -11820 0
-12028 12012 0
-12028 11823 0
12028 -12012 -11823 0
-12032 11695 0
-12032 11826 0
12032 -11695 -11826 0
-12035 11663 0
-12035 11232 0
12035 -11663 -11232 0
-12038 11829 0
-12038 11704 0
12038 -11829 -11704 0
-12200 11815 0
-12200 11832 0
12200 -11815 -11832 0
-12113 11686 0
-12113 11835 0
12113 -11686 -11835 0
-12043 11838 0
-12043 11804 0
12043 -11838 -11804 0
-12124 11841 0
-12124 11804 0
12124 -11841 -11804 0
-12046 11844 0
-12046 11815 0
-12046 11761 0
12046 -11844 -11815 -11761 0
-12145 11847 0
-12145 11663 0
-12145 11852 0
12145 -11847 -11663 -11852 0
-12049 11850 0
-12049 11804 0
12049 -11850 -11804 0
-12267 11853 0
-12267 11803 0
12267 -11853 -11803 0
-12230 11856 0
-12230 11800 0
12230 -11856 -11800 0
-12052 11859 0
-12052 11804 0
12052 -11859 -11804 0
-12055 11862 0
-12055 11695 0
-12055 12015 0
-12055 11919 0
12055 -11862 -11695 -12015 -11919 0
-12058 11865 0
-12058 11919 0
12058 -11865 -11919 0
-12133 11695 0
-12133 11759 0
-12133 11868 0
12133 -11695 -11759 -11868 0
-12061 11719 0
-12061 11919 0
-12061 11871 0
12061 -11719 -11919 -11871 0
-12062 12015 0
-12062 11286 0
12062 -12015 -11286 0
-12088 11874 0
-12088 12194 0
12088 -11874 -12194 0
-12065 11877 0
-12065 12012 0
12065 -11877 -12012 0
-12238 11880 0
-12238 11679 0
12238 -11880 -11679 0
-12068 11883 0
-12068 11695 0
-12068 11804 0
12068 -11883 -11695 -11804 0
-11300 11886 0
-11300 11695 0
-11300 11804 0
-11300 11919 0
11300 -11886 -11695 -11804 -11919 0
-12071 11686 0
-12071 11889 0
12071 -11686 -11889 0
-12093 11892 0
-12093 12151 0
12093 -11892 -12151 0
-12074 11895 0
-12074 11658 0
-12074 11759 0
12074 -11895 -11658 -11759 0
-12206 11682 0
-12206 11898 0
-12206 11919 0
12206 -11682 -11898 -11919 0
-12280 11663 0
-12280 11919 0
-12280 11901 0
12280 -11663 -11919 -11901 0
-12263 11904 0
-12263 11803 0
12263 -11904 -11803 0
-12077 11907 0
-12077 11360 0
-12077 11695 0
-12077 11852 0
12077 -11907 -11360 -11695 -11852 0
-12080 11704 0
-12080 11910 0
12080 -11704 -11910 0
-12079 11914 0
-12079 11852 0
12079 -11914 -11852 0
-12084 11917 0
-12084 11815 0
12084 -11917 -11815 0
-12086 11919 0
-12086 11920 0
-12086 12151 0
12086 -11919 -11920 -12151 0
-12091 11704 0
-12091 12012 0
-12091 11920 0
12091 -11704 -12012 -11920 0
-12227 11704 0
-12227 11919 0
-12227 11923 0
12227 -11704 -11919 -11923 0
-12242 11744 0
-12242 11926 0
-12242 11355 0
12242 -11744 -11926 -11355 0
-12273 11719 0
-12273 11929 0
12273 -11719 -11929 0
-12222 11360 0
-12222 11932 0
-12222 12194 0
12222 -11360 -11932 -12194 0
-12094 11695 0
-12094 11935 0
-12094 12012 0
12094 -11695 -11935 -12012 0
-12098 11938 0
-12098 12012 0
12098 -11938 -12012 0
-12278 11941 0
-12278 11804 0
12278 -11941 -11804 0
-12101 11944 0
-12101 11804 0
12101 -11944 -11804 0
-12211 11704 0
-12211 12194 0
-12211 11947 0
12211 -11704 -12194 -11947 0
-11380 11950 0
-11380 11815 0
-11380 11761 0
11380 -11950 -11815 -11761 0
-12279 11792 0
-12279 11953 0
12279 -11792 -11953 0
-12104 11956 0
-12104 11704 0
12104 -11956 -11704 0
-12226 12015 0
-12226 11956 0
12226 -12015 -11956 0
-12107 11400 0
-12107 11959 0
12107 -11400 -11959 0
-12110 11744 0
-12110 11962 0
12110 -11744 -11962 0
-12112 11400 0
-12112 11965 0
12112 -11400 -11965 0
-12117 11968 0
-12117 12012 0
12117 -11968 -12012 0
-12120 11971 0
-12120 11704 0
12120 -11971 -11704 0
-12122 11974 0
-12122 12015 0
12122 -11974 -12015 0
-12127 11977 0
-12127 12012 0
12127 -11977 -12012 0
-12130 11980 0
-12130 11704 0
12130 -11980 -11704 0
-12285 11983 0
-12285 11764 0
12285 -11983 -11764 0
-12224 11704 0
-12224 11986 0
12224 -11704 -11986 0
-12183 11693 0
-12183 11989 0
12183 -11693 -11989 0
-12132 11992 0
-12132 11815 0
12132 -11992 -11815 0
-12135 11719 0
-12135 11815 0
-12135 11995 0
12135 -11719 -11815 -11995 0
-12138 11998 0
-12138 11803 0
12138 -11998 -11803 0
-12258 11663 0
-12258 12001 0
-12258 11815 0
12258 -11663 -12001 -11815 0
-12141 12004 0
-12141 11759 0
12141 -12004 -11759 0
-12144 12007 0
-12144 11759 0
12144 -12007 -11759 0
-12148 12010 0
-12148 11761 0
12148 -12010 -11761 0
-12152 12013 0
-12152 11704 0
12152 -12013 -11704 0
-12155 12016 0
-12155 11815 0
12155 -12016 -11815 0
-12203 11704 0
-12203 12019 0
12203 -11704 -12019 0
-12188 11695 0
-12188 12022 0
12188 -11695 -12022 0
-12161 11815 0
-12161 12027 0
12161 -11815 -12027 0
-12164 12030 0
-12164 11761 0
12164 -12030 -11761 0
-12167 12033 0
-12167 12015 0
12167 -12033 -12015 0
-12172 11695 0
-12172 12036 0
12172 -11695 -12036 0
-12175 12041 0
-12175 11704 0
-12175 12012 0
12175 -12041 -11704 -12012 0
-12231 11663 0
-12231 12044 0
12231 -11663 -12044 0
-12178 11815 0
-12178 12047 0
12178 -11815 -12047 0
-12198 11792 0
-12198 12050 0
12198 -11792 -12050 0
-12256 11719 0
-12256 12053 0
12256 -11719 -12053 0
-12181 12056 0
-12181 12012 0
12181 -12056 -12012 0
-12184 11815 0
-12184 12059 0
12184 -11815 -12059 0
-12187 12063 0
-12187 11815 0
12187 -12063 -11815 0
-12210 12069 0
-12210 11852 0
12210 -12069 -11852 0
-11501 12072 0
-11501 11695 0
-11501 11919 0
11501 -12072 -11695 -11919 0
-12190 11704 0
-12190 11507 0
12190 -11704 -11507 0
-12235 11663 0
-12235 12082 0
12235 -11663 -12082 0
-12215 12085 0
-12215 11704 0
12215 -12085 -11704 0
-11588 12089 0
-11588 11684 0
-11588 11683 0
11588 -12089 -11684 -11683 0
-12219 12092 0
-12219 11919 0
12219 -12092 -11919 0
-11521 12096 0
-11521 11695 0
-11521 11704 0
11521 -12096 -11695 -11704 0
-12275 11663 0
-12275 12099 0
12275 -11663 -12099 0
-12292 12102 0
-12292 12012 0
12292 -12102 -12012 0
-12199 12105 0
-12199 11804 0
12199 -12105 -11804 0
-12221 12108 0
-12221 11761 0
12221 -12108 -11761 0
-12202 12111 0
-12202 12015 0
12202 -12111 -12015 0
-12237 11704 0
-12237 12115 0
12237 -11704 -12115 0
-12205 12118 0
-12205 12012 0
12205 -12118 -12012 0
-12209 11815 0
-12209 12121 0
12209 -11815 -12121 0
-12297 12125 0
-12297 11761 0
12297 -12125 -11761 0
-12216 11792 0
-12216 12128 0
12216 -11792 -12128 0
-12269 11719 0
-12269 12131 0
12269 -11719 -12131 0
-12243 12134 0
-12243 11759 0
12243 -12134 -11759 0
-12260 12137 0
-12260 11663 0
12260 -12137 -11663 0
-12290 11815 0
-12290 12140 0
12290 -11815 -12140 0
-12218 11815 0
-12218 12143 0
12218 -11815 -12143 0
-12223 11815 0
-12223 12146 0
12223 -11815 -12146 0
-12295 12153 0
-12295 11663 0
12295 -12153 -11663 0
-12232 11695 0
-12232 12156 0
12232 -11695 -12156 0
-12286 11663 0
-12286 12160 0
12286 -11663 -12160 0
-12234 12163 0
-12234 11919 0
12234 -12163 -11919 0
-11585 11695 0
-11585 11919 0
-11585 11588 0
11585 -11695 -11919 -11588 0
-11589 12166 0
-11589 11919 0
11589 -12166 -11919 0
-12244 11695 0
-12244 12173 0
12244 -11695 -12173 0
-12270 11663 0
-12270 12176 0
12270 -11663 -12176 0
-12247 11695 0
-12247 12179 0
12247 -11695 -12179 0
-12249 12189 0
-12249 12151 0
12249 -12189 -12151 0
-12252 11695 0
-12252 12192 0
12252 -11695 -12192 0
-12257 12201 0
-12257 11695 0
12257 -12201 -11695 0
-12261 12204 0
-12261 11695 0
12261 -12204 -11695 0
-12265 11695 0
-12265 12207 0
12265 -11695 -12207 0
-12268 12212 0
-12268 11695 0
12268 -12212 -11695 0
-12274 12220 0
-12274 11695 0
12274 -12220 -11695 0
-12277 12225 0
-12277 11695 0
12277 -12225 -11695 0
-12283 12233 0
-12283 11792 0
12283 -12233 -11792 0
-12287 11695 0
-12287 12236 0
12287 -11695 -12236 0
-12289 12245 0
-12289 11704 0
12289 -12245 -11704 0
-12293 12248 0
-12293 11919 0
12293 -12248 -11919 0
-12296 11695 0
-12296 12291 0
12296 -11695 -12291 0
-12309 11641 0
-12309 11657 0
12309 -11641 -11657 0
-12303 11644 0
-12303 11657 0
12303 -11644 -11657 0
-12307 11647 0
-12307 11657 0
12307 -11647 -11657 0
-12299 11650 0
-12299 11657 0
12299 -11650 -11657 0
-12301 11653 0
-12301 11657 0
12301 -11653 -11657 0
-12305 11656 0
-12305 11657 0
12305 -11656 -11657 0
11658 -11659 0
11658 -11684 0
-11658 11659 11684 0
11661 -11792 0
11661 -11663 0
-11661 11792 11663 0
11664 -12015 0
11664 -11761 0
-11664 12015 11761 0
11667 -11761 0
11667 -11759 0
-11667 11761 11759 0
11670 -11722 0
11670 -12194 0
-11670 11722 12194 0
11673 -12015 0
11673 -12194 0
-11673 12015 12194 0
11676 -11719 0
11676 -12194 0
-11676 11719 12194 0
11679 -11680 0
11679 -11683 0
-11679 11680 11683 0
11682 -11683 0
11682 -11684 0
-11682 11683 11684 0
11685 -11686 0
11685 -11693 0
-11685 11686 11693 0
11688 -11693 0
11688 -11761 0
-11688 11693 11761 0
11743 -11692 0
11743 -11693 0
-11743 11692 11693 0
11694 -11695 0
11694 -11761 0
-11694 11695 11761 0
11697 -11704 0
11697 -11761 0
-11697 11704 11761 0
11700 -11704 0
11700 -11759 0
-11700 11704 11759 0
11703 -11704 0
11703 -12012 0
-11703 11704 12012 0
11706 -12012 0
11706 -11792 0
-11706 12012 11792 0
11709 -11722 0
11709 -11804 0
-11709 11722 11804 0
11712 -11804 0
11712 -12015 0
-11712 11804 12015 0
11758 -11804 0
11758 -12194 0
-11758 11804 12194 0
11718 -11719 0
11718 -11804 0
-11718 11719 11804 0
11721 -11722 0
11721 -11852 0
-11721 11722 11852 0
11724 -11804 0
11724 -11852 0
-11724 11804 11852 0
11773 -11852 0
11773 -12194 0
-11773 11852 12194 0
11730 -11852 0
11730 -11919 0
-11730 11852 11919 0
11733 -11804 0
11733 -11919 0
-11733 11804 11919 0
11736 -12015 0
11736 -11919 0
-11736 12015 11919 0
11739 -12015 0
11739 -11741 0
-11739 12015 11741 0
11742 -11743 0
11742 -11744 0
-11742 11743 11744 0
11745 -11746 0
11745 -11759 0
-11745 11746 11759 0
11748 -11749 0
11748 -11750 0
-11748 11749 11750 0
11751 -11752 0
11751 -12194 0
-11751 11752 12194 0
11754 -11755 0
11754 -11756 0
-11754 11755 11756 0
11757 -11758 0
11757 -11759 0
-11757 11758 11759 0
11760 -11761 0
11760 -11762 0
-11760 11761 11762 0
11763 -11764 0
11763 -11765 0
-11763 11764 11765 0
11830 -11767 0
11830 -11768 0
-11830 11767 11768 0
11769 -11773 0
11769 -11771 0
-11769 11773 11771 0
11772 -11773 0
11772 -11774 0
-11772 11773 11774 0
11775 -12015 0
11775 -11777 0
-11775 12015 11777 0
11778 -11922 0
11778 -12012 0
-11778 11922 12012 0
11781 -11782 0
11781 -11783 0
-11781 11782 11783 0
11784 -11785 0
11784 -11786 0
-11784 11785 11786 0
11787 -11788 0
11787 -11789 0
-11787 11788 11789 0
11790 -12151 0
11790 -11792 0
-11790 12151 11792 0
11793 -12194 0
11793 -11795 0
-11793 12194 11795 0
11796 -11797 0
11796 -11798 0
-11796 11797 11798 0
11799 -11800 0
11799 -11801 0
-11799 11800 11801 0
11802 -11803 0
11802 -11804 0
-11802 11803 11804 0
11805 -11806 0
11805 -11807 0
-11805 11806 11807 0
11808 -11809 0
11808 -11810 0
-11808 11809 11810 0
11811 -11812 0
11811 -11852 0
-11811 11812 11852 0
11814 -11815 0
11814 -11816 0
-11814 11815 11816 0
11817 -11818 0
11817 -11819 0
-11817 11818 11819 0
11820 -11821 0
11820 -11822 0
-11820 11821 11822 0
11823 -11824 0
11823 -11825 0
-11823 11824 11825 0
11826 -11827 0
11826 -11828 0
-11826 11827 11828 0
11829 -11830 0
11829 -12015 0
-11829 11830 12015 0
11832 -11833 0
11832 -11834 0
-11832 11833 11834 0
11835 -11842 0
11835 -11837 0
-11835 11842 11837 0
11838 -11842 0
11838 -11840 0
-11838 11842 11840 0
11841 -11842 0
11841 -11843 0
-11841 11842 11843 0
11844 -11845 0
11844 -11846 0
-11844 11845 11846 0
11847 -11848 0
11847 -11849 0
-11847 11848 11849 0
11850 -11857 0
11850 -11852 0
-11850 11857 11852 0
11853 -11857 0
11853 -11855 0
-11853 11857 11855 0
11856 -11857 0
11856 -11858 0
-11856 11857 11858 0
11859 -11860 0
11859 -11861 0
-11859 11860 11861 0
11862 -11863 0
11862 -11864 0
-11862 11863 11864 0
11865 -11866 0
11865 -11867 0
-11865 11866 11867 0
11868 -11869 0
11868 -11870 0
-11868 11869 11870 0
11871 -11872 0
11871 -11873 0
-11871 11872 11873 0
11874 -11875 0
11874 -11876 0
-11874 11875 11876 0
11877 -11878 0
11877 -11879 0
-11877 11878 11879 0
11880 -11881 0
11880 -11882 0
-11880 11881 11882 0
11883 -11884 0
11883 -11885 0
-11883 11884 11885 0
11886 -11887 0
11886 -11888 0
-11886 11887 11888 0
11889 -11890 0
11889 -11891 0
-11889 11890 11891 0
11892 -11893 0
11892 -11894 0
-11892 11893 11894 0
11895 -11896 0
11895 -11897 0
-11895 11896 11897 0
11898 -11899 0
11898 -11900 0
-11898 11899 11900 0
11901 -11902 0
11901 -11903 0
-11901 11902 11903 0
11904 -11905 0
11904 -11906 0
-11904 11905 11906 0
11907 -11908 0
11907 -11909 0
-11907 11908 11909 0
11910 -12103 0
11910 -12015 0
11910 -11913 0
-11910 12103 12015 11913 0
11914 -11915 0
11914 -11916 0
-11914 11915 11916 0
11917 -11918 0
11917 -11919 0
-11917 11918 11919 0
11920 -11921 0
11920 -11922 0
-11920 11921 11922 0
11923 -11924 0
11923 -11925 0
-11923 11924 11925 0
11926 -11927 0
11926 -11928 0
-11926 11927 11928 0
11929 -11930 0
11929 -11931 0
-11929 11930 11931 0
11932 -11933 0
11932 -11934 0
-11932 11933 11934 0
11935 -11936 0
11935 -11937 0
-11935 11936 11937 0
11938 -11939 0
11938 -11940 0
-11938 11939 11940 0
11941 -11942 0
11941 -11943 0
-11941 11942 11943 0
11944 -11945 0
11944 -11946 0
-11944 11945 11946 0
11947 -11948 0
11947 -11949 0
-11947 11948 11949 0
11950 -11951 0
11950 -11952 0
-11950 11951 11952 0
11953 -11954 0
11953 -11955 0
-11953 11954 11955 0
11956 -11957 0
11956 -11958 0
-11956 11957 11958 0
11959 -11960 0
11959 -11961 0
-11959 11960 11961 0
11962 -11963 0
11962 -11964 0
-11962 11963 11964 0
11965 -11966 0
11965 -11967 0
-11965 11966 11967 0
11968 -11969 0
11968 -11970 0
-11968 11969 11970 0
11971 -12103 0
11971 -11973 0
-11971 12103 11973 0
11974 -11975 0
11974 -11976 0
-11974 11975 11976 0
11977 -11978 0
11977 -11979 0
-11977 11978 11979 0
11980 -11981 0
11980 -12015 0
-11980 11981 12015 0
11983 -11984 0
11983 -11985 0
-11983 11984 11985 0
11986 -11987 0
11986 -11988 0
-11986 11987 11988 0
11989 -11990 0
11989 -11991 0
-11989 11990 11991 0
11992 -11993 0
11992 -11994 0
-11992 11993 11994 0
11995 -11996 0
11995 -11997 0
-11995 11996 11997 0
11998 -11999 0
11998 -12000 0
-11998 11999 12000 0
12001 -12002 0
12001 -12003 0
-12001 12002 12003 0
12004 -12005 0
12004 -12006 0
-12004 12005 12006 0
12007 -12008 0
12007 -12009 0
-12007 12008 12009 0
12010 -12011 0
12010 -12012 0
-12010 12011 12012 0
12013 -12014 0
12013 -12015 0
-12013 12014 12015 0
12016 -12017 0
12016 -12018 0
-12016 12017 12018 0
12019 -12020 0
12019 -12021 0
-12019 12020 12021 0
12022 -12023 0
12022 -12024 0
12022 -12025 0
12022 -12026 0
-12022 12023 12024 12025 12026 0
12027 -12028 0
12027 -12029 0
-12027 12028 12029 0
12030 -12031 0
12030 -12032 0
-12030 12031 12032 0
12033 -12034 0
12033 -12035 0
-12033 12034 12035 0
12036 -12037 0
12036 -12038 0
12036 -12194 0
12036 -12040 0
-12036 12037 12038 12194 12040 0
12041 -12042 0
12041 -12043 0
-12041 12042 12043 0
12044 -12045 0
12044 -12046 0
-12044 12045 12046 0
12047 -12048 0
12047 -12049 0
-12047 12048 12049 0
12050 -12051 0
12050 -12052 0
-12050 12051 12052 0
12053 -12054 0
12053 -12055 0
-12053 12054 12055 0
12056 -12057 0
12056 -12058 0
-12056 12057 12058 0
12059 -12060 0
12059 -12061 0
12059 -12062 0
-12059 12060 12061 12062 0
12063 -12064 0
12063 -12065 0
-12063 12064 12065 0
12066 -12067 0
12066 -12068 0
-12066 12067 12068 0
12069 -12070 0
12069 -12071 0
-12069 12070 12071 0
12072 -12073 0
12072 -12074 0
-12072 12073 12074 0
12075 -12076 0
12075 -12077 0
-12075 12076 12077 0
12159 -12079 0
12159 -12080 0
12159 -12081 0
-12159 12079 12080 12081 0
12082 -12083 0
12082 -12084 0
-12082 12083 12084 0
12085 -12086 0
12085 -12087 0
12085 -12088 0
-12085 12086 12087 12088 0
12089 -12090 0
12089 -12091 0
-12089 12090 12091 0
12092 -12093 0
12092 -12094 0
12092 -12095 0
-12092 12093 12094 12095 0
12096 -12097 0
12096 -12098 0
-12096 12097 12098 0
12099 -12100 0
12099 -12101 0
-12099 12100 12101 0
12102 -12103 0
12102 -12104 0
-12102 12103 12104 0
12105 -12106 0
12105 -12107 0
-12105 12106 12107 0
12108 -12109 0
12108 -12110 0
-12108 12109 12110 0
12111 -12112 0
12111 -12113 0
12111 -12114 0
-12111 12112 12113 12114 0
12115 -12116 0
12115 -12117 0
-12115 12116 12117 0
12118 -12119 0
12118 -12120 0
-12118 12119 12120 0
12121 -12122 0
12121 -12123 0
12121 -12124 0
-12121 12122 12123 12124 0
12125 -12126 0
12125 -12127 0
-12125 12126 12127 0
12128 -12129 0
12128 -12130 0
-12128 12129 12130 0
12131 -12132 0
12131 -12133 0
-12131 12132 12133 0
12134 -12135 0
12134 -12136 0
-12134 12135 12136 0
12137 -12138 0
12137 -12139 0
-12137 12138 12139 0
12140 -12141 0
12140 -12142 0
-12140 12141 12142 0
12143 -12144 0
12143 -12145 0
-12143 12144 12145 0
12146 -12147 0
12146 -12148 0
-12146 12147 12148 0
12196 -12150 0
12196 -12151 0
12196 -12152 0
-12196 12150 12151 12152 0
12153 -12154 0
12153 -12155 0
-12153 12154 12155 0
12156 -12157 0
12156 -12158 0
12156 -12159 0
-12156 12157 12158 12159 0
12160 -12161 0
12160 -12162 0
-12160 12161 12162 0
12163 -12164 0
12163 -12165 0
-12163 12164 12165 0
12166 -12167 0
12166 -12168 0
-12166 12167 12168 0
12169 -12170 0
12169 -12171 0
12169 -12172 0
-12169 12170 12171 12172 0
12173 -12174 0
12173 -12175 0
-12173 12174 12175 0
12176 -12177 0
12176 -12178 0
-12176 12177 12178 0
12179 -12180 0
12179 -12181 0
-12179 12180 12181 0
12228 -12183 0
12228 -12184 0
12228 -12185 0
-12228 12183 12184 12185 0
12186 -12187 0
12186 -12188 0
-12186 12187 12188 0
12189 -12190 0
12189 -12191 0
-12189 12190 12191 0
12192 -12193 0
12192 -12194 0
12192 -12195 0
12192 -12196 0
-12192 12193 12194 12195 12196 0
12240 -12198 0
12240 -12199 0
12240 -12200 0
-12240 12198 12199 12200 0
12201 -12202 0
12201 -12203 0
-12201 12202 12203 0
12204 -12205 0
12204 -12206 0
-12204 12205 12206 0
12207 -12208 0
12207 -12209 0
12207 -12210 0
12207 -12211 0
-12207 12208 12209 12210 12211 0
12212 -12213 0
12212 -12214 0
12212 -12215 0
12212 -12216 0
-12212 12213 12214 12215 12216 0
12217 -12218 0
12217 -12219 0
-12217 12218 12219 0
12220 -12221 0
12220 -12222 0
12220 -12223 0
12220 -12224 0
-12220 12221 12222 12223 12224 0
12225 -12226 0
12225 -12227 0
12225 -12228 0
-12225 12226 12227 12228 0
12229 -12230 0
12229 -12231 0
12229 -12232 0
-12229 12230 12231 12232 0
12233 -12234 0
12233 -12235 0
-12233 12234 12235 0
12236 -12237 0
12236 -12238 0
12236 -12239 0
12236 -12240 0
-12236 12237 12238 12239 12240 0
12241 -12242 0
12241 -12243 0
12241 -12244 0
-12241 12242 12243 12244 0
12245 -12246 0
12245 -12247 0
-12245 12246 12247 0
12248 -12249 0
12248 -12250 0
-12248 12249 12250 0
12251 -12252 0
12251 -12253 0
12251 -12254 0
-12251 12252 12253 12254 0
12255 -12256 0
12255 -12257 0
12255 -12258 0
-12255 12256 12257 12258 0
12259 -12260 0
12259 -12261 0
-12259 12260 12261 0
12262 -12263 0
12262 -12264 0
12262 -12265 0
-12262 12263 12264 12265 0
12266 -12267 0
12266 -12268 0
12266 -12269 0
12266 -12270 0
-12266 12267 12268 12269 12270 0
12271 -12272 0
12271 -12273 0
12271 -12274 0
12271 -12275 0
-12271 12272 12273 12274 12275 0
12276 -12277 0
12276 -12278 0
12276 -12279 0
12276 -12280 0
-12276 12277 12278 12279 12280 0
12281 -12282 0
12281 -12283 0
-12281 12282 12283 0
12284 -12285 0
12284 -12286 0
12284 -12287 0
-12284 12285 12286 12287 0
12288 -12289 0
12288 -12290 0
-12288 12289 12290 0
12291 -12292 0
12291 -12293 0
-12291 12292 12293 0
12294 -12295 0
12294 -12296 0
12294 -12297 0
-12294 12295 12296 12297 0
-12299 14208 0
12299 -14208 0
-12301 13773 0
12301 -13773 0
-12303 13775 0
12303 -13775 0
-12305 14029 0
12305 -14029 0
-12307 13829 0
12307 -13829 0
-12309 13677 0
12309 -13677 0
13758 13736 0
-13758 -13736 0
13414 13706 0
-13414 -13706 0
13733 13806 0
-13733 -13806 0
13700 13374 0
-13700 -13374 0
13694 13698 0
-13694 -13698 0
13697 13673 0
-13697 -13673 0
13707 13155 0
-13707 -13155 0
13709 13677 0
-13709 -13677 0
13718 13829 0
-13718 -13829 0
14026 14029 0
-14026 -14029 0
13818 13775 0
-13818 -13775 0
13866 13773 0
-13866 -13773 0
13933 14208 0
-13933 -14208 0
14164 13672 0
-14164 -13672 0
12341 14029 0
-12341 -14029 0
13776 12341 0
-13776 -12341 0
13778 13678 0
-13778 -13678 0
12347 13806 0
-12347 -13806 0
12740 12347 0
-12740 -12347 0
13936 13681 0
-13936 -13681 0
12353 13818 0
-12353 -13818 0
13803 12353 0
-13803 -12353 0
13369 13687 0
-13369 -13687 0
13203 13690 0
-13203 -13690 0
14165 13693 0
-14165 -13693 0
12363 13693 0
-12363 -13693 0
13857 12363 0
-13857 -12363 0
13230 13699 0
-13230 -13699 0
13095 13757 0
-13095 -13757 0
12858 13708 0
-12858 -13708 0
13814 13711 0
-13814 -13711 0
13817 13714 0
-13817 -13714 0
13231 13717 0
-13231 -13717 0
13823 13720 0
-13823 -13720 0
13826 13723 0
-13826 -13723 0
13886 13726 0
-13886 -13726 0
12931 13772 0
-12931 -13772 0
13112 13732 0
-13112 -13732 0
13841 13735 0
-13841 -13735 0
12985 13738 0
-12985 -13738 0
13189 13787 0
-13189 -13787 0
13856 13744 0
-13856 -13744 0
14037 13747 0
-14037 -13747 0
13871 13750 0
-13871 -13750 0
12401 13773 0
-12401 -13773 0
13197 12401 0
-13197 -12401 0
14117 13771 0
-14117 -13771 0
12407 12612 0
-12407 -12612 0
13246 12407 0
-13246 -12407 0
12411 12849 0
-12411 -12849 0
13300 12411 0
-13300 -12411 0
14028 13825 0
-14028 -13825 0
12414 13105 0
-12414 -13105 0
12416 13314 0
-12416 -13314 0
13521 14027 0
-13521 -14027 0
12420 13394 0
-12420 -13394 0
12422 14080 0
-12422 -14080 0
12424 14089 0
-12424 -14089 0
12426 13515 0
-12426 -13515 0
12428 14183 0
-12428 -14183 0
12430 13535 0
-12430 -13535 0
12432 14200 0
-12432 -14200 0
12434 13599 0
-12434 -13599 0
12436 13603 0
-12436 -13603 0
12438 14231 0
-12438 -14231 0
12440 14243 0
-12440 -14243 0
12442 14255 0
-12442 -14255 0
12444 14265 0
-12444 -14265 0
12463 14269 0
-12463 -14269 0
12448 14273 0
-12448 -14273 0
12465 14276 0
-12465 -14276 0
12467 14280 0
-12467 -14280 0
12471 14285 0
-12471 -14285 0
12473 14290 0
-12473 -14290 0
12458 14295 0
-12458 -14295 0
12475 14298 0
-12475 -14298 0
13655 12463 0
-13655 -12463 0
13658 12465 0
-13658 -12465 0
13661 12467 0
-13661 -12467 0
12468 14302 0
-12468 -14302 0
13664 12471 0
-13664 -12471 0
13667 12473 0
-13667 -12473 0
13670 12475 0
-13670 -12475 0
12476 14308 0
-12476 -14308 0
-13769 14029 0
-13769 13775 0
13769 -14029 -13775 0
-13779 14029 0
-13779 13775 0
13779 -14029 -13775 0
-13820 13829 0
-13820 14029 0
-13820 13775 0
13820 -13829 -14029 -13775 0
-13796 13829 0
-13796 13773 0
13796 -13829 -13773 0
-13781 13736 0
-13781 13773 0
13781 -13736 -13773 0
-13881 13736 0
-13881 13773 0
13881 -13736 -13773 0
-13811 13806 0
-13811 13773 0
13811 -13806 -13773 0
-14045 14029 0
-14045 13773 0
14045 -14029 -13773 0
-13755 13706 0
-13755 14208 0
13755 -13706 -14208 0
-13760 13700 0
-13760 13707 0
13760 -13700 -13707 0
-13109 13374 0
-13109 13709 0
-13109 13775 0
13109 -13374 -13709 -13775 0
-13764 13736 0
-13764 13718 0
-13764 13773 0
13764 -13736 -13718 -13773 0
-13799 13707 0
-13799 13709 0
-13799 13718 0
-13799 14208 0
13799 -13707 -13709 -13718 -14208 0
-13824 13718 0
-13824 13773 0
13824 -13718 -13773 0
-13899 13718 0
-13899 14029 0
-13899 14208 0
13899 -13718 -14029 -14208 0
-13815 13718 0
-13815 14029 0
-13815 13775 0
13815 -13718 -14029 -13775 0
-12752 13706 0
-12752 13155 0
-12752 13709 0
-12752 13718 0
12752 -13706 -13155 -13709 -13718 0
-13763 13733 0
-13763 13829 0
-13763 14026 0
13763 -13733 -13829 -14026 0
-13766 14026 0
-13766 13773 0
13766 -14026 -13773 0
-13785 13700 0
-13785 14026 0
13785 -13700 -14026 0
-13908 13709 0
-13908 13718 0
-13908 14026 0
13908 -13709 -13718 -14026 0
-13113 13677 0
-13113 13829 0
-13113 14026 0
13113 -13677 -13829 -14026 0
-13770 13718 0
-13770 13818 0
13770 -13718 -13818 0
-13884 13706 0
-13884 13818 0
-13884 14208 0
13884 -13706 -13818 -14208 0
-13917 13718 0
-13917 13818 0
-13917 13773 0
13917 -13718 -13818 -13773 0
-13905 13818 0
-13905 14208 0
13905 -13818 -14208 0
-13939 13414 0
-13939 14029 0
-13939 13818 0
13939 -13414 -14029 -13818 0
-13788 13718 0
-13788 13818 0
13788 -13718 -13818 0
-14179 13829 0
-14179 13773 0
-14179 13678 0
14179 -13829 -13773 -13678 0
-13782 13775 0
-13782 13866 0
13782 -13775 -13866 0
-13791 13155 0
-13791 13866 0
13791 -13155 -13866 0
-12848 13709 0
-12848 14029 0
-12848 13866 0
12848 -13709 -14029 -13866 0
-13842 14026 0
-13842 13866 0
13842 -14026 -13866 0
-13878 13718 0
-13878 13866 0
13878 -13718 -13866 0
-13972 13775 0
-13972 13866 0
13972 -13775 -13866 0
-13872 14029 0
-13872 13866 0
13872 -14029 -13866 0
-13890 13775 0
-13890 13866 0
13890 -13775 -13866 0
-13838 13775 0
-13838 13866 0
13838 -13775 -13866 0
-14207 13775 0
-14207 13866 0
14207 -13775 -13866 0
-12612 13829 0
-12612 13681 0
12612 -13829 -13681 0
-13893 13681 0
-13893 14208 0
13893 -13681 -14208 0
-13797 13709 0
-13797 13933 0
13797 -13709 -13933 0
-13800 13829 0
-13800 13933 0
13800 -13829 -13933 0
-13969 13709 0
-13969 14029 0
-13969 13818 0
-13969 13933 0
13969 -13709 -14029 -13818 -13933 0
-13975 13718 0
-13975 14029 0
-13975 13866 0
-13975 13933 0
13975 -13718 -14029 -13866 -13933 0
-13851 13718 0
-13851 13866 0
-13851 13933 0
13851 -13718 -13866 -13933 0
-14005 13718 0
-14005 14029 0
-14005 13818 0
-14005 13933 0
14005 -13718 -14029 -13818 -13933 0
-13854 13697 0
-13854 13866 0
-13854 13933 0
13854 -13697 -13866 -13933 0
-13981 13718 0
-13981 13866 0
-13981 13933 0
13981 -13718 -13866 -13933 0
-13869 13374 0
-13869 13818 0
-13869 13933 0
13869 -13374 -13818 -13933 0
-13863 13818 0
-13863 13933 0
13863 -13818 -13933 0
-14014 13678 0
-14014 13933 0
14014 -13678 -13933 0
-13875 13718 0
-13875 14029 0
-13875 13866 0
-13875 13933 0
13875 -13718 -14029 -13866 -13933 0
-13860 13866 0
-13860 13933 0
13860 -13866 -13933 0
-14023 13675 0
-14023 13933 0
-14023 13678 0
14023 -13675 -13933 -13678 0
-13990 13707 0
-13990 13866 0
-13990 13933 0
13990 -13707 -13866 -13933 0
-14043 13933 0
-14043 13681 0
14043 -13933 -13681 0
-14156 13677 0
-14156 13933 0
14156 -13677 -13933 0
-13927 13684 0
-13927 13773 0
13927 -13684 -13773 0
-13802 13690 0
-13802 13866 0
13802 -13690 -13866 0
-13809 13818 0
-13809 13696 0
13809 -13818 -13696 0
-13812 13699 0
-13812 13866 0
13812 -13699 -13866 0
-13833 13702 0
-13833 13866 0
-13833 13933 0
13833 -13702 -13866 -13933 0
-14011 13708 0
-14011 13697 0
-14011 14029 0
-14011 13933 0
14011 -13708 -13697 -14029 -13933 0
-13821 13717 0
-13821 13818 0
13821 -13717 -13818 0
-13836 13773 0
-13836 13720 0
13836 -13773 -13720 0
-13830 13726 0
-13830 13773 0
13830 -13726 -13773 0
-13930 13829 0
-13930 13772 0
13930 -13829 -13772 0
-13832 13773 0
-13832 13772 0
13832 -13773 -13772 0
-13835 13732 0
-13835 13866 0
13835 -13732 -13866 0
-13839 13773 0
-13839 13732 0
13839 -13773 -13732 0
-13923 13707 0
-13923 13718 0
-13923 14208 0
-13923 13778 0
13923 -13707 -13718 -14208 -13778 0
-14228 13829 0
-14228 13933 0
-14228 13778 0
14228 -13829 -13933 -13778 0
-13848 14029 0
-13848 14208 0
-13848 13738 0
13848 -14029 -14208 -13738 0
-14209 13829 0
-14209 12740 0
14209 -13829 -12740 0
-14095 14029 0
-14095 13787 0
14095 -14029 -13787 0
-13954 13155 0
-13954 14208 0
-13954 13936 0
13954 -13155 -14208 -13936 0
-13945 14029 0
-13945 13933 0
-13945 13936 0
-13945 12752 0
13945 -14029 -13933 -13936 -12752 0
-13948 13718 0
-13948 14026 0
-13948 13936 0
13948 -13718 -14026 -13936 0
-14017 14029 0
-14017 13936 0
14017 -14029 -13936 0
-13847 13374 0
-13847 13933 0
-13847 13936 0
13847 -13374 -13933 -13936 0
-14130 13707 0
-14130 14029 0
-14130 13933 0
-14130 13936 0
14130 -13707 -14029 -13933 -13936 0
-14078 14029 0
-14078 14208 0
-14078 13936 0
14078 -14029 -14208 -13936 0
-13073 13709 0
-13073 13718 0
-13073 13936 0
13073 -13709 -13718 -13936 0
-13859 13744 0
-13859 14026 0
13859 -13744 -14026 0
-14032 13778 0
-14032 13744 0
14032 -13778 -13744 0
-13862 13747 0
-13862 14026 0
13862 -13747 -14026 0
-13920 13750 0
-13920 13818 0
13920 -13750 -13818 0
-13895 13718 0
-13895 13775 0
-13895 13369 0
13895 -13718 -13775 -13369 0
-14123 13866 0
-14123 13369 0
14123 -13866 -13369 0
-14286 13829 0
-14286 13775 0
-14286 13369 0
14286 -13829 -13775 -13369 0
-13874 13753 0
-13874 13829 0
-13874 13773 0
13874 -13753 -13829 -13773 0
-14020 13203 0
-14020 13678 0
14020 -13203 -13678 0
-13877 13829 0
-13877 13773 0
-13877 14165 0
13877 -13829 -13773 -14165 0
-13902 13718 0
-13902 14026 0
-13902 13866 0
-13902 14165 0
13902 -13718 -14026 -13866 -14165 0
-13880 13818 0
-13880 14165 0
13880 -13818 -14165 0
-13883 13829 0
-13883 13933 0
-13883 14165 0
13883 -13829 -13933 -14165 0
-13887 14029 0
-13887 14165 0
13887 -14029 -14165 0
-13977 13369 0
-13977 14165 0
13977 -13369 -14165 0
-14087 13718 0
-14087 14026 0
-14087 13936 0
-14087 14165 0
14087 -13718 -14026 -13936 -14165 0
-14120 13866 0
-14120 13369 0
-14120 14165 0
14120 -13866 -13369 -14165 0
-14084 13933 0
-14084 13778 0
-14084 14165 0
14084 -13933 -13778 -14165 0
-14051 13714 0
-14051 14165 0
14051 -13714 -14165 0
-13965 13933 0
-13965 13230 0
-13965 12848 0
13965 -13933 -13230 -12848 0
-12849 13374 0
-12849 14208 0
-12849 13756 0
12849 -13374 -14208 -13756 0
-13889 13759 0
-13889 13818 0
13889 -13759 -13818 0
-13892 13933 0
-13892 12858 0
13892 -13933 -12858 0
-13896 14029 0
-13896 13773 0
-13896 13814 0
13896 -14029 -13773 -13814 0
-13942 13733 0
-13942 13677 0
-13942 13814 0
13942 -13733 -13677 -13814 0
-13898 13733 0
-13898 13933 0
-13898 13817 0
13898 -13733 -13933 -13817 0
-13956 14208 0
-13956 13817 0
13956 -14208 -13817 0
-13998 13933 0
-13998 13817 0
13998 -13933 -13817 0
-13959 13687 0
-13959 13817 0
13959 -13687 -13817 0
-13901 13806 0
-13901 13231 0
13901 -13806 -13231 0
-13904 13933 0
-13904 13231 0
13904 -13933 -13231 0
-13907 13773 0
-13907 13231 0
13907 -13773 -13231 0
-13911 13829 0
-13911 13823 0
13911 -13829 -13823 0
-13914 13829 0
-13914 13773 0
-13914 13823 0
13914 -13829 -13773 -13823 0
-14104 13829 0
-14104 13773 0
-14104 13823 0
14104 -13829 -13773 -13823 0
-14205 13829 0
-14205 13773 0
-14205 13823 0
14205 -13829 -13773 -13823 0
-14182 13709 0
-14182 13775 0
-14182 13762 0
14182 -13709 -13775 -13762 0
-14171 13818 0
-14171 13765 0
14171 -13818 -13765 0
-13910 13718 0
-13910 14026 0
-13910 13826 0
13910 -13718 -14026 -13826 0
-13913 13718 0
-13913 14026 0
-13913 13826 0
13913 -13718 -14026 -13826 0
-13916 13817 0
-13916 13886 0
13916 -13817 -13886 0
-13919 14208 0
-13919 13886 0
13919 -14208 -13886 0
-13922 13155 0
-13922 12931 0
-13922 13231 0
13922 -13155 -12931 -13231 0
-13983 13735 0
-13983 12931 0
13983 -13735 -12931 0
-14101 13771 0
-14101 14029 0
14101 -13771 -14029 0
-13929 13933 0
-13929 13112 0
13929 -13933 -13112 0
-13950 13866 0
-13950 13112 0
13950 -13866 -13112 0
-14133 13866 0
-14133 13933 0
-14133 13112 0
14133 -13866 -13933 -13112 0
-14264 13774 0
-14264 13806 0
-14264 13829 0
-14264 13773 0
14264 -13774 -13806 -13829 -13773 0
-14109 13777 0
-14109 13718 0
-14109 13773 0
14109 -13777 -13718 -13773 0
-13932 14026 0
-13932 12985 0
13932 -14026 -12985 0
-13935 13758 0
-13935 12985 0
13935 -13758 -12985 0
-14001 14029 0
-14001 12985 0
14001 -14029 -12985 0
-13938 14026 0
-13938 12985 0
13938 -14026 -12985 0
-13941 13697 0
-13941 13709 0
-13941 13718 0
-13941 12985 0
13941 -13697 -13709 -13718 -12985 0
-13944 13829 0
-13944 14026 0
-13944 12985 0
13944 -13829 -14026 -12985 0
-13947 13736 0
-13947 13757 0
-13947 13829 0
-13947 12985 0
13947 -13736 -13757 -13829 -12985 0
-13962 14026 0
-13962 12985 0
13962 -14026 -12985 0
-14048 13718 0
-14048 12985 0
14048 -13718 -12985 0
-13951 13844 0
-13951 13718 0
13951 -13844 -13718 0
-13953 13736 0
-13953 13775 0
-13953 13189 0
13953 -13736 -13775 -13189 0
-13957 13718 0
-13957 14029 0
-13957 13189 0
13957 -13718 -14029 -13189 0
-14008 13775 0
-14008 13189 0
14008 -13775 -13189 0
-13960 13718 0
-13960 13189 0
13960 -13718 -13189 0
-14097 13818 0
-14097 13189 0
14097 -13818 -13189 0
-14062 13775 0
-14062 13189 0
14062 -13775 -13189 0
-14153 13711 0
-14153 14029 0
-14153 13189 0
14153 -13711 -14029 -13189 0
-14114 14029 0
-14114 13775 0
-14114 13189 0
14114 -14029 -13775 -13189 0
-14059 13718 0
-14059 13818 0
-14059 13189 0
14059 -13718 -13818 -13189 0
-14140 13706 0
-14140 14029 0
-14140 13189 0
14140 -13706 -14029 -13189 0
-14034 14026 0
-14034 13189 0
-14034 14165 0
-14034 13826 0
14034 -14026 -13189 -14165 -13826 0
-14168 13718 0
-14168 13818 0
-14168 13189 0
14168 -13718 -13818 -13189 0
-14194 14029 0
-14194 13775 0
-14194 13189 0
14194 -14029 -13775 -13189 0
-14176 13189 0
-14176 13726 0
14176 -13189 -13726 0
-14161 14029 0
-14161 13818 0
-14161 13189 0
14161 -14029 -13818 -13189 0
-14184 13718 0
-14184 13818 0
-14184 13189 0
14184 -13718 -13818 -13189 0
-14191 13768 0
-14191 13189 0
14191 -13768 -13189 0
-14260 13778 0
-14260 13189 0
14260 -13778 -13189 0
-14074 13783 0
-14074 13818 0
14074 -13783 -13818 0
-14040 14029 0
-14040 13786 0
14040 -14029 -13786 0
-13963 13789 0
-13963 13818 0
13963 -13789 -13818 0
-14185 13792 0
-14185 13829 0
14185 -13792 -13829 0
-14267 13829 0
-14267 13792 0
14267 -13829 -13792 0
-14296 13369 0
-14296 14165 0
-14296 13073 0
14296 -13369 -14165 -13073 0
-13966 13806 0
-13966 13677 0
-13966 14026 0
-13966 13856 0
13966 -13806 -13677 -14026 -13856 0
-13968 13677 0
-13968 13829 0
-13968 13856 0
-13968 13886 0
13968 -13677 -13829 -13856 -13886 0
-13971 13818 0
-13971 13856 0
13971 -13818 -13856 0
-13974 13733 0
-13974 13829 0
-13974 13856 0
13974 -13733 -13829 -13856 0
-13978 13374 0
-13978 13829 0
-13978 13856 0
-13978 13095 0
13978 -13374 -13829 -13856 -13095 0
-13980 13155 0
-13980 13856 0
13980 -13155 -13856 0
-13984 13818 0
-13984 13856 0
13984 -13818 -13856 0
-13992 13829 0
-13992 13856 0
13992 -13829 -13856 0
-13105 13856 0
-13105 13231 0
-13105 13757 0
-13105 13109 0
13105 -13856 -13231 -13757 -13109 0
-14090 13856 0
-14090 13112 0
-14090 13113 0
14090 -13856 -13112 -13113 0
-13987 13818 0
-13987 13856 0
13987 -13818 -13856 0
-14111 14029 0
-14111 13775 0
-14111 13856 0
14111 -14029 -13775 -13856 0
-14143 13414 0
-14143 13818 0
-14143 13856 0
14143 -13414 -13818 -13856 0
-13989 13756 0
-13989 13374 0
-13989 13856 0
13989 -13756 -13374 -13856 0
-14227 14029 0
-14227 13856 0
14227 -14029 -13856 0
-13993 13414 0
-13993 13795 0
13993 -13414 -13795 0
-13995 13700 0
-13995 14037 0
13995 -13700 -14037 0
-14071 13866 0
-14071 14037 0
14071 -13866 -14037 0
-14056 13866 0
-14056 14037 0
14056 -13866 -14037 0
-14253 14029 0
-14253 13866 0
-14253 14037 0
14253 -14029 -13866 -14037 0
-14199 13866 0
-14199 14037 0
14199 -13866 -14037 0
-13999 13700 0
-13999 13798 0
13999 -13700 -13798 0
-14002 13155 0
-14002 13936 0
-14002 13871 0
14002 -13155 -13936 -13871 0
-14004 13866 0
-14004 13871 0
14004 -13866 -13871 0
-14007 13677 0
-14007 13871 0
14007 -13677 -13871 0
-14010 13677 0
-14010 13775 0
-14010 13871 0
14010 -13677 -13775 -13871 0
-14013 13818 0
-14013 13871 0
14013 -13818 -13871 0
-14016 13738 0
-14016 13871 0
14016 -13738 -13871 0
-14019 13775 0
-14019 13871 0
14019 -13775 -13871 0
-14022 13775 0
-14022 13871 0
14022 -13775 -13871 0
-14068 13677 0
-14068 13829 0
-14068 13871 0
14068 -13677 -13829 -13871 0
-14137 13801 0
-14137 14026 0
14137 -13801 -14026 0
-14025 13804 0
-14025 13189 0
14025 -13804 -13189 0
-14038 13807 0
-14038 13866 0
14038 -13807 -13866 0
-14054 13829 0
-14054 13810 0
14054 -13829 -13810 0
-14278 13197 0
-14278 13677 0
-14278 14029 0
-14278 13933 0
14278 -13197 -13677 -14029 -13933 0
-14222 13813 0
-14222 13203 0
14222 -13813 -13203 0
-14128 13816 0
-14128 14208 0
14128 -13816 -14208 0
-14150 13677 0
-14150 13933 0
-14150 13819 0
14150 -13677 -13933 -13819 0
-14172 13822 0
-14172 13696 0
14172 -13822 -13696 0
-14268 13677 0
-14268 13933 0
-14268 13828 0
14268 -13677 -13933 -13828 0
-14031 14029 0
-14031 14117 0
14031 -14029 -14117 0
-14081 13677 0
-14081 14117 0
-14081 13231 0
14081 -13677 -14117 -13231 0
-14065 14026 0
-14065 14117 0
14065 -14026 -14117 0
-14188 14117 0
-14188 13230 0
-14188 13231 0
14188 -14117 -13230 -13231 0
-14035 13831 0
-14035 14029 0
14035 -13831 -14029 0
-14039 13829 0
-14039 13834 0
14039 -13829 -13834 0
-14042 14026 0
-14042 13837 0
14042 -14026 -13837 0
-14046 13709 0
-14046 13840 0
14046 -13709 -13840 0
-14049 13677 0
-14049 13246 0
14049 -13677 -13246 0
-14052 13843 0
-14052 13718 0
14052 -13843 -13718 0
-14214 13829 0
-14214 13846 0
14214 -13829 -13846 0
-14127 13700 0
-14127 13849 0
14127 -13700 -13849 0
-14057 13852 0
-14057 13818 0
14057 -13852 -13818 0
-14138 13855 0
-14138 13818 0
14138 -13855 -13818 0
-14060 13858 0
-14060 13829 0
-14060 13775 0
14060 -13858 -13829 -13775 0
-14159 13861 0
-14159 13677 0
-14159 13866 0
14159 -13861 -13677 -13866 0
-14063 13864 0
-14063 13818 0
14063 -13864 -13818 0
-14281 13867 0
-14281 13817 0
14281 -13867 -13817 0
-14244 13870 0
-14244 13814 0
14244 -13870 -13814 0
-14066 13873 0
-14066 13818 0
14066 -13873 -13818 0
-14069 13876 0
-14069 13709 0
-14069 14029 0
-14069 13933 0
14069 -13876 -13709 -14029 -13933 0
-14072 13879 0
-14072 13933 0
14072 -13879 -13933 0
-14147 13709 0
-14147 13773 0
-14147 13882 0
14147 -13709 -13773 -13882 0
-14075 13733 0
-14075 13933 0
-14075 13885 0
14075 -13733 -13933 -13885 0
-14076 14029 0
-14076 13300 0
14076 -14029 -13300 0
-14102 13888 0
-14102 14208 0
14102 -13888 -14208 0
-14079 13891 0
-14079 14026 0
14079 -13891 -14026 0
-14252 13894 0
-14252 13693 0
14252 -13894 -13693 0
-14082 13897 0
-14082 13709 0
-14082 13818 0
14082 -13897 -13709 -13818 0
-13314 13900 0
-13314 13709 0
-13314 13818 0
-13314 13933 0
13314 -13900 -13709 -13818 -13933 0
-14085 13700 0
-14085 13903 0
14085 -13700 -13903 0
-14107 13906 0
-14107 14165 0
14107 -13906 -14165 0
-14088 13909 0
-14088 13672 0
-14088 13773 0
14088 -13909 -13672 -13773 0
-14220 13696 0
-14220 13912 0
-14220 13933 0
14220 -13696 -13912 -13933 0
-14294 13677 0
-14294 13933 0
-14294 13915 0
14294 -13677 -13933 -13915 0
-14277 13918 0
-14277 13817 0
14277 -13918 -13817 0
-14091 13921 0
-14091 13374 0
-14091 13709 0
-14091 13866 0
14091 -13921 -13374 -13709 -13866 0
-14094 13718 0
-14094 13924 0
14094 -13718 -13924 0
-14093 13928 0
-14093 13866 0
14093 -13928 -13866 0
-14098 13931 0
-14098 13829 0
14098 -13931 -13829 0
-14100 13933 0
-14100 13934 0
-14100 14165 0
14100 -13933 -13934 -14165 0
-14105 13718 0
-14105 14026 0
-14105 13934 0
14105 -13718 -14026 -13934 0
-14241 13718 0
-14241 13933 0
-14241 13937 0
14241 -13718 -13933 -13937 0
-14256 13758 0
-14256 13940 0
-14256 13369 0
14256 -13758 -13940 -13369 0
-14287 13733 0
-14287 13943 0
14287 -13733 -13943 0
-14236 13374 0
-14236 13946 0
-14236 14208 0
14236 -13374 -13946 -14208 0
-14108 13709 0
-14108 13949 0
-14108 14026 0
14108 -13709 -13949 -14026 0
-14112 13952 0
-14112 14026 0
14112 -13952 -14026 0
-14292 13955 0
-14292 13818 0
14292 -13955 -13818 0
-14115 13958 0
-14115 13818 0
14115 -13958 -13818 0
-14225 13718 0
-14225 14208 0
-14225 13961 0
14225 -13718 -14208 -13961 0
-13394 13964 0
-13394 13829 0
-13394 13775 0
13394 -13964 -13829 -13775 0
-14293 13806 0
-14293 13967 0
14293 -13806 -13967 0
-14118 13970 0
-14118 13718 0
14118 -13970 -13718 0
-14240 14029 0
-14240 13970 0
14240 -14029 -13970 0
-14121 13414 0
-14121 13973 0
14121 -13414 -13973 0
-14124 13758 0
-14124 13976 0
14124 -13758 -13976 0
-14126 13414 0
-14126 13979 0
14126 -13414 -13979 0
-14131 13982 0
-14131 14026 0
14131 -13982 -14026 0
-14134 13985 0
-14134 13718 0
14134 -13985 -13718 0
-14136 13988 0
-14136 14029 0
14136 -13988 -14029 0
-14141 13991 0
-14141 14026 0
14141 -13991 -14026 0
-14144 13994 0
-14144 13718 0
14144 -13994 -13718 0
-14299 13997 0
-14299 13778 0
14299 -13997 -13778 0
-14238 13718 0
-14238 14000 0
14238 -13718 -14000 0
-14197 13707 0
-14197 14003 0
14197 -13707 -14003 0
-14146 14006 0
-14146 13829 0
14146 -14006 -13829 0
-14149 13733 0
-14149 13829 0
-14149 14009 0
14149 -13733 -13829 -14009 0
-14152 14012 0
-14152 13817 0
14152 -14012 -13817 0
-14272 13677 0
-14272 14015 0
-14272 13829 0
14272 -13677 -14015 -13829 0
-14155 14018 0
-14155 13773 0
14155 -14018 -13773 0
-14158 14021 0
-14158 13773 0
14158 -14021 -13773 0
-14162 14024 0
-14162 13775 0
14162 -14024 -13775 0
-14166 14027 0
-14166 13718 0
14166 -14027 -13718 0
-14169 14030 0
-14169 13829 0
14169 -14030 -13829 0
-14217 13718 0
-14217 14033 0
14217 -13718 -14033 0
-14202 13709 0
-14202 14036 0
14202 -13709 -14036 0
-14175 13829 0
-14175 14041 0
14175 -13829 -14041 0
-14178 14044 0
-14178 13775 0
14178 -14044 -13775 0
-14181 14047 0
-14181 14029 0
14181 -14047 -14029 0
-14186 13709 0
-14186 14050 0
14186 -13709 -14050 0
-14189 14055 0
-14189 13718 0
-14189 14026 0
14189 -14055 -13718 -14026 0
-14245 13677 0
-14245 14058 0
14245 -13677 -14058 0
-14192 13829 0
-14192 14061 0
14192 -13829 -14061 0
-14212 13806 0
-14212 14064 0
14212 -13806 -14064 0
-14270 13733 0
-14270 14067 0
14270 -13733 -14067 0
-14195 14070 0
-14195 14026 0
14195 -14070 -14026 0
-14198 13829 0
-14198 14073 0
14198 -13829 -14073 0
-14201 14077 0
-14201 13829 0
14201 -14077 -13829 0
-14224 14083 0
-14224 13866 0
14224 -14083 -13866 0
-13515 14086 0
-13515 13709 0
-13515 13933 0
13515 -14086 -13709 -13933 0
-14204 13718 0
-14204 13521 0
14204 -13718 -13521 0
-14249 13677 0
-14249 14096 0
14249 -13677 -14096 0
-14229 14099 0
-14229 13718 0
14229 -14099 -13718 0
-13602 14103 0
-13602 13698 0
-13602 13697 0
13602 -14103 -13698 -13697 0
-14233 14106 0
-14233 13933 0
14233 -14106 -13933 0
-13535 14110 0
-13535 13709 0
-13535 13718 0
13535 -14110 -13709 -13718 0
-14289 13677 0
-14289 14113 0
14289 -13677 -14113 0
-14306 14116 0
-14306 14026 0
14306 -14116 -14026 0
-14213 14119 0
-14213 13818 0
14213 -14119 -13818 0
-14235 14122 0
-14235 13775 0
14235 -14122 -13775 0
-14216 14125 0
-14216 14029 0
14216 -14125 -14029 0
-14251 13718 0
-14251 14129 0
14251 -13718 -14129 0
-14219 14132 0
-14219 14026 0
14219 -14132 -14026 0
-14223 13829 0
-14223 14135 0
14223 -13829 -14135 0
-14311 14139 0
-14311 13775 0
14311 -14139 -13775 0
-14230 13806 0
-14230 14142 0
14230 -13806 -14142 0
-14283 13733 0
-14283 14145 0
14283 -13733 -14145 0
-14257 14148 0
-14257 13773 0
14257 -14148 -13773 0
-14274 14151 0
-14274 13677 0
14274 -14151 -13677 0
-14304 13829 0
-14304 14154 0
14304 -13829 -14154 0
-14232 13829 0
-14232 14157 0
14232 -13829 -14157 0
-14237 13829 0
-14237 14160 0
14237 -13829 -14160 0
-14309 14167 0
-14309 13677 0
14309 -14167 -13677 0
-14246 13709 0
-14246 14170 0
14246 -13709 -14170 0
-14300 13677 0
-14300 14174 0
14300 -13677 -14174 0
-14248 14177 0
-14248 13933 0
14248 -14177 -13933 0
-13599 13709 0
-13599 13933 0
-13599 13602 0
13599 -13709 -13933 -13602 0
-13603 14180 0
-13603 13933 0
13603 -14180 -13933 0
-14258 13709 0
-14258 14187 0
14258 -13709 -14187 0
-14284 13677 0
-14284 14190 0
14284 -13677 -14190 0
-14261 13709 0
-14261 14193 0
14261 -13709 -14193 0
-14263 14203 0
-14263 14165 0
14263 -14203 -14165 0
-14266 13709 0
-14266 14206 0
14266 -13709 -14206 0
-14271 14215 0
-14271 13709 0
14271 -14215 -13709 0
-14275 14218 0
-14275 13709 0
14275 -14218 -13709 0
-14279 13709 0
-14279 14221 0
14279 -13709 -14221 0
-14282 14226 0
-14282 13709 0
14282 -14226 -13709 0
-14288 14234 0
-14288 13709 0
14288 -14234 -13709 0
-14291 14239 0
-14291 13709 0
14291 -14239 -13709 0
-14297 14247 0
-14297 13806 0
14297 -14247 -13806 0
-14301 13709 0
-14301 14250 0
14301 -13709 -14250 0
-14303 14259 0
-14303 13718 0
14303 -14259 -13718 0
-14307 14262 0
-14307 13933 0
14307 -14262 -13933 0
-14310 13709 0
-14310 14305 0
14310 -13709 -14305 0
-14323 13655 0
-14323 13671 0
14323 -13655 -13671 0
-14317 13658 0
-14317 13671 0
14317 -13658 -13671 0
-14321 13661 0
-14321 13671 0
14321 -13661 -13671 0
-14313 13664 0
-14313 13671 0
14313 -13664 -13671 0
-14315 13667 0
-14315 13671 0
14315 -13667 -13671 0
-14319 13670 0
-14319 13671 0
14319 -13670 -13671 0
13672 -13673 0
13672 -13698 0
-13672 13673 13698 0
13675 -13806 0
13675 -13677 0
-13675 13806 13677 0
13678 -14029 0
13678 -13775 0
-13678 14029 13775 0
13681 -13775 0
13681 -13773 0
-13681 13775 13773 0
13684 -13736 0
13684 -14208 0
-13684 13736 14208 0
13687 -14029 0
13687 -14208 0
-13687 14029 14208 0
13690 -13733 0
13690 -14208 0
-13690 13733 14208 0
13693 -13694 0
13693 -13697 0
-13693 13694 13697 0
13696 -13697 0
13696 -13698 0
-13696 13697 13698 0
13699 -13700 0
13699 -13707 0
-13699 13700 13707 0
13702 -13707 0
13702 -13775 0
-13702 13707 13775 0
13757 -13706 0
13757 -13707 0
-13757 13706 13707 0
13708 -13709 0
13708 -13775 0
-13708 13709 13775 0
13711 -13718 0
13711 -13775 0
-13711 13718 13775 0
13714 -13718 0
13714 -13773 0
-13714 13718 13773 0
13717 -13718 0
13717 -14026 0
-13717 13718 14026 0
13720 -14026 0
13720 -13806 0
-13720 14026 13806 0
13723 -13736 0
13723 -13818 0
-13723 13736 13818 0
13726 -13818 0
13726 -14029 0
-13726 13818 14029 0
13772 -13818 0
13772 -14208 0
-13772 13818 14208 0
13732 -13733 0
13732 -13818 0
-13732 13733 13818 0
13735 -13736 0
13735 -13866 0
-13735 13736 13866 0
13738 -13818 0
13738 -13866 0
-13738 13818 13866 0
13787 -13866 0
13787 -14208 0
-13787 13866 14208 0
13744 -13866 0
13744 -13933 0
-13744 13866 13933 0
13747 -13818 0
13747 -13933 0
-13747 13818 13933 0
13750 -14029 0
13750 -13933 0
-13750 14029 13933 0
13753 -14029 0
13753 -13755 0
-13753 14029 13755 0
13756 -13757 0
13756 -13758 0
-13756 13757 13758 0
13759 -13760 0
13759 -13773 0
-13759 13760 13773 0
13762 -13763 0
13762 -13764 0
-13762 13763 13764 0
13765 -13766 0
13765 -14208 0
-13765 13766 14208 0
13768 -13769 0
13768 -13770 0
-13768 13769 13770 0
13771 -13772 0
13771 -13773 0
-13771 13772 13773 0
13774 -13775 0
13774 -13776 0
-13774 13775 13776 0
13777 -13778 0
13777 -13779 0
-13777 13778 13779 0
13844 -13781 0
13844 -13782 0
-13844 13781 13782 0
13783 -13787 0
13783 -13785 0
-13783 13787 13785 0
13786 -13787 0
13786 -13788 0
-13786 13787 13788 0
13789 -14029 0
13789 -13791 0
-13789 14029 13791 0
13792 -13936 0
13792 -14026 0
-13792 13936 14026 0
13795 -13796 0
13795 -13797 0
-13795 13796 13797 0
13798 -13799 0
13798 -13800 0
-13798 13799 13800 0
13801 -13802 0
13801 -13803 0
-13801 13802 13803 0
13804 -14165 0
13804 -13806 0
-13804 14165 13806 0
13807 -14208 0
13807 -13809 0
-13807 14208 13809 0
13810 -13811 0
13810 -13812 0
-13810 13811 13812 0
13813 -13814 0
13813 -13815 0
-13813 13814 13815 0
13816 -13817 0
13816 -13818 0
-13816 13817 13818 0
13819 -13820 0
13819 -13821 0
-13819 13820 13821 0
13822 -13823 0
13822 -13824 0
-13822 13823 13824 0
13825 -13826 0
13825 -13866 0
-13825 13826 13866 0
13828 -13829 0
13828 -13830 0
-13828 13829 13830 0
13831 -13832 0
13831 -13833 0
-13831 13832 13833 0
13834 -13835 0
13834 -13836 0
-13834 13835 13836 0
13837 -13838 0
13837 -13839 0
-13837 13838 13839 0
13840 -13841 0
13840 -13842 0
-13840 13841 13842 0
13843 -13844 0
13843 -14029 0
-13843 13844 14029 0
13846 -13847 0
13846 -13848 0
-13846 13847 13848 0
13849 -13856 0
13849 -13851 0
-13849 13856 13851 0
13852 -13856 0
13852 -13854 0
-13852 13856 13854 0
13855 -13856 0
13855 -13857 0
-13855 13856 13857 0
13858 -13859 0
13858 -13860 0
-13858 13859 13860 0
13861 -13862 0
13861 -13863 0
-13861 13862 13863 0
13864 -13871 0
13864 -13866 0
-13864 13871 13866 0
13867 -13871 0
13867 -13869 0
-13867 13871 13869 0
13870 -13871 0
13870 -13872 0
-13870 13871 13872 0
13873 -13874 0
13873 -13875 0
-13873 13874 13875 0
13876 -13877 0
13876 -13878 0
-13876 13877 13878 0
13879 -13880 0
13879 -13881 0
-13879 13880 13881 0
13882 -13883 0
13882 -13884 0
-13882 13883 13884 0
13885 -13886 0
13885 -13887 0
-13885 13886 13887 0
13888 -13889 0
13888 -13890 0
-13888 13889 13890 0
13891 -13892 0
13891 -13893 0
-13891 13892 13893 0
13894 -13895 0
13894 -13896 0
-13894 13895 13896 0
13897 -13898 0
13897 -13899 0
-13897 13898 13899 0
13900 -13901 0
13900 -13902 0
-13900 13901 13902 0
13903 -13904 0
13903 -13905 0
-13903 13904 13905 0
13906 -13907 0
13906 -13908 0
-13906 13907 13908 0
13909 -13910 0
13909 -13911 0
-13909 13910 13911 0
13912 -13913 0
13912 -13914 0
-13912 13913 13914 0
13915 -13916 0
13915 -13917 0
-13915 13916 13917 0
13918 -13919 0
13918 -13920 0
-13918 13919 13920 0
13921 -13922 0
13921 -13923 0
-13921 13922 13923 0
13924 -14117 0
13924 -14029 0
13924 -13927 0
-13924 14117 14029 13927 0
13928 -13929 0
13928 -13930 0
-13928 13929 13930 0
13931 -13932 0
13931 -13933 0
-13931 13932 13933 0
13934 -13935 0
13934 -13936 0
-13934 13935 13936 0
13937 -13938 0
13937 -13939 0
-13937 13938 13939 0
13940 -13941 0
13940 -13942 0
-13940 13941 13942 0
13943 -13944 0
13943 -13945 0
-13943 13944 13945 0
13946 -13947 0
13946 -13948 0
-13946 13947 13948 0
13949 -13950 0
13949 -13951 0
-13949 13950 13951 0
13952 -13953 0
13952 -13954 0
-13952 13953 13954 0
13955 -13956 0
13955 -13957 0
-13955 13956 13957 0
13958 -13959 0
13958 -13960 0
-13958 13959 13960 0
13961 -13962 0
13961 -13963 0
-13961 13962 13963 0
13964 -13965 0
13964 -13966 0
-13964 13965 13966 0
13967 -13968 0
13967 -13969 0
-13967 13968 13969 0
13970 -13971 0
13970 -13972 0
-13970 13971 13972 0
13973 -13974 0
13973 -13975 0
-13973 13974 13975 0
13976 -13977 0
13976 -13978 0
-13976 13977 13978 0
13979 -13980 0
13979 -13981 0
-13979 13980 13981 0
13982 -13983 0
13982 -13984 0
-13982 13983 13984 0
13985 -14117 0
13985 -13987 0
-13985 14117 13987 0
13988 -13989 0
13988 -13990 0
-13988 13989 13990 0
13991 -13992 0
13991 -13993 0
-13991 13992 13993 0
13994 -13995 0
13994 -14029 0
-13994 13995 14029 0
13997 -13998 0
13997 -13999 0
-13997 13998 13999 0
14000 -14001 0
14000 -14002 0
-14000 14001 14002 0
14003 -14004 0
14003 -14005 0
-14003 14004 14005 0
14006 -14007 0
14006 -14008 0
-14006 14007 14008 0
14009 -14010 0
14009 -14011 0
-14009 14010 14011 0
14012 -14013 0
14012 -14014 0
-14012 14013 14014 0
14015 -14016 0
14015 -14017 0
-14015 14016 14017 0
14018 -14019 0
14018 -14020 0
-14018 14019 14020 0
14021 -14022 0
14021 -14023 0
-14021 14022 14023 0
14024 -14025 0
14024 -14026 0
-14024 14025 14026 0
14027 -14028 0
14027 -14029 0
-14027 14028 14029 0
14030 -14031 0
14030 -14032 0
-14030 14031 14032 0
14033 -14034 0
14033 -14035 0
-14033 14034 14035 0
14036 -14037 0
14036 -14038 0
14036 -14039 0
14036 -14040 0
-14036 14037 14038 14039 14040 0
14041 -14042 0
14041 -14043 0
-14041 14042 14043 0
14044 -14045 0
14044 -14046 0
-14044 14045 14046 0
14047 -14048 0
14047 -14049 0
-14047 14048 14049 0
14050 -14051 0
14050 -14052 0
14050 -14208 0
14050 -14054 0
-14050 14051 14052 14208 14054 0
14055 -14056 0
14055 -14057 0
-14055 14056 14057 0
14058 -14059 0
14058 -14060 0
-14058 14059 14060 0
14061 -14062 0
14061 -14063 0
-14061 14062 14063 0
14064 -14065 0
14064 -14066 0
-14064 14065 14066 0
14067 -14068 0
14067 -14069 0
-14067 14068 14069 0
14070 -14071 0
14070 -14072 0
-14070 14071 14072 0
14073 -14074 0
14073 -14075 0
14073 -14076 0
-14073 14074 14075 14076 0
14077 -14078 0
14077 -14079 0
-14077 14078 14079 0
14080 -14081 0
14080 -14082 0
-14080 14081 14082 0
14083 -14084 0
14083 -14085 0
-14083 14084 14085 0
14086 -14087 0
14086 -14088 0
-14086 14087 14088 0
14089 -14090 0
14089 -14091 0
-14089 14090 14091 0
14173 -14093 0
14173 -14094 0
14173 -14095 0
-14173 14093 14094 14095 0
14096 -14097 0
14096 -14098 0
-14096 14097 14098 0
14099 -14100 0
14099 -14101 0
14099 -14102 0
-14099 14100 14101 14102 0
14103 -14104 0
14103 -14105 0
-14103 14104 14105 0
14106 -14107 0
14106 -14108 0
14106 -14109 0
-14106 14107 14108 14109 0
14110 -14111 0
14110 -14112 0
-14110 14111 14112 0
14113 -14114 0
14113 -14115 0
-14113 14114 14115 0
14116 -14117 0
14116 -14118 0
-14116 14117 14118 0
14119 -14120 0
14119 -14121 0
-14119 14120 14121 0
14122 -14123 0
14122 -14124 0
-14122 14123 14124 0
14125 -14126 0
14125 -14127 0
14125 -14128 0
-14125 14126 14127 14128 0
14129 -14130 0
14129 -14131 0
-14129 14130 14131 0
14132 -14133 0
14132 -14134 0
-14132 14133 14134 0
14135 -14136 0
14135 -14137 0
14135 -14138 0
-14135 14136 14137 14138 0
14139 -14140 0
14139 -14141 0
-14139 14140 14141 0
14142 -14143 0
14142 -14144 0
-14142 14143 14144 0
14145 -14146 0
14145 -14147 0
-14145 14146 14147 0
14148 -14149 0
14148 -14150 0
-14148 14149 14150 0
14151 -14152 0
14151 -14153 0
-14151 14152 14153 0
14154 -14155 0
14154 -14156 0
-14154 14155 14156 0
14157 -14158 0
14157 -14159 0
-14157 14158 14159 0
14160 -14161 0
14160 -14162 0
-14160 14161 14162 0
14210 -14164 0
14210 -14165 0
14210 -14166 0
-14210 14164 14165 14166 0
14167 -14168 0
14167 -14169 0
-14167 14168 14169 0
14170 -14171 0
14170 -14172 0
14170 -14173 0
-14170 14171 14172 14173 0
14174 -14175 0
14174 -14176 0
-14174 14175 14176 0
14177 -14178 0
14177 -14179 0
-14177 14178 14179 0
14180 -14181 0
14180 -14182 0
-14180 14181 14182 0
14183 -14184 0
14183 -14185 0
14183 -14186 0
-14183 14184 14185 14186 0
14187 -14188 0
14187 -14189 0
-14187 14188 14189 0
14190 -14191 0
14190 -14192 0
-14190 14191 14192 0
14193 -14194 0
14193 -14195 0
-14193 14194 14195 0
14242 -14197 0
14242 -14198 0
14242 -14199 0
-14242 14197 14198 14199 0
14200 -14201 0
14200 -14202 0
-14200 14201 14202 0
14203 -14204 0
14203 -14205 0
-14203 14204 14205 0
14206 -14207 0
14206 -14208 0
14206 -14209 0
14206 -14210 0
-14206 14207 14208 14209 14210 0
14254 -14212 0
14254 -14213 0
14254 -14214 0
-14254 14212 14213 14214 0
14215 -14216 0
14215 -14217 0
-14215 14216 14217 0
14218 -14219 0
14218 -14220 0
-14218 14219 14220 0
14221 -14222 0
14221 -14223 0
14221 -14224 0
14221 -14225 0
-14221 14222 14223 14224 14225 0
14226 -14227 0
14226 -14228 0
14226 -14229 0
14226 -14230 0
-14226 14227 14228 14229 14230 0
14231 -14232 0
14231 -14233 0
-14231 14232 14233 0
14234 -14235 0
14234 -14236 0
14234 -14237 0
14234 -14238 0
-14234 14235 14236 14237 14238 0
14239 -14240 0
14239 -14241 0
14239 -14242 0
-14239 14240 14241 14242 0
14243 -14244 0
14243 -14245 0
14243 -14246 0
-14243 14244 14245 14246 0
14247 -14248 0
14247 -14249 0
-14247 14248 14249 0
14250 -14251 0
14250 -14252 0
14250 -14253 0
14250 -14254 0
-14250 14251 14252 14253 14254 0
14255 -14256 0
14255 -14257 0
14255 -14258 0
-14255 14256 14257 14258 0
14259 -14260 0
14259 -14261 0
-14259 14260 14261 0
14262 -14263 0
14262 -14264 0
-14262 14263 14264 0
14265 -14266 0
14265 -14267 0
14265 -14268 0
-14265 14266 14267 14268 0
14269 -14270 0
14269 -14271 0
14269 -14272 0
-14269 14270 14271 14272 0
14273 -14274 0
14273 -14275 0
-14273 14274 14275 0
14276 -14277 0
14276 -14278 0
14276 -14279 0
-14276 14277 14278 14279 0
14280 -14281 0
14280 -14282 0
14280 -14283 0
14280 -14284 0
-14280 14281 14282 14283 14284 0
14285 -14286 0
14285 -14287 0
14285 -14288 0
14285 -14289 0
-14285 14286 14287 14288 14289 0
14290 -14291 0
14290 -14292 0
14290 -14293 0
14290 -14294 0
-14290 14291 14292 14293 14294 0
14295 -14296 0
14295 -14297 0
-14295 14296 14297 0
14298 -14299 0
14298 -14300 0
14298 -14301 0
-14298 14299 14300 14301 0
14302 -14303 0
14302 -14304 0
-14302 14303 14304 0
14305 -14306 0
14305 -14307 0
-14305 14306 14307 0
14308 -14309 0
14308 -14310 0
14308 -14311 0
-14308 14309 14310 14311 0
-14313 16222 0
14313 -16222 0
-14315 15787 0
14315 -15787 0
-14317 15789 0
14317 -15789 0
-14319 16043 0
14319 -16043 0
-14321 15843 0
14321 -15843 0
-14323 15691 0
14323 -15691 0
15772 15750 0
-15772 -15750 0
15428 15720 0
-15428 -15720 0
15747 15820 0
-15747 -15820 0
15714 15388 0
-15714 -15388 0
15708 15712 0
-15708 -15712 0
15711 15687 0
-15711 -15687 0
15721 15169 0
-15721 -15169 0
15723 15691 0
-15723 -15691 0
15732 15843 0
-15732 -15843 0
16040 16043 0
-16040 -16043 0
15832 15789 0
-15832 -15789 0
15880 15787 0
-15880 -15787 0
15947 16222 0
-15947 -16222 0
16178 15686 0
-16178 -15686 0
14355 16043 0
-14355 -16043 0
15790 14355 0
-15790 -14355 0
15792 15692 0
-15792 -15692 0
14361 15820 0
-14361 -15820 0
14754 14361 0
-14754 -14361 0
15950 15695 0
-15950 -15695 0
14367 15832 0
-14367 -15832 0
15817 14367 0
-15817 -14367 0
15383 15701 0
-15383 -15701 0
15217 15704 0
-15217 -15704 0
16179 15707 0
-16179 -15707 0
14377 15707 0
-14377 -15707 0
15871 14377 0
-15871 -14377 0
15244 15713 0
-15244 -15713 0
15109 15771 0
-15109 -15771 0
14872 15722 0
-14872 -15722 0
15828 15725 0
-15828 -15725 0
15831 15728 0
-15831 -15728 0
15245 15731 0
-15245 -15731 0
15837 15734 0
-15837 -15734 0
15840 15737 0
-15840 -15737 0
15900 15740 0
-15900 -15740 0
14945 15786 0
-14945 -15786 0
15126 15746 0
-15126 -15746 0
15855 15749 0
-15855 -15749 0
14999 15752 0
-14999 -15752 0
15203 15801 0
-15203 -15801 0
15870 15758 0
-15870 -15758 0
16051 15761 0
-16051 -15761 0
15885 15764 0
-15885 -15764 0
14415 15787 0
-14415 -15787 0
15211 14415 0
-15211 -14415 0
16131 15785 0
-16131 -15785 0
14421 14626 0
-14421 -14626 0
15260 14421 0
-15260 -14421 0
14425 14863 0
-14425 -14863 0
15314 14425 0
-15314 -14425 0
16042 15839 0
-16042 -15839 0
14428 15119 0
-14428 -15119 0
14430 15328 0
-14430 -15328 0
15535 16041 0
-15535 -16041 0
14434 15408 0
-14434 -15408 0
14436 16094 0
-14436 -16094 0
14438 16103 0
-14438 -16103 0
14440 15529 0
-14440 -15529 0
14442 16197 0
-14442 -16197 0
14444 15549 0
-14444 -15549 0
14446 16214 0
-14446 -16214 0
14448 15613 0
-14448 -15613 0
14450 15617 0
-14450 -15617 0
14452 16245 0
-14452 -16245 0
14454 16257 0
-14454 -16257 0
14456 16269 0
-14456 -16269 0
14458 16279 0
-14458 -16279 0
14477 16283 0
-14477 -16283 0
14462 16287 0
-14462 -16287 0
14479 16290 0
-14479 -16290 0
14481 16294 0
-14481 -16294 0
14485 16299 0
-14485 -16299 0
14487 16304 0
-14487 -16304 0
14472 16309 0
-14472 -16309 0
14489 16312 0
-14489 -16312 0
15669 14477 0
-15669 -14477 0
15672 14479 0
-15672 -14479 0
15675 14481 0
-15675 -14481 0
14482 16316 0
-14482 -16316 0
15678 14485 0
-15678 -14485 0
15681 14487 0
-15681 -14487 0
15684 14489 0
-15684 -14489 0
14490 16322 0
-14490 -16322 0
-15783 16043 0
-15783 15789 0
15783 -16043 -15789 0
-15793 16043 0
-15793 15789 0
15793 -16043 -15789 0
-15834 15843 0
-15834 16043 0
-15834 15789 0
15834 -15843 -16043 -15789 0
-15810 15843 0
-15810 15787 0
15810 -15843 -15787 0
-15795 15750 0
-15795 15787 0
15795 -15750 -15787 0
-15895 15750 0
-15895 15787 0
15895 -15750 -15787 0
-15825 15820 0
-15825 15787 0
15825 -15820 -15787 0
-16059 16043 0
-16059 15787 0
16059 -16043 -15787 0
-15769 15720 0
-15769 16222 0
15769 -15720 -16222 0
-15774 15714 0
-15774 15721 0
15774 -15714 -15721 0
-15123 15388 0
-15123 15723 0
-15123 15789 0
15123 -15388 -15723 -15789 0
-15778 15750 0
-15778 15732 0
-15778 15787 0
15778 -15750 -15732 -15787 0
-15813 15721 0
-15813 15723 0
-15813 15732 0
-15813 16222 0
15813 -15721 -15723 -15732 -16222 0
-15838 15732 0
-15838 15787 0
15838 -15732 -15787 0
-15913 15732 0
-15913 16043 0
-15913 16222 0
15913 -15732 -16043 -16222 0
-15829 15732 0
-15829 16043 0
-15829 15789 0
15829 -15732 -16043 -15789 0
-14766 15720 0
-14766 15169 0
-14766 15723 0
-14766 15732 0
14766 -15720 -15169 -15723 -15732 0
-15777 15747 0
-15777 15843 0
-15777 16040 0
15777 -15747 -15843 -16040 0
-15780 16040 0
-15780 15787 0
15780 -16040 -15787 0
-15799 15714 0
-15799 16040 0
15799 -15714 -16040 0
-15922 15723 0
-15922 15732 0
-15922 16040 0
15922 -15723 -15732 -16040 0
-15127 15691 0
-15127 15843 0
-15127 16040 0
15127 -15691 -15843 -16040 0
-15784 15732 0
-15784 15832 0
15784 -15732 -15832 0
-15898 15720 0
-15898 15832 0
-15898 16222 0
15898 -15720 -15832 -16222 0
-15931 15732 0
-15931 15832 0
-15931 15787 0
15931 -15732 -15832 -15787 0
-15919 15832 0
-15919 16222 0
15919 -15832 -16222 0
-15953 15428 0
-15953 16043 0
-15953 15832 0
15953 -15428 -16043 -15832 0
-15802 15732 0
-15802 15832 0
15802 -15732 -15832 0
-16193 15843 0
-16193 15787 0
-16193 15692 0
16193 -15843 -15787 -15692 0
-15796 15789 0
-15796 15880 0
15796 -15789 -15880 0
-15805 15169 0
-15805 15880 0
15805 -15169 -15880 0
-14862 15723 0
-14862 16043 0
-14862 15880 0
14862 -15723 -16043 -15880 0
-15856 16040 0
-15856 15880 0
15856 -16040 -15880 0
-15892 15732 0
-15892 15880 0
15892 -15732 -15880 0
-15986 15789 0
-15986 15880 0
15986 -15789 -15880 0
-15886 16043 0
-15886 15880 0
15886 -16043 -15880 0
-15904 15789 0
-15904 15880 0
15904 -15789 -15880 0
-15852 15789 0
-15852 15880 0
15852 -15789 -15880 0
-16221 15789 0
-16221 15880 0
16221 -15789 -15880 0
-14626 15843 0
-14626 15695 0
14626 -15843 -15695 0
-15907 15695 0
-15907 16222 0
15907 -15695 -16222 0
-15811 15723 0
-15811 15947 0
15811 -15723 -15947 0
-15814 15843 0
-15814 15947 0
15814 -15843 -15947 0
-15983 15723 0
-15983 16043 0
-15983 15832 0
-15983 15947 0
15983 -15723 -16043 -15832 -15947 0
-15989 15732 0
-15989 16043 0
-15989 15880 0
-15989 15947 0
15989 -15732 -16043 -15880 -15947 0
-15865 15732 0
-15865 15880 0
-15865 15947 0
15865 -15732 -15880 -15947 0
-16019 15732 0
-16019 16043 0
-16019 15832 0
-16019 15947 0
16019 -15732 -16043 -15832 -15947 0
-15868 15711 0
-15868 15880 0
-15868 15947 0
15868 -15711 -15880 -15947 0
-15995 15732 0
-15995 15880 0
-15995 15947 0
15995 -15732 -15880 -15947 0
-15883 15388 0
-15883 15832 0
-15883 15947 0
15883 -15388 -15832 -15947 0
-15877 15832 0
-15877 15947 0
15877 -15832 -15947 0
-16028 15692 0
-16028 15947 0
16028 -15692 -15947 0
-15889 15732 0
-15889 16043 0
-15889 15880 0
-15889 15947 0
15889 -15732 -16043 -15880 -15947 0
-15874 15880 0
-15874 15947 0
15874 -15880 -15947 0
-16037 15689 0
-16037 15947 0
-16037 15692 0
16037 -15689 -15947 -15692 0
-16004 15721 0
-16004 15880 0
-16004 15947 0
16004 -15721 -15880 -15947 0
-16057 15947 0
-16057 15695 0
16057 -15947 -15695 0
-16170 15691 0
-16170 15947 0
16170 -15691 -15947 0
-15941 15698 0
-15941 15787 0
15941 -15698 -15787 0
-15816 15704 0
-15816 15880 0
15816 -15704 -15880 0
-15823 15832 0
-15823 15710 0
15823 -15832 -15710 0
-15826 15713 0
-15826 15880 0
15826 -15713 -15880 0
-15847 15716 0
-15847 15880 0
-15847 15947 0
15847 -15716 -15880 -15947 0
-16025 15722 0
-16025 15711 0
-16025 16043 0
-16025 15947 0
16025 -15722 -15711 -16043 -15947 0
-15835 15731 0
-15835 15832 0
15835 -15731 -15832 0
-15850 15787 0
-15850 15734 0
15850 -15787 -15734 0
-15844 15740 0
-15844 15787 0
15844 -15740 -15787 0
-15944 15843 0
-15944 15786 0
15944 -15843 -15786 0
-15846 15787 0
-15846 15786 0
15846 -15787 -15786 0
-15849 15746 0
-15849 15880 0
15849 -15746 -15880 0
-15853 15787 0
-15853 15746 0
15853 -15787 -15746 0
-15937 15721 0
-15937 15732 0
-15937 16222 0
-15937 15792 0
15937 -15721 -15732 -16222 -15792 0
-16242 15843 0
-16242 15947 0
-16242 15792 0
16242 -15843 -15947 -15792 0
-15862 16043 0
-15862 16222 0
-15862 15752 0
15862 -16043 -16222 -15752 0
-16223 15843 0
-16223 14754 0
16223 -15843 -14754 0
-16109 16043 0
-16109 15801 0
16109 -16043 -15801 0
-15968 15169 0
-15968 16222 0
-15968 15950 0
15968 -15169 -16222 -15950 0
-15959 16043 0
-15959 15947 0
-15959 15950 0
-15959 14766 0
15959 -16043 -15947 -15950 -14766 0
-15962 15732 0
-15962 16040 0
-15962 15950 0
15962 -15732 -16040 -15950 0
-16031 16043 0
-16031 15950 0
16031 -16043 -15950 0
-15861 15388 0
-15861 15947 0
-15861 15950 0
15861 -15388 -15947 -15950 0
-16144 15721 0
-16144 16043 0
-16144 15947 0
-16144 15950 0
16144 -15721 -16043 -15947 -15950 0
-16092 16043 0
-16092 16222 0
-16092 15950 0
16092 -16043 -16222 -15950 0
-15087 15723 0
-15087 15732 0
-15087 15950 0
15087 -15723 -15732 -15950 0
-15873 15758 0
-15873 16040 0
15873 -15758 -16040 0
-16046 15792 0
-16046 15758 0
16046 -15792 -15758 0
-15876 15761 0
-15876 16040 0
15876 -15761 -16040 0
-15934 15764 0
-15934 15832 0
15934 -15764 -15832 0
-15909 15732 0
-15909 15789 0
-15909 15383 0
15909 -15732 -15789 -15383 0
-16137 15880 0
-16137 15383 0
16137 -15880 -15383 0
-16300 15843 0
-16300 15789 0
-16300 15383 0
16300 -15843 -15789 -15383 0
-15888 15767 0
-15888 15843 0
-15888 15787 0
15888 -15767 -15843 -15787 0
-16034 15217 0
-16034 15692 0
16034 -15217 -15692 0
-15891 15843 0
-15891 15787 0
-15891 16179 0
15891 -15843 -15787 -16179 0
-15916 15732 0
-15916 16040 0
-15916 15880 0
-15916 16179 0
15916 -15732 -16040 -15880 -16179 0
-15894 15832 0
-15894 16179 0
15894 -15832 -16179 0
-15897 15843 0
-15897 15947 0
-15897 16179 0
15897 -15843 -15947 -16179 0
-15901 16043 0
-15901 16179 0
15901 -16043 -16179 0
-15991 15383 0
-15991 16179 0
15991 -15383 -16179 0
-16101 15732 0
-16101 16040 0
-16101 15950 0
-16101 16179 0
16101 -15732 -16040 -15950 -16179 0
-16134 15880 0
-16134 15383 0
-16134 16179 0
16134 -15880 -15383 -16179 0
-16098 15947 0
-16098 15792 0
-16098 16179 0
16098 -15947 -15792 -16179 0
-16065 15728 0
-16065 16179 0
16065 -15728 -16179 0
-15979 15947 0
-15979 15244 0
-15979 14862 0
15979 -15947 -15244 -14862 0
-14863 15388 0
-14863 16222 0
-14863 15770 0
14863 -15388 -16222 -15770 0
-15903 15773 0
-15903 15832 0
15903 -15773 -15832 0
-15906 15947 0
-15906 14872 0
15906 -15947 -14872 0
-15910 16043 0
-15910 15787 0
-15910 15828 0
15910 -16043 -15787 -15828 0
-15956 15747 0
-15956 15691 0
-15956 15828 0
15956 -15747 -15691 -15828 0
-15912 15747 0
-15912 15947 0
-15912 15831 0
15912 -15747 -15947 -15831 0
-15970 16222 0
-15970 15831 0
15970 -16222 -15831 0
-16012 15947 0
-16012 15831 0
16012 -15947 -15831 0
-15973 15701 0
-15973 15831 0
15973 -15701 -15831 0
-15915 15820 0
-15915 15245 0
15915 -15820 -15245 0
-15918 15947 0
-15918 15245 0
15918 -15947 -15245 0
-15921 15787 0
-15921 15245 0
15921 -15787 -15245 0
-15925 15843 0
-15925 15837 0
15925 -15843 -15837 0
-15928 15843 0
-15928 15787 0
-15928 15837 0
15928 -15843 -15787 -15837 0
-16118 15843 0
-16118 15787 0
-16118 15837 0
16118 -15843 -15787 -15837 0
-16219 15843 0
-16219 15787 0
-16219 15837 0
16219 -15843 -15787 -15837 0
-16196 15723 0
-16196 15789 0
-16196 15776 0
16196 -15723 -15789 -15776 0
-16185 15832 0
-16185 15779 0
16185 -15832 -15779 0
-15924 15732 0
-15924 16040 0
-15924 15840 0
15924 -15732 -16040 -15840 0
-15927 15732 0
-15927 16040 0
-15927 15840 0
15927 -15732 -16040 -15840 0
-15930 15831 0
-15930 15900 0
15930 -15831 -15900 0
-15933 16222 0
-15933 15900 0
15933 -16222 -15900 0
-15936 15169 0
-15936 14945 0
-15936 15245 0
15936 -15169 -14945 -15245 0
-15997 15749 0
-15997 14945 0
15997 -15749 -14945 0
-16115 15785 0
-16115 16043 0
16115 -15785 -16043 0
-15943 15947 0
-15943 15126 0
15943 -15947 -15126 0
-15964 15880 0
-15964 15126 0
15964 -15880 -15126 0
-16147 15880 0
-16147 15947 0
-16147 15126 0
16147 -15880 -15947 -15126 0
-16278 15788 0
-16278 15820 0
-16278 15843 0
-16278 15787 0
16278 -15788 -15820 -15843 -15787 0
-16123 15791 0
-16123 15732 0
-16123 15787 0
16123 -15791 -15732 -15787 0
-15946 16040 0
-15946 14999 0
15946 -16040 -14999 0
-15949 15772 0
-15949 14999 0
15949 -15772 -14999 0
-16015 16043 0
-16015 14999 0
16015 -16043 -14999 0
-15952 16040 0
-15952 14999 0
15952 -16040 -14999 0
-15955 15711 0
-15955 15723 0
-15955 15732 0
-15955 14999 0
15955 -15711 -15723 -15732 -14999 0
-15958 15843 0
-15958 16040 0
-15958 14999 0
15958 -15843 -16040 -14999 0
-15961 15750 0
-15961 15771 0
-15961 15843 0
-15961 14999 0
15961 -15750 -15771 -15843 -14999 0
-15976 16040 0
-15976 14999 0
15976 -16040 -14999 0
-16062 15732 0
-16062 14999 0
16062 -15732 -14999 0
-15965 15858 0
-15965 15732 0
15965 -15858 -15732 0
-15967 15750 0
-15967 15789 0
-15967 15203 0
15967 -15750 -15789 -15203 0
-15971 15732 0
-15971 16043 0
-15971 15203 0
15971 -15732 -16043 -15203 0
-16022 15789 0
-16022 15203 0
16022 -15789 -15203 0
-15974 15732 0
-15974 15203 0
15974 -15732 -15203 0
-16111 15832 0
-16111 15203 0
16111 -15832 -15203 0
-16076 15789 0
-16076 15203 0
16076 -15789 -15203 0
-16167 15725 0
-16167 16043 0
-16167 15203 0
16167 -15725 -16043 -15203 0
-16128 16043 0
-16128 15789 0
-16128 15203 0
16128 -16043 -15789 -15203 0
-16073 15732 0
-16073 15832 0
-16073 15203 0
16073 -15732 -15832 -15203 0
-16154 15720 0
-16154 16043 0
-16154 15203 0
16154 -15720 -16043 -15203 0
-16048 16040 0
-16048 15203 0
-16048 16179 0
-16048 15840 0
16048 -16040 -15203 -16179 -15840 0
-16182 15732 0
-16182 15832 0
-16182 15203 0
16182 -15732 -15832 -15203 0
-16208 16043 0
-16208 15789 0
-16208 15203 0
16208 -16043 -15789 -15203 0
-16190 15203 0
-16190 15740 0
16190 -15203 -15740 0
-16175 16043 0
-16175 15832 0
-16175 15203 0
16175 -16043 -15832 -15203 0
-16198 15732 0
-16198 15832 0
-16198 15203 0
16198 -15732 -15832 -15203 0
-16205 15782 0
-16205 15203 0
16205 -15782 -15203 0
-16274 15792 0
-16274 15203 0
16274 -15792 -15203 0
-16088 15797 0
-16088 15832 0
16088 -15797 -15832 0
-16054 16043 0
-16054 15800 0
16054 -16043 -15800 0
-15977 15803 0
-15977 15832 0
15977 -15803 -15832 0
-16199 15806 0
-16199 15843 0
16199 -15806 -15843 0
-16281 15843 0
-16281 15806 0
16281 -15843 -15806 0
-16310 15383 0
-16310 16179 0
-16310 15087 0
16310 -15383 -16179 -15087 0
-15980 15820 0
-15980 15691 0
-15980 16040 0
-15980 15870 0
15980 -15820 -15691 -16040 -15870 0
-15982 15691 0
-15982 15843 0
-15982 15870 0
-15982 15900 0
15982 -15691 -15843 -15870 -15900 0
-15985 15832 0
-15985 15870 0
15985 -15832 -15870 0
-15988 15747 0
-15988 15843 0
-15988 15870 0
15988 -15747 -15843 -15870 0
-15992 15388 0
-15992 15843 0
-15992 15870 0
-15992 15109 0
15992 -15388 -15843 -15870 -15109 0
-15994 15169 0
-15994 15870 0
15994 -15169 -15870 0
-15998 15832 0
-15998 15870 0
15998 -15832 -15870 0
-16006 15843 0
-16006 15870 0
16006 -15843 -15870 0
-15119 15870 0
-15119 15245 0
-15119 15771 0
-15119 15123 0
15119 -15870 -15245 -15771 -15123 0
-16104 15870 0
-16104 15126 0
-16104 15127 0
16104 -15870 -15126 -15127 0
-16001 15832 0
-16001 15870 0
16001 -15832 -15870 0
-16125 16043 0
-16125 15789 0
-16125 15870 0
16125 -16043 -15789 -15870 0
-16157 15428 0
-16157 15832 0
-16157 15870 0
16157 -15428 -15832 -15870 0
-16003 15770 0
-16003 15388 0
-16003 15870 0
16003 -15770 -15388 -15870 0
-16241 16043 0
-16241 15870 0
16241 -16043 -15870 0
-16007 15428 0
-16007 15809 0
16007 -15428 -15809 0
-16009 15714 0
-16009 16051 0
16009 -15714 -16051 0
-16085 15880 0
-16085 16051 0
16085 -15880 -16051 0
-16070 15880 0
-16070 16051 0
16070 -15880 -16051 0
-16267 16043 0
-16267 15880 0
-16267 16051 0
16267 -16043 -15880 -16051 0
-16213 15880 0
-16213 16051 0
16213 -15880 -16051 0
-16013 15714 0
-16013 15812 0
16013 -15714 -15812 0
-16016 15169 0
-16016 15950 0
-16016 15885 0
16016 -15169 -15950 -15885 0
-16018 15880 0
-16018 15885 0
16018 -15880 -15885 0
-16021 15691 0
-16021 15885 0
16021 -15691 -15885 0
-16024 15691 0
-16024 15789 0
-16024 15885 0
16024 -15691 -15789 -15885 0
-16027 15832 0
-16027 15885 0
16027 -15832 -15885 0
-16030 15752 0
-16030 15885 0
16030 -15752 -15885 0
-16033 15789 0
-16033 15885 0
16033 -15789 -15885 0
-16036 15789 0
-16036 15885 0
16036 -15789 -15885 0
-16082 15691 0
-16082 15843 0
-16082 15885 0
16082 -15691 -15843 -15885 0
-16151 15815 0
-16151 16040 0
16151 -15815 -16040 0
-16039 15818 0
-16039 15203 0
16039 -15818 -15203 0
-16052 15821 0
-16052 15880 0
16052 -15821 -15880 0
-16068 15843 0
-16068 15824 0
16068 -15843 -15824 0
-16292 15211 0
-16292 15691 0
-16292 16043 0
-16292 15947 0
16292 -15211 -15691 -16043 -15947 0
-16236 15827 0
-16236 15217 0
16236 -15827 -15217 0
-16142 15830 0
-16142 16222 0
16142 -15830 -16222 0
-16164 15691 0
-16164 15947 0
-16164 15833 0
16164 -15691 -15947 -15833 0
-16186 15836 0
-16186 15710 0
16186 -15836 -15710 0
-16282 15691 0
-16282 15947 0
-16282 15842 0
16282 -15691 -15947 -15842 0
-16045 16043 0
-16045 16131 0
16045 -16043 -16131 0
-16095 15691 0
-16095 16131 0
-16095 15245 0
16095 -15691 -16131 -15245 0
-16079 16040 0
-16079 16131 0
16079 -16040 -16131 0
-16202 16131 0
-16202 15244 0
-16202 15245 0
16202 -16131 -15244 -15245 0
-16049 15845 0
-16049 16043 0
16049 -15845 -16043 0
-16053 15843 0
-16053 15848 0
16053 -15843 -15848 0
-16056 16040 0
-16056 15851 0
16056 -16040 -15851 0
-16060 15723 0
-16060 15854 0
16060 -15723 -15854 0
-16063 15691 0
-16063 15260 0
16063 -15691 -15260 0
-16066 15857 0
-16066 15732 0
16066 -15857 -15732 0
-16228 15843 0
-16228 15860 0
16228 -15843 -15860 0
-16141 15714 0
-16141 15863 0
16141 -15714 -15863 0
-16071 15866 0
-16071 15832 0
16071 -15866 -15832 0
-16152 15869 0
-16152 15832 0
16152 -15869 -15832 0
-16074 15872 0
-16074 15843 0
-16074 15789 0
16074 -15872 -15843 -15789 0
-16173 15875 0
-16173 15691 0
-16173 15880 0
16173 -15875 -15691 -15880 0
-16077 15878 0
-16077 15832 0
16077 -15878 -15832 0
-16295 15881 0
-16295 15831 0
16295 -15881 -15831 0
-16258 15884 0
-16258 15828 0
16258 -15884 -15828 0
-16080 15887 0
-16080 15832 0
16080 -15887 -15832 0
-16083 15890 0
-16083 15723 0
-16083 16043 0
-16083 15947 0
16083 -15890 -15723 -16043 -15947 0
-16086 15893 0
-16086 15947 0
16086 -15893 -15947 0
-16161 15723 0
-16161 15787 0
-16161 15896 0
16161 -15723 -15787 -15896 0
-16089 15747 0
-16089 15947 0
-16089 15899 0
16089 -15747 -15947 -15899 0
-16090 16043 0
-16090 15314 0
16090 -16043 -15314 0
-16116 15902 0
-16116 16222 0
16116 -15902 -16222 0
-16093 15905 0
-16093 16040 0
16093 -15905 -16040 0
-16266 15908 0
-16266 15707 0
16266 -15908 -15707 0
-16096 15911 0
-16096 15723 0
-16096 15832 0
16096 -15911 -15723 -15832 0
-15328 15914 0
-15328 15723 0
-15328 15832 0
-15328 15947 0
15328 -15914 -15723 -15832 -15947 0
-16099 15714 0
-16099 15917 0
16099 -15714 -15917 0
-16121 15920 0
-16121 16179 0
16121 -15920 -16179 0
-16102 15923 0
-16102 15686 0
-16102 15787 0
16102 -15923 -15686 -15787 0
-16234 15710 0
-16234 15926 0
-16234 15947 0
16234 -15710 -15926 -15947 0
-16308 15691 0
-16308 15947 0
-16308 15929 0
16308 -15691 -15947 -15929 0
-16291 15932 0
-16291 15831 0
16291 -15932 -15831 0
-16105 15935 0
-16105 15388 0
-16105 15723 0
-16105 15880 0
16105 -15935 -15388 -15723 -15880 0
-16108 15732 0
-16108 15938 0
16108 -15732 -15938 0
-16107 15942 0
-16107 15880 0
16107 -15942 -15880 0
-16112 15945 0
-16112 15843 0
16112 -15945 -15843 0
-16114 15947 0
-16114 15948 0
-16114 16179 0
16114 -15947 -15948 -16179 0
-16119 15732 0
-16119 16040 0
-16119 15948 0
16119 -15732 -16040 -15948 0
-16255 15732 0
-16255 15947 0
-16255 15951 0
16255 -15732 -15947 -15951 0
-16270 15772 0
-16270 15954 0
-16270 15383 0
16270 -15772 -15954 -15383 0
-16301 15747 0
-16301 15957 0
16301 -15747 -15957 0
-16250 15388 0
-16250 15960 0
-16250 16222 0
16250 -15388 -15960 -16222 0
-16122 15723 0
-16122 15963 0
-16122 16040 0
16122 -15723 -15963 -16040 0
-16126 15966 0
-16126 16040 0
16126 -15966 -16040 0
-16306 15969 0
-16306 15832 0
16306 -15969 -15832 0
-16129 15972 0
-16129 15832 0
16129 -15972 -15832 0
-16239 15732 0
-16239 16222 0
-16239 15975 0
16239 -15732 -16222 -15975 0
-15408 15978 0
-15408 15843 0
-15408 15789 0
15408 -15978 -15843 -15789 0
-16307 15820 0
-16307 15981 0
16307 -15820 -15981 0
-16132 15984 0
-16132 15732 0
16132 -15984 -15732 0
-16254 16043 0
-16254 15984 0
16254 -16043 -15984 0
-16135 15428 0
-16135 15987 0
16135 -15428 -15987 0
-16138 15772 0
-16138 15990 0
16138 -15772 -15990 0
-16140 15428 0
-16140 15993 0
16140 -15428 -15993 0
-16145 15996 0
-16145 16040 0
16145 -15996 -16040 0
-16148 15999 0
-16148 15732 0
16148 -15999 -15732 0
-16150 16002 0
-16150 16043 0
16150 -16002 -16043 0
-16155 16005 0
-16155 16040 0
16155 -16005 -16040 0
-16158 16008 0
-16158 15732 0
16158 -16008 -15732 0
-16313 16011 0
-16313 15792 0
16313 -16011 -15792 0
-16252 15732 0
-16252 16014 0
16252 -15732 -16014 0
-16211 15721 0
-16211 16017 0
16211 -15721 -16017 0
-16160 16020 0
-16160 15843 0
16160 -16020 -15843 0
-16163 15747 0
-16163 15843 0
-16163 16023 0
16163 -15747 -15843 -16023 0
-16166 16026 0
-16166 15831 0
16166 -16026 -15831 0
-16286 15691 0
-16286 16029 0
-16286 15843 0
16286 -15691 -16029 -15843 0
-16169 16032 0
-16169 15787 0
16169 -16032 -15787 0
-16172 16035 0
-16172 15787 0
16172 -16035 -15787 0
-16176 16038 0
-16176 15789 0
16176 -16038 -15789 0
-16180 16041 0
-16180 15732 0
16180 -16041 -15732 0
-16183 16044 0
-16183 15843 0
16183 -16044 -15843 0
-16231 15732 0
-16231 16047 0
16231 -15732 -16047 0
-16216 15723 0
-16216 16050 0
16216 -15723 -16050 0
-16189 15843 0
-16189 16055 0
16189 -15843 -16055 0
-16192 16058 0
-16192 15789 0
16192 -16058 -15789 0
-16195 16061 0
-16195 16043 0
16195 -16061 -16043 0
-16200 15723 0
-16200 16064 0
16200 -15723 -16064 0
-16203 16069 0
-16203 15732 0
-16203 16040 0
16203 -16069 -15732 -16040 0
-16259 15691 0
-16259 16072 0
16259 -15691 -16072 0
-16206 15843 0
-16206 16075 0
16206 -15843 -16075 0
-16226 15820 0
-16226 16078 0
16226 -15820 -16078 0
-16284 15747 0
-16284 16081 0
16284 -15747 -16081 0
-16209 16084 0
-16209 16040 0
16209 -16084 -16040 0
-16212 15843 0
-16212 16087 0
16212 -15843 -16087 0
-16215 16091 0
-16215 15843 0
16215 -16091 -15843 0
-16238 16097 0
-16238 15880 0
16238 -16097 -15880 0
-15529 16100 0
-15529 15723 0
-15529 15947 0
15529 -16100 -15723 -15947 0
-16218 15732 0
-16218 15535 0
16218 -15732 -15535 0
-16263 15691 0
-16263 16110 0
16263 -15691 -16110 0
-16243 16113 0
-16243 15732 0
16243 -16113 -15732 0
-15616 16117 0
-15616 15712 0
-15616 15711 0
15616 -16117 -15712 -15711 0
-16247 16120 0
-16247 15947 0
16247 -16120 -15947 0
-15549 16124 0
-15549 15723 0
-15549 15732 0
15549 -16124 -15723 -15732 0
-16303 15691 0
-16303 16127 0
16303 -15691 -16127 0
-16320 16130 0
-16320 16040 0
16320 -16130 -16040 0
-16227 16133 0
-16227 15832 0
16227 -16133 -15832 0
-16249 16136 0
-16249 15789 0
16249 -16136 -15789 0
-16230 16139 0
-16230 16043 0
16230 -16139 -16043 0
-16265 15732 0
-16265 16143 0
16265 -15732 -16143 0
-16233 16146 0
-16233 16040 0
16233 -16146 -16040 0
-16237 15843 0
-16237 16149 0
16237 -15843 -16149 0
-16325 16153 0
-16325 15789 0
16325 -16153 -15789 0
-16244 15820 0
-16244 16156 0
16244 -15820 -16156 0
-16297 15747 0
-16297 16159 0
16297 -15747 -16159 0
-16271 16162 0
-16271 15787 0
16271 -16162 -15787 0
-16288 16165 0
-16288 15691 0
16288 -16165 -15691 0
-16318 15843 0
-16318 16168 0
16318 -15843 -16168 0
-16246 15843 0
-16246 16171 0
16246 -15843 -16171 0
-16251 15843 0
-16251 16174 0
16251 -15843 -16174 0
-16323 16181 0
-16323 15691 0
16323 -16181 -15691 0
-16260 15723 0
-16260 16184 0
16260 -15723 -16184 0
-16314 15691 0
-16314 16188 0
16314 -15691 -16188 0
-16262 16191 0
-16262 15947 0
16262 -16191 -15947 0
-15613 15723 0
-15613 15947 0
-15613 15616 0
15613 -15723 -15947 -15616 0
-15617 16194 0
-15617 15947 0
15617 -16194 -15947 0
-16272 15723 0
-16272 16201 0
16272 -15723 -16201 0
-16298 15691 0
-16298 16204 0
16298 -15691 -16204 0
-16275 15723 0
-16275 16207 0
16275 -15723 -16207 0
-16277 16217 0
-16277 16179 0
16277 -16217 -16179 0
-16280 15723 0
-16280 16220 0
16280 -15723 -16220 0
-16285 16229 0
-16285 15723 0
16285 -16229 -15723 0
-16289 16232 0
-16289 15723 0
16289 -16232 -15723 0
-16293 15723 0
-16293 16235 0
16293 -15723 -16235 0
-16296 16240 0
-16296 15723 0
16296 -16240 -15723 0
-16302 16248 0
-16302 15723 0
16302 -16248 -15723 0
-16305 16253 0
-16305 15723 0
16305 -16253 -15723 0
-16311 16261 0
-16311 15820 0
16311 -16261 -15820 0
-16315 15723 0
-16315 16264 0
16315 -15723 -16264 0
-16317 16273 0
-16317 15732 0
16317 -16273 -15732 0
-16321 16276 0
-16321 15947 0
16321 -16276 -15947 0
-16324 15723 0
-16324 16319 0
16324 -15723 -16319 0
-16337 15669 0
-16337 15685 0
16337 -15669 -15685 0
-16331 15672 0
-16331 15685 0
16331 -15672 -15685 0
-16335 15675 0
-16335 15685 0
16335 -15675 -15685 0
-16327 15678 0
-16327 15685 0
16327 -15678 -15685 0
-16329 15681 0
-16329 15685 0
16329 -15681 -15685 0
-16333 15684 0
-16333 15685 0
16333 -15684 -15685 0
15686 -15687 0
15686 -15712 0
-15686 15687 15712 0
15689 -15820 0
15689 -15691 0
-15689 15820 15691 0
15692 -16043 0
15692 -15789 0
-15692 16043 15789 0
15695 -15789 0
15695 -15787 0
-15695 15789 15787 0
15698 -15750 0
15698 -16222 0
-15698 15750 16222 0
15701 -16043 0
15701 -16222 0
-15701 16043 16222 0
15704 -15747 0
15704 -16222 0
-15704 15747 16222 0
15707 -15708 0
15707 -15711 0
-15707 15708 15711 0
15710 -15711 0
15710 -15712 0
-15710 15711 15712 0
15713 -15714 0
15713 -15721 0
-15713 15714 15721 0
15716 -15721 0
15716 -15789 0
-15716 15721 15789 0
15771 -15720 0
15771 -15721 0
-15771 15720 15721 0
15722 -15723 0
15722 -15789 0
-15722 15723 15789 0
15725 -15732 0
15725 -15789 0
-15725 15732 15789 0
15728 -15732 0
15728 -15787 0
-15728 15732 15787 0
15731 -15732 0
15731 -16040 0
-15731 15732 16040 0
15734 -16040 0
15734 -15820 0
-15734 16040 15820 0
15737 -15750 0
15737 -15832 0
-15737 15750 15832 0
15740 -15832 0
15740 -16043 0
-15740 15832 16043 0
15786 -15832 0
15786 -16222 0
-15786 15832 16222 0
15746 -15747 0
15746 -15832 0
-15746 15747 15832 0
15749 -15750 0
15749 -15880 0
-15749 15750 15880 0
15752 -15832 0
15752 -15880 0
-15752 15832 15880 0
15801 -15880 0
15801 -16222 0
-15801 15880 16222 0
15758 -15880 0
15758 -15947 0
-15758 15880 15947 0
15761 -15832 0
15761 -15947 0
-15761 15832 15947 0
15764 -16043 0
15764 -15947 0
-15764 16043 15947 0
15767 -16043 0
15767 -15769 0
-15767 16043 15769 0
15770 -15771 0
15770 -15772 0
-15770 15771 15772 0
15773 -15774 0
15773 -15787 0
-15773 15774 15787 0
15776 -15777 0
15776 -15778 0
-15776 15777 15778 0
15779 -15780 0
15779 -16222 0
-15779 15780 16222 0
15782 -15783 0
15782 -15784 0
-15782 15783 15784 0
15785 -15786 0
15785 -15787 0
-15785 15786 15787 0
15788 -15789 0
15788 -15790 0
-15788 15789 15790 0
15791 -15792 0
15791 -15793 0
-15791 15792 15793 0
15858 -15795 0
15858 -15796 0
-15858 15795 15796 0
15797 -15801 0
15797 -15799 0
-15797 15801 15799 0
15800 -15801 0
15800 -15802 0
-15800 15801 15802 0
15803 -16043 0
15803 -15805 0
-15803 16043 15805 0
15806 -15950 0
15806 -16040 0
-15806 15950 16040 0
15809 -15810 0
15809 -15811 0
-15809 15810 15811 0
15812 -15813 0
15812 -15814 0
-15812 15813 15814 0
15815 -15816 0
15815 -15817 0
-15815 15816 15817 0
15818 -16179 0
15818 -15820 0
-15818 16179 15820 0
15821 -16222 0
15821 -15823 0
-15821 16222 15823 0
15824 -15825 0
15824 -15826 0
-15824 15825 15826 0
15827 -15828 0
15827 -15829 0
-15827 15828 15829 0
15830 -15831 0
15830 -15832 0
-15830 15831 15832 0
15833 -15834 0
15833 -15835 0
-15833 15834 15835 0
15836 -15837 0
15836 -15838 0
-15836 15837 15838 0
15839 -15840 0
15839 -15880 0
-15839 15840 15880 0
15842 -15843 0
15842 -15844 0
-15842 15843 15844 0
15845 -15846 0
15845 -15847 0
-15845 15846 15847 0
15848 -15849 0
15848 -15850 0
-15848 15849 15850 0
15851 -15852 0
15851 -15853 0
-15851 15852 15853 0
15854 -15855 0
15854 -15856 0
-15854 15855 15856 0
15857 -15858 0
15857 -16043 0
-15857 15858 16043 0
15860 -15861 0
15860 -15862 0
-15860 15861 15862 0
15863 -15870 0
15863 -15865 0
-15863 15870 15865 0
15866 -15870 0
15866 -15868 0
-15866 15870 15868 0
15869 -15870 0
15869 -15871 0
-15869 15870 15871 0
15872 -15873 0
15872 -15874 0
-15872 15873 15874 0
15875 -15876 0
15875 -15877 0
-15875 15876 15877 0
15878 -15885 0
15878 -15880 0
-15878 15885 15880 0
15881 -15885 0
15881 -15883 0
-15881 15885 15883 0
15884 -15885 0
15884 -15886 0
-15884 15885 15886 0
15887 -15888 0
15887 -15889 0
-15887 15888 15889 0
15890 -15891 0
15890 -15892 0
-15890 15891 15892 0
15893 -15894 0
15893 -15895 0
-15893 15894 15895 0
15896 -15897 0
15896 -15898 0
-15896 15897 15898 0
15899 -15900 0
15899 -15901 0
-15899 15900 15901 0
15902 -15903 0
15902 -15904 0
-15902 15903 15904 0
15905 -15906 0
15905 -15907 0
-15905 15906 15907 0
15908 -15909 0
15908 -15910 0
-15908 15909 15910 0
15911 -15912 0
15911 -15913 0
-15911 15912 15913 0
15914 -15915 0
15914 -15916 0
-15914 15915 15916 0
15917 -15918 0
15917 -15919 0
-15917 15918 15919 0
15920 -15921 0
15920 -15922 0
-15920 15921 15922 0
15923 -15924 0
15923 -15925 0
-15923 15924 15925 0
15926 -15927 0
15926 -15928 0
-15926 15927 15928 0
15929 -15930 0
15929 -15931 0
-15929 15930 15931 0
15932 -15933 0
15932 -15934 0
-15932 15933 15934 0
15935 -15936 0
15935 -15937 0
-15935 15936 15937 0
15938 -16131 0
15938 -16043 0
15938 -15941 0
-15938 16131 16043 15941 0
15942 -15943 0
15942 -15944 0
-15942 15943 15944 0
15945 -15946 0
15945 -15947 0
-15945 15946 15947 0
15948 -15949 0
15948 -15950 0
-15948 15949 15950 0
15951 -15952 0
15951 -15953 0
-15951 15952 15953 0
15954 -15955 0
15954 -15956 0
-15954 15955 15956 0
15957 -15958 0
15957 -15959 0
-15957 15958 15959 0
15960 -15961 0
15960 -15962 0
-15960 15961 15962 0
15963 -15964 0
15963 -15965 0
-15963 15964 15965 0
15966 -15967 0
15966 -15968 0
-15966 15967 15968 0
15969 -15970 0
15969 -15971 0
-15969 15970 15971 0
15972 -15973 0
15972 -15974 0
-15972 15973 15974 0
15975 -15976 0
15975 -15977 0
-15975 15976 15977 0
15978 -15979 0
15978 -15980 0
-15978 15979 15980 0
15981 -15982 0
15981 -15983 0
-15981 15982 15983 0
15984 -15985 0
15984 -15986 0
-15984 15985 15986 0
15987 -15988 0
15987 -15989 0
-15987 15988 15989 0
15990 -15991 0
15990 -15992 0
-15990 15991 15992 0
15993 -15994 0
15993 -15995 0
-15993 15994 15995 0
15996 -15997 0
15996 -15998 0
-15996 15997 15998 0
15999 -16131 0
15999 -16001 0
-15999 16131 16001 0
16002 -16003 0
16002 -16004 0
-16002 16003 16004 0
16005 -16006 0
16005 -16007 0
-16005 16006 16007 0
16008 -16009 0
16008 -16043 0
-16008 16009 16043 0
16011 -16012 0
16011 -16013 0
-16011 16012 16013 0
16014 -16015 0
16014 -16016 0
-16014 16015 16016 0
16017 -16018 0
16017 -16019 0
-16017 16018 16019 0
16020 -16021 0
16020 -16022 0
-16020 16021 16022 0
16023 -16024 0
16023 -16025 0
-16023 16024 16025 0
16026 -16027 0
16026 -16028 0
-16026 16027 16028 0
16029 -16030 0
16029 -16031 0
-16029 16030 16031 0
16032 -16033 0
16032 -16034 0
-16032 16033 16034 0
16035 -16036 0
16035 -16037 0
-16035 16036 16037 0
16038 -16039 0
16038 -16040 0
-16038 16039 16040 0
16041 -16042 0
16041 -16043 0
-16041 16042 16043 0
16044 -16045 0
16044 -16046 0
-16044 16045 16046 0
16047 -16048 0
16047 -16049 0
-16047 16048 16049 0
16050 -16051 0
16050 -16052 0
16050 -16053 0
16050 -16054 0
-16050 16051 16052 16053 16054 0
16055 -16056 0
16055 -16057 0
-16055 16056 16057 0
16058 -16059 0
16058 -16060 0
-16058 16059 16060 0
16061 -16062 0
16061 -16063 0
-16061 16062 16063 0
16064 -16065 0
16064 -16066 0
16064 -16222 0
16064 -16068 0
-16064 16065 16066 16222 16068 0
16069 -16070 0
16069 -16071 0
-16069 16070 16071 0
16072 -16073 0
16072 -16074 0
-16072 16073 16074 0
16075 -16076 0
16075 -16077 0
-16075 16076 16077 0
16078 -16079 0
16078 -16080 0
-16078 16079 16080 0
16081 -16082 0
16081 -16083 0
-16081 16082 16083 0
16084 -16085 0
16084 -16086 0
-16084 16085 16086 0
16087 -16088 0
16087 -16089 0
16087 -16090 0
-16087 16088 16089 16090 0
16091 -16092 0
16091 -16093 0
-16091 16092 16093 0
16094 -16095 0
16094 -16096 0
-16094 16095 16096 0
16097 -16098 0
16097 -16099 0
-16097 16098 16099 0
16100 -16101 0
16100 -16102 0
-16100 16101 16102 0
16103 -16104 0
16103 -16105 0
-16103 16104 16105 0
16187 -16107 0
16187 -16108 0
16187 -16109 0
-16187 16107 16108 16109 0
16110 -16111 0
16110 -16112 0
-16110 16111 16112 0
16113 -16114 0
16113 -16115 0
16113 -16116 0
-16113 16114 16115 16116 0
16117 -16118 0
16117 -16119 0
-16117 16118 16119 0
16120 -16121 0
16120 -16122 0
16120 -16123 0
-16120 16121 16122 16123 0
16124 -16125 0
16124 -16126 0
-16124 16125 16126 0
16127 -16128 0
16127 -16129 0
-16127 16128 16129 0
16130 -16131 0
16130 -16132 0
-16130 16131 16132 0
16133 -16134 0
16133 -16135 0
-16133 16134 16135 0
16136 -16137 0
16136 -16138 0
-16136 16137 16138 0
16139 -16140 0
16139 -16141 0
16139 -16142 0
-16139 16140 16141 16142 0
16143 -16144 0
16143 -16145 0
-16143 16144 16145 0
16146 -16147 0
16146 -16148 0
-16146 16147 16148 0
16149 -16150 0
16149 -16151 0
16149 -16152 0
-16149 16150 16151 16152 0
16153 -16154 0
16153 -16155 0
-16153 16154 16155 0
16156 -16157 0
16156 -16158 0
-16156 16157 16158 0
16159 -16160 0
16159 -16161 0
-16159 16160 16161 0
16162 -16163 0
16162 -16164 0
-16162 16163 16164 0
16165 -16166 0
16165 -16167 0
-16165 16166 16167 0
16168 -16169 0
16168 -16170 0
-16168 16169 16170 0
16171 -16172 0
16171 -16173 0
-16171 16172 16173 0
16174 -16175 0
16174 -16176 0
-16174 16175 16176 0
16224 -16178 0
16224 -16179 0
16224 -16180 0
-16224 16178 16179 16180 0
16181 -16182 0
16181 -16183 0
-16181 16182 16183 0
16184 -16185 0
16184 -16186 0
16184 -16187 0
-16184 16185 16186 16187 0
16188 -16189 0
16188 -16190 0
-16188 16189 16190 0
16191 -16192 0
16191 -16193 0
-16191 16192 16193 0
16194 -16195 0
16194 -16196 0
-16194 16195 16196 0
16197 -16198 0
16197 -16199 0
16197 -16200 0
-16197 16198 16199 16200 0
16201 -16202 0
16201 -16203 0
-16201 16202 16203 0
16204 -16205 0
16204 -16206 0
-16204 16205 16206 0
16207 -16208 0
16207 -16209 0
-16207 16208 16209 0
16256 -16211 0
16256 -16212 0
16256 -16213 0
-16256 16211 16212 16213 0
16214 -16215 0
16214 -16216 0
-16214 16215 16216 0
16217 -16218 0
16217 -16219 0
-16217 16218 16219 0
16220 -16221 0
16220 -16222 0
16220 -16223 0
16220 -16224 0
-16220 16221 16222 16223 16224 0
16268 -16226 0
16268 -16227 0
16268 -16228 0
-16268 16226 16227 16228 0
16229 -16230 0
16229 -16231 0
-16229 16230 16231 0
16232 -16233 0
16232 -16234 0
-16232 16233 16234 0
16235 -16236 0
16235 -16237 0
16235 -16238 0
16235 -16239 0
-16235 16236 16237 16238 16239 0
16240 -16241 0
16240 -16242 0
16240 -16243 0
16240 -16244 0
-16240 16241 16242 16243 16244 0
16245 -16246 0
16245 -16247 0
-16245 16246 16247 0
16248 -16249 0
16248 -16250 0
16248 -16251 0
16248 -16252 0
-16248 16249 16250 16251 16252 0
16253 -16254 0
16253 -16255 0
16253 -16256 0
-16253 16254 16255 16256 0
16257 -16258 0
16257 -16259 0
16257 -16260 0
-16257 16258 16259 16260 0
16261 -16262 0
16261 -16263 0
-16261 16262 16263 0
16264 -16265 0
16264 -16266 0
16264 -16267 0
16264 -16268 0
-16264 16265 16266 16267 16268 0
16269 -16270 0
16269 -16271 0
16269 -16272 0
-16269 16270 16271 16272 0
16273 -16274 0
16273 -16275 0
-16273 16274 16275 0
16276 -16277 0
16276 -16278 0
-16276 16277 16278 0
16279 -16280 0
16279 -16281 0
16279 -16282 0
-16279 16280 16281 16282 0
16283 -16284 0
16283 -16285 0
16283 -16286 0
-16283 16284 16285 16286 0
16287 -16288 0
16287 -16289 0
-16287 16288 16289 0
16290 -16291 0
16290 -16292 0
16290 -16293 0
-16290 16291 16292 16293 0
16294 -16295 0
16294 -16296 0
16294 -16297 0
16294 -16298 0
-16294 16295 16296 16297 16298 0
16299 -16300 0
16299 -16301 0
16299 -16302 0
16299 -16303 0
-16299 16300 16301 16302 16303 0
16304 -16305 0
16304 -16306 0
16304 -16307 0
16304 -16308 0
-16304 16305 16306 16307 16308 0
16309 -16310 0
16309 -16311 0
-16309 16310 16311 0
16312 -16313 0
16312 -16314 0
16312 -16315 0
-16312 16313 16314 16315 0
16316 -16317 0
16316 -16318 0
-16316 16317 16318 0
16319 -16320 0
16319 -16321 0
-16319 16320 16321 0
16322 -16323 0
16322 -16324 0
16322 -16325 0
-16322 16323 16324 16325 0
-16327 18236 0
16327 -18236 0
-16329 17801 0
16329 -17801 0
-16331 17803 0
16331 -17803 0
-16333 18057 0
16333 -18057 0
-16335 17857 0
16335 -17857 0
-16337 17705 0
16337 -17705 0
17786 17764 0
-17786 -17764 0
17442 17734 0
-17442 -17734 0
17761 17834 0
-17761 -17834 0
17728 17402 0
-17728 -17402 0
17722 17726 0
-17722 -17726 0
17725 17701 0
-17725 -17701 0
17735 17183 0
-17735 -17183 0
17737 17705 0
-17737 -17705 0
17746 17857 0
-17746 -17857 0
18054 18057 0
-18054 -18057 0
17846 17803 0
-17846 -17803 0
17894 17801 0
-17894 -17801 0
17961 18236 0
-17961 -18236 0
18192 17700 0
-18192 -17700 0
16369 18057 0
-16369 -18057 0
17804 16369 0
-17804 -16369 0
17806 17706 0
-17806 -17706 0
16375 17834 0
-16375 -17834 0
16768 16375 0
-16768 -16375 0
17964 17709 0
-17964 -17709 0
16381 17846 0
-16381 -17846 0
17831 16381 0
-17831 -16381 0
17397 17715 0
-17397 -17715 0
17231 17718 0
-17231 -17718 0
18193 17721 0
-18193 -17721 0
16391 17721 0
-16391 -17721 0
17885 16391 0
-17885 -16391 0
17258 17727 0
-17258 -17727 0
17123 17785 0
-17123 -17785 0
16886 17736 0
-16886 -17736 0
17842 17739 0
-17842 -17739 0
17845 17742 0
-17845 -17742 0
17259 17745 0
-17259 -17745 0
17851 17748 0
-17851 -17748 0
17854 17751 0
-17854 -17751 0
17914 17754 0
-17914 -17754 0
16959 17800 0
-16959 -17800 0
17140 17760 0
-17140 -17760 0
17869 17763 0
-17869 -17763 0
17013 17766 0
-17013 -17766 0
17217 17815 0
-17217 -17815 0
17884 17772 0
-17884 -17772 0
18065 17775 0
-18065 -17775 0
17899 17778 0
-17899 -17778 0
16429 17801 0
-16429 -17801 0
17225 16429 0
-17225 -16429 0
18145 17799 0
-18145 -17799 0
16435 16640 0
-16435 -16640 0
17274 16435 0
-17274 -16435 0
16439 16877 0
-16439 -16877 0
17328 16439 0
-17328 -16439 0
18056 17853 0
-18056 -17853 0
16442 17133 0
-16442 -17133 0
16444 17342 0
-16444 -17342 0
17549 18055 0
-17549 -18055 0
16448 17422 0
-16448 -17422 0
16450 18108 0
-16450 -18108 0
16452 18117 0
-16452 -18117 0
16454 17543 0
-16454 -17543 0
16456 18211 0
-16456 -18211 0
16458 17563 0
-16458 -17563 0
16460 18228 0
-16460 -18228 0
16462 17627 0
-16462 -17627 0
16464 17631 0
-16464 -17631 0
16466 18259 0
-16466 -18259 0
16468 18271 0
-16468 -18271 0
16470 18283 0
-16470 -18283 0
16472 18293 0
-16472 -18293 0
16491 18297 0
-16491 -18297 0
16476 18301 0
-16476 -18301 0
16493 18304 0
-16493 -18304 0
16495 18308 0
-16495 -18308 0
16499 18313 0
-16499 -18313 0
16501 18318 0
-16501 -18318 0
16486 18323 0
-16486 -18323 0
16503 18326 0
-16503 -18326 0
17683 16491 0
-17683 -16491 0
17686 16493 0
-17686 -16493 0
17689 16495 0
-17689 -16495 0
16496 18330 0
-16496 -18330 0
17692 16499 0
-17692 -16499 0
17695 16501 0
-17695 -16501 0
17698 16503 0
-17698 -16503 0
16504 18336 0
-16504 -18336 0
-17797 18057 0
-17797 17803 0
17797 -18057 -17803 0
-17807 18057 0
-17807 17803 0
17807 -18057 -17803 0
-17848 17857 0
-17848 18057 0
-17848 17803 0
17848 -17857 -18057 -17803 0
-17824 17857 0
-17824 17801 0
17824 -17857 -17801 0
-17809 17764 0
-17809 17801 0
17809 -17764 -17801 0
-17909 17764 0
-17909 17801 0
17909 -17764 -17801 0
-17839 17834 0
-17839 17801 0
17839 -17834 -17801 0
-18073 18057 0
-18073 17801 0
18073 -18057 -17801 0
-17783 17734 0
-17783 18236 0
17783 -17734 -18236 0
-17788 17728 0
-17788 17735 0
17788 -17728 -17735 0
-17137 17402 0
-17137 17737 0
-17137 17803 0
17137 -17402 -17737 -17803 0
-17792 17764 0
-17792 17746 0
-17792 17801 0
17792 -17764 -17746 -17801 0
-17827 17735 0
-17827 17737 0
-17827 17746 0
-17827 18236 0
17827 -17735 -17737 -17746 -18236 0
-17852 17746 0
-17852 17801 0
17852 -17746 -17801 0
-17927 17746 0
-17927 18057 0
-17927 18236 0
17927 -17746 -18057 -18236 0
-17843 17746 0
-17843 18057 0
-17843 17803 0
17843 -17746 -18057 -17803 0
-16780 17734 0
-16780 17183 0
-16780 17737 0
-16780 17746 0
16780 -17734 -17183 -17737 -17746 0
-17791 17761 0
-17791 17857 0
-17791 18054 0
17791 -17761 -17857 -18054 0
-17794 18054 0
-17794 17801 0
17794 -18054 -17801 0
-17813 17728 0
-17813 18054 0
17813 -17728 -18054 0
-17936 17737 0
-17936 17746 0
-17936 18054 0
17936 -17737 -17746 -18054 0
-17141 17705 0
-17141 17857 0
-17141 18054 0
17141 -17705 -17857 -18054 0
-17798 17746 0
-17798 17846 0
17798 -17746 -17846 0
-17912 17734 0
-17912 17846 0
-17912 18236 0
17912 -17734 -17846 -18236 0
-17945 17746 0
-17945 17846 0
-17945 17801 0
17945 -17746 -17846 -17801 0
-17933 17846 0
-17933 18236 0
17933 -17846 -18236 0
-17967 17442 0
-17967 18057 0
-17967 17846 0
17967 -17442 -18057 -17846 0
-17816 17746 0
-17816 17846 0
17816 -17746 -17846 0
-18207 17857 0
-18207 17801 0
-18207 17706 0
18207 -17857 -17801 -17706 0
-17810 17803 0
-17810 17894 0
17810 -17803 -17894 0
-17819 17183 0
-17819 17894 0
17819 -17183 -17894 0
-16876 17737 0
-16876 18057 0
-16876 17894 0
16876 -17737 -18057 -17894 0
-17870 18054 0
-17870 17894 0
17870 -18054 -17894 0
-17906 17746 0
-17906 17894 0
17906 -17746 -17894 0
-18000 17803 0
-18000 17894 0
18000 -17803 -17894 0
-17900 18057 0
-17900 17894 0
17900 -18057 -17894 0
-17918 17803 0
-17918 17894 0
17918 -17803 -17894 0
-17866 17803 0
-17866 17894 0
17866 -17803 -17894 0
-18235 17803 0
-18235 17894 0
18235 -17803 -17894 0
-16640 17857 0
-16640 17709 0
16640 -17857 -17709 0
-17921 17709 0
-17921 18236 0
17921 -17709 -18236 0
-17825 17737 0
-17825 17961 0
17825 -17737 -17961 0
-17828 17857 0
-17828 17961 0
17828 -17857 -17961 0
-17997 17737 0
-17997 18057 0
-17997 17846 0
-17997 17961 0
17997 -17737 -18057 -17846 -17961 0
-18003 17746 0
-18003 18057 0
-18003 17894 0
-18003 17961 0
18003 -17746 -18057 -17894 -17961 0
-17879 17746 0
-17879 17894 0
-17879 17961 0
17879 -17746 -17894 -17961 0
-18033 17746 0
-18033 18057 0
-18033 17846 0
-18033 17961 0
18033 -17746 -18057 -17846 -17961 0
-17882 17725 0
-17882 17894 0
-17882 17961 0
17882 -17725 -17894 -17961 0
-18009 17746 0
-18009 17894 0
-18009 17961 0
18009 -17746 -17894 -17961 0
-17897 17402 0
-17897 17846 0
-17897 17961 0
17897 -17402 -17846 -17961 0
-17891 17846 0
-17891 17961 0
17891 -17846 -17961 0
-18042 17706 0
-18042 17961 0
18042 -17706 -17961 0
-17903 17746 0
-17903 18057 0
-17903 17894 0
-17903 17961 0
17903 -17746 -18057 -17894 -17961 0
-17888 17894 0
-17888 17961 0
17888 -17894 -17961 0
-18051 17703 0
-18051 17961 0
-18051 17706 0
18051 -17703 -17961 -17706 0
-18018 17735 0
-18018 17894 0
-18018 17961 0
18018 -17735 -17894 -17961 0
-18071 17961 0
-18071 17709 0
18071 -17961 -17709 0
-18184 17705 0
-18184 17961 0
18184 -17705 -17961 0
-17955 17712 0
-17955 17801 0
17955 -17712 -17801 0
-17830 17718 0
-17830 17894 0
17830 -17718 -17894 0
-17837 17846 0
-17837 17724 0
17837 -17846 -17724 0
-17840 17727 0
-17840 17894 0
17840 -17727 -17894 0
-17861 17730 0
-17861 17894 0
-17861 17961 0
17861 -17730 -17894 -17961 0
-18039 17736 0
-18039 17725 0
-18039 18057 0
-18039 17961 0
18039 -17736 -17725 -18057 -17961 0
-17849 17745 0
-17849 17846 0
17849 -17745 -17846 0
-17864 17801 0
-17864 17748 0
17864 -17801 -17748 0
-17858 17754 0
-17858 17801 0
17858 -17754 -17801 0
-17958 17857 0
-17958 17800 0
17958 -17857 -17800 0
-17860 17801 0
-17860 17800 0
17860 -17801 -17800 0
-17863 17760 0
-17863 17894 0
17863 -17760 -17894 0
-17867 17801 0
-17867 17760 0
17867 -17801 -17760 0
-17951 17735 0
-17951 17746 0
-17951 18236 0
-17951 17806 0
17951 -17735 -17746 -18236 -17806 0
-18256 17857 0
-18256 17961 0
-18256 17806 0
18256 -17857 -17961 -17806 0
-17876 18057 0
-17876 18236 0
-17876 17766 0
17876 -18057 -18236 -17766 0
-18237 17857 0
-18237 16768 0
18237 -17857 -16768 0
-18123 18057 0
-18123 17815 0
18123 -18057 -17815 0
-17982 17183 0
-17982 18236 0
-17982 17964 0
17982 -17183 -18236 -17964 0
-17973 18057 0
-17973 17961 0
-17973 17964 0
-17973 16780 0
17973 -18057 -17961 -17964 -16780 0
-17976 17746 0
-17976 18054 0
-17976 17964 0
17976 -17746 -18054 -17964 0
-18045 18057 0
-18045 17964 0
18045 -18057 -17964 0
-17875 17402 0
-17875 17961 0
-17875 17964 0
17875 -17402 -17961 -17964 0
-18158 17735 0
-18158 18057 0
-18158 17961 0
-18158 17964 0
18158 -17735 -18057 -17961 -17964 0
-18106 18057 0
-18106 18236 0
-18106 17964 0
18106 -18057 -18236 -17964 0
-17101 17737 0
-17101 17746 0
-17101 17964 0
17101 -17737 -17746 -17964 0
-17887 17772 0
-17887 18054 0
17887 -17772 -18054 0
-18060 17806 0
-18060 17772 0
18060 -17806 -17772 0
-17890 17775 0
-17890 18054 0
17890 -17775 -18054 0
-17948 17778 0
-17948 17846 0
17948 -17778 -17846 0
-17923 17746 0
-17923 17803 0
-17923 17397 0
17923 -17746 -17803 -17397 0
-18151 17894 0
-18151 17397 0
18151 -17894 -17397 0
-18314 17857 0
-18314 17803 0
-18314 17397 0
18314 -17857 -17803 -17397 0
-17902 17781 0
-17902 17857 0
-17902 17801 0
17902 -17781 -17857 -17801 0
-18048 17231 0
-18048 17706 0
18048 -17231 -17706 0
-17905 17857 0
-17905 17801 0
-17905 18193 0
17905 -17857 -17801 -18193 0
-17930 17746 0
-17930 18054 0
-17930 17894 0
-17930 18193 0
17930 -17746 -18054 -17894 -18193 0
-17908 17846 0
-17908 18193 0
17908 -17846 -18193 0
-17911 17857 0
-17911 17961 0
-17911 18193 0
17911 -17857 -17961 -18193 0
-17915 18057 0
-17915 18193 0
17915 -18057 -18193 0
-18005 17397 0
-18005 18193 0
18005 -17397 -18193 0
-18115 17746 0
-18115 18054 0
-18115 17964 0
-18115 18193 0
18115 -17746 -18054 -17964 -18193 0
-18148 17894 0
-18148 17397 0
-18148 18193 0
18148 -17894 -17397 -18193 0
-18112 17961 0
-18112 17806 0
-18112 18193 0
18112 -17961 -17806 -18193 0
-18079 17742 0
-18079 18193 0
18079 -17742 -18193 0
-17993 17961 0
-17993 17258 0
-17993 16876 0
17993 -17961 -17258 -16876 0
-16877 17402 0
-16877 18236 0
-16877 17784 0
16877 -17402 -18236 -17784 0
-17917 17787 0
-17917 17846 0
17917 -17787 -17846 0
-17920 17961 0
-17920 16886 0
17920 -17961 -16886 0
-17924 18057 0
-17924 17801 0
-17924 17842 0
17924 -18057 -17801 -17842 0
-17970 17761 0
-17970 17705 0
-17970 17842 0
17970 -17761 -17705 -17842 0
-17926 17761 0
-17926 17961 0
-17926 17845 0
17926 -17761 -17961 -17845 0
-17984 18236 0
-17984 17845 0
17984 -18236 -17845 0
-18026 17961 0
-18026 17845 0
18026 -17961 -17845 0
-17987 17715 0
-17987 17845 0
17987 -17715 -17845 0
-17929 17834 0
-17929 17259 0
17929 -17834 -17259 0
-17932 17961 0
-17932 17259 0
17932 -17961 -17259 0
-17935 17801 0
-17935 17259 0
17935 -17801 -17259 0
-17939 17857 0
-17939 17851 0
17939 -17857 -17851 0
-17942 17857 0
-17942 17801 0
-17942 17851 0
17942 -17857 -17801 -17851 0
-18132 17857 0
-18132 17801 0
-18132 17851 0
18132 -17857 -17801 -17851 0
-18233 17857 0
-18233 17801 0
-18233 17851 0
18233 -17857 -17801 -17851 0
-18210 17737 0
-18210 17803 0
-18210 17790 0
18210 -17737 -17803 -17790 0
-18199 17846 0
-18199 17793 0
18199 -17846 -17793 0
-17938 17746 0
-17938 18054 0
-17938 17854 0
17938 -17746 -18054 -17854 0
-17941 17746 0
-17941 18054 0
-17941 17854 0
17941 -17746 -18054 -17854 0
-17944 17845 0
-17944 17914 0
17944 -17845 -17914 0
-17947 18236 0
-17947 17914 0
17947 -18236 -17914 0
-17950 17183 0
-17950 16959 0
-17950 17259 0
17950 -17183 -16959 -17259 0
-18011 17763 0
-18011 16959 0
18011 -17763 -16959 0
-18129 17799 0
-18129 18057 0
18129 -17799 -18057 0
-17957 17961 0
-17957 17140 0
17957 -17961 -17140 0
-17978 17894 0
-17978 17140 0
17978 -17894 -17140 0
-18161 17894 0
-18161 17961 0
-18161 17140 0
18161 -17894 -17961 -17140 0
-18292 17802 0
-18292 17834 0
-18292 17857 0
-18292 17801 0
18292 -17802 -17834 -17857 -17801 0
-18137 17805 0
-18137 17746 0
-18137 17801 0
18137 -17805 -17746 -17801 0
-17960 18054 0
-17960 17013 0
17960 -18054 -17013 0
-17963 17786 0
-17963 17013 0
17963 -17786 -17013 0
-18029 18057 0
-18029 17013 0
18029 -18057 -17013 0
-17966 18054 0
-17966 17013 0
17966 -18054 -17013 0
-17969 17725 0
-17969 17737 0
-17969 17746 0
-17969 17013 0
17969 -17725 -17737 -17746 -17013 0
-17972 17857 0
-17972 18054 0
-17972 17013 0
17972 -17857 -18054 -17013 0
-17975 17764 0
-17975 17785 0
-17975 17857 0
-17975 17013 0
17975 -17764 -17785 -17857 -17013 0
-17990 18054 0
-17990 17013 0
17990 -18054 -17013 0
-18076 17746 0
-18076 17013 0
18076 -17746 -17013 0
-17979 17872 0
-17979 17746 0
17979 -17872 -17746 0
-17981 17764 0
-17981 17803 0
-17981 17217 0
17981 -17764 -17803 -17217 0
-17985 17746 0
-17985 18057 0
-17985 17217 0
17985 -17746 -18057 -17217 0
-18036 17803 0
-18036 17217 0
18036 -17803 -17217 0
-17988 17746 0
-17988 17217 0
17988 -17746 -17217 0
-18125 17846 0
-18125 17217 0
18125 -17846 -17217 0
-18090 17803 0
-18090 17217 0
18090 -17803 -17217 0
-18181 17739 0
-18181 18057 0
-18181 17217 0
18181 -17739 -18057 -17217 0
-18142 18057 0
-18142 17803 0
-18142 17217 0
18142 -18057 -17803 -17217 0
-18087 17746 0
-18087 17846 0
-18087 17217 0
18087 -17746 -17846 -17217 0
-18168 17734 0
-18168 18057 0
-18168 17217 0
18168 -17734 -18057 -17217 0
-18062 18054 0
-18062 17217 0
-18062 18193 0
-18062 17854 0
18062 -18054 -17217 -18193 -17854 0
-18196 17746 0
-18196 17846 0
-18196 17217 0
18196 -17746 -17846 -17217 0
-18222 18057 0
-18222 17803 0
-18222 17217 0
18222 -18057 -17803 -17217 0
-18204 17217 0
-18204 17754 0
18204 -17217 -17754 0
-18189 18057 0
-18189 17846 0
-18189 17217 0
18189 -18057 -17846 -17217 0
-18212 17746 0
-18212 17846 0
-18212 17217 0
18212 -17746 -17846 -17217 0
-18219 17796 0
-18219 17217 0
18219 -17796 -17217 0
-18288 17806 0
-18288 17217 0
18288 -17806 -17217 0
-18102 17811 0
-18102 17846 0
18102 -17811 -17846 0
-18068 18057 0
-18068 17814 0
18068 -18057 -17814 0
-17991 17817 0
-17991 17846 0
17991 -17817 -17846 0
-18213 17820 0
-18213 17857 0
18213 -17820 -17857 0
-18295 17857 0
-18295 17820 0
18295 -17857 -17820 0
-18324 17397 0
-18324 18193 0
-18324 17101 0
18324 -17397 -18193 -17101 0
-17994 17834 0
-17994 17705 0
-17994 18054 0
-17994 17884 0
17994 -17834 -17705 -18054 -17884 0
-17996 17705 0
-17996 17857 0
-17996 17884 0
-17996 17914 0
17996 -17705 -17857 -17884 -17914 0
-17999 17846 0
-17999 17884 0
17999 -17846 -17884 0
-18002 17761 0
-18002 17857 0
-18002 17884 0
18002 -17761 -17857 -17884 0
-18006 17402 0
-18006 17857 0
-18006 17884 0
-18006 17123 0
18006 -17402 -17857 -17884 -17123 0
-18008 17183 0
-18008 17884 0
18008 -17183 -17884 0
-18012 17846 0
-18012 17884 0
18012 -17846 -17884 0
-18020 17857 0
-18020 17884 0
18020 -17857 -17884 0
-17133 17884 0
-17133 17259 0
-17133 17785 0
-17133 17137 0
17133 -17884 -17259 -17785 -17137 0
-18118 17884 0
-18118 17140 0
-18118 17141 0
18118 -17884 -17140 -17141 0
-18015 17846 0
-18015 17884 0
18015 -17846 -17884 0
-18139 18057 0
-18139 17803 0
-18139 17884 0
18139 -18057 -17803 -17884 0
-18171 17442 0
-18171 17846 0
-18171 17884 0
18171 -17442 -17846 -17884 0
-18017 17784 0
-18017 17402 0
-18017 17884 0
18017 -17784 -17402 -17884 0
-18255 18057 0
-18255 17884 0
18255 -18057 -17884 0
-18021 17442 0
-18021 17823 0
18021 -17442 -17823 0
-18023 17728 0
-18023 18065 0
18023 -17728 -18065 0
-18099 17894 0
-18099 18065 0
18099 -17894 -18065 0
-18084 17894 0
-18084 18065 0
18084 -17894 -18065 0
-18281 18057 0
-18281 17894 0
-18281 18065 0
18281 -18057 -17894 -18065 0
-18227 17894 0
-18227 18065 0
18227 -17894 -18065 0
-18027 17728 0
-18027 17826 0
18027 -17728 -17826 0
-18030 17183 0
-18030 17964 0
-18030 17899 0
18030 -17183 -17964 -17899 0
-18032 17894 0
-18032 17899 0
18032 -17894 -17899 0
-18035 17705 0
-18035 17899 0
18035 -17705 -17899 0
-18038 17705 0
-18038 17803 0
-18038 17899 0
18038 -17705 -17803 -17899 0
-18041 17846 0
-18041 17899 0
18041 -17846 -17899 0
-18044 17766 0
-18044 17899 0
18044 -17766 -17899 0
-18047 17803 0
-18047 17899 0
18047 -17803 -17899 0
-18050 17803 0
-18050 17899 0
18050 -17803 -17899 0
-18096 17705 0
-18096 17857 0
-18096 17899 0
18096 -17705 -17857 -17899 0
-18165 17829 0
-18165 18054 0
18165 -17829 -18054 0
-18053 17832 0
-18053 17217 0
18053 -17832 -17217 0
-18066 17835 0
-18066 17894 0
18066 -17835 -17894 0
-18082 17857 0
-18082 17838 0
18082 -17857 -17838 0
-18306 17225 0
-18306 17705 0
-18306 18057 0
-18306 17961 0
18306 -17225 -17705 -18057 -17961 0
-18250 17841 0
-18250 17231 0
18250 -17841 -17231 0
-18156 17844 0
-18156 18236 0
18156 -17844 -18236 0
-18178 17705 0
-18178 17961 0
-18178 17847 0
18178 -17705 -17961 -17847 0
-18200 17850 0
-18200 17724 0
18200 -17850 -17724 0
-18296 17705 0
-18296 17961 0
-18296 17856 0
18296 -17705 -17961 -17856 0
-18059 18057 0
-18059 18145 0
18059 -18057 -18145 0
-18109 17705 0
-18109 18145 0
-18109 17259 0
18109 -17705 -18145 -17259 0
-18093 18054 0
-18093 18145 0
18093 -18054 -18145 0
-18216 18145 0
-18216 17258 0
-18216 17259 0
18216 -18145 -17258 -17259 0
-18063 17859 0
-18063 18057 0
18063 -17859 -18057 0
-18067 17857 0
-18067 17862 0
18067 -17857 -17862 0
-18070 18054 0
-18070 17865 0
18070 -18054 -17865 0
-18074 17737 0
-18074 17868 0
18074 -17737 -17868 0
-18077 17705 0
-18077 17274 0
18077 -17705 -17274 0
-18080 17871 0
-18080 17746 0
18080 -17871 -17746 0
-18242 17857 0
-18242 17874 0
18242 -17857 -17874 0
-18155 17728 0
-18155 17877 0
18155 -17728 -17877 0
-18085 17880 0
-18085 17846 0
18085 -17880 -17846 0
-18166 17883 0
-18166 17846 0
18166 -17883 -17846 0
-18088 17886 0
-18088 17857 0
-18088 17803 0
18088 -17886 -17857 -17803 0
-18187 17889 0
-18187 17705 0
-18187 17894 0
18187 -17889 -17705 -17894 0
-18091 17892 0
-18091 17846 0
18091 -17892 -17846 0
-18309 17895 0
-18309 17845 0
18309 -17895 -17845 0
-18272 17898 0
-18272 17842 0
18272 -17898 -17842 0
-18094 17901 0
-18094 17846 0
18094 -17901 -17846 0
-18097 17904 0
-18097 17737 0
-18097 18057 0
-18097 17961 0
18097 -17904 -17737 -18057 -17961 0
-18100 17907 0
-18100 17961 0
18100 -17907 -17961 0
-18175 17737 0
-18175 17801 0
-18175 17910 0
18175 -17737 -17801 -17910 0
-18103 17761 0
-18103 17961 0
-18103 17913 0
18103 -17761 -17961 -17913 0
-18104 18057 0
-18104 17328 0
18104 -18057 -17328 0
-18130 17916 0
-18130 18236 0
18130 -17916 -18236 0
-18107 17919 0
-18107 18054 0
18107 -17919 -18054 0
-18280 17922 0
-18280 17721 0
18280 -17922 -17721 0
-18110 17925 0
-18110 17737 0
-18110 17846 0
18110 -17925 -17737 -17846 0
-17342 17928 0
-17342 17737 0
-17342 17846 0
-17342 17961 0
17342 -17928 -17737 -17846 -17961 0
-18113 17728 0
-18113 17931 0
18113 -17728 -17931 0
-18135 17934 0
-18135 18193 0
18135 -17934 -18193 0
-18116 17937 0
-18116 17700 0
-18116 17801 0
18116 -17937 -17700 -17801 0
-18248 17724 0
-18248 17940 0
-18248 17961 0
18248 -17724 -17940 -17961 0
-18322 17705 0
-18322 17961 0
-18322 17943 0
18322 -17705 -17961 -17943 0
-18305 17946 0
-18305 17845 0
18305 -17946 -17845 0
-18119 17949 0
-18119 17402 0
-18119 17737 0
-18119 17894 0
18119 -17949 -17402 -17737 -17894 0
-18122 17746 0
-18122 17952 0
18122 -17746 -17952 0
-18121 17956 0
-18121 17894 0
18121 -17956 -17894 0
-18126 17959 0
-18126 17857 0
18126 -17959 -17857 0
-18128 17961 0
-18128 17962 0
-18128 18193 0
18128 -17961 -17962 -18193 0
-18133 17746 0
-18133 18054 0
-18133 17962 0
18133 -17746 -18054 -17962 0
-18269 17746 0
-18269 17961 0
-18269 17965 0
18269 -17746 -17961 -17965 0
-18284 17786 0
-18284 17968 0
-18284 17397 0
18284 -17786 -17968 -17397 0
-18315 17761 0
-18315 17971 0
18315 -17761 -17971 0
-18264 17402 0
-18264 17974 0
-18264 18236 0
18264 -17402 -17974 -18236 0
-18136 17737 0
-18136 17977 0
-18136 18054 0
18136 -17737 -17977 -18054 0
-18140 17980 0
-18140 18054 0
18140 -17980 -18054 0
-18320 17983 0
-18320 17846 0
18320 -17983 -17846 0
-18143 17986 0
-18143 17846 0
18143 -17986 -17846 0
-18253 17746 0
-18253 18236 0
-18253 17989 0
18253 -17746 -18236 -17989 0
-17422 17992 0
-17422 17857 0
-17422 17803 0
17422 -17992 -17857 -17803 0
-18321 17834 0
-18321 17995 0
18321 -17834 -17995 0
-18146 17998 0
-18146 17746 0
18146 -17998 -17746 0
-18268 18057 0
-18268 17998 0
18268 -18057 -17998 0
-18149 17442 0
-18149 18001 0
18149 -17442 -18001 0
-18152 17786 0
-18152 18004 0
18152 -17786 -18004 0
-18154 17442 0
-18154 18007 0
18154 -17442 -18007 0
-18159 18010 0
-18159 18054 0
18159 -18010 -18054 0
-18162 18013 0
-18162 17746 0
18162 -18013 -17746 0
-18164 18016 0
-18164 18057 0
18164 -18016 -18057 0
-18169 18019 0
-18169 18054 0
18169 -18019 -18054 0
-18172 18022 0
-18172 17746 0
18172 -18022 -17746 0
-18327 18025 0
-18327 17806 0
18327 -18025 -17806 0
-18266 17746 0
-18266 18028 0
18266 -17746 -18028 0
-18225 17735 0
-18225 18031 0
18225 -17735 -18031 0
-18174 18034 0
-18174 17857 0
18174 -18034 -17857 0
-18177 17761 0
-18177 17857 0
-18177 18037 0
18177 -17761 -17857 -18037 0
-18180 18040 0
-18180 17845 0
18180 -18040 -17845 0
-18300 17705 0
-18300 18043 0
-18300 17857 0
18300 -17705 -18043 -17857 0
-18183 18046 0
-18183 17801 0
18183 -18046 -17801 0
-18186 18049 0
-18186 17801 0
18186 -18049 -17801 0
-18190 18052 0
-18190 17803 0
18190 -18052 -17803 0
-18194 18055 0
-18194 17746 0
18194 -18055 -17746 0
-18197 18058 0
-18197 17857 0
18197 -18058 -17857 0
-18245 17746 0
-18245 18061 0
18245 -17746 -18061 0
-18230 17737 0
-18230 18064 0
18230 -17737 -18064 0
-18203 17857 0
-18203 18069 0
18203 -17857 -18069 0
-18206 18072 0
-18206 17803 0
18206 -18072 -17803 0
-18209 18075 0
-18209 18057 0
18209 -18075 -18057 0
-18214 17737 0
-18214 18078 0
18214 -17737 -18078 0
-18217 18083 0
-18217 17746 0
-18217 18054 0
18217 -18083 -17746 -18054 0
-18273 17705 0
-18273 18086 0
18273 -17705 -18086 0
-18220 17857 0
-18220 18089 0
18220 -17857 -18089 0
-18240 17834 0
-18240 18092 0
18240 -17834 -18092 0
-18298 17761 0
-18298 18095 0
18298 -17761 -18095 0
-18223 18098 0
-18223 18054 0
18223 -18098 -18054 0
-18226 17857 0
-18226 18101 0
18226 -17857 -18101 0
-18229 18105 0
-18229 17857 0
18229 -18105 -17857 0
-18252 18111 0
-18252 17894 0
18252 -18111 -17894 0
-17543 18114 0
-17543 17737 0
-17543 17961 0
17543 -18114 -17737 -17961 0
-18232 17746 0
-18232 17549 0
18232 -17746 -17549 0
-18277 17705 0
-18277 18124 0
18277 -17705 -18124 0
-18257 18127 0
-18257 17746 0
18257 -18127 -17746 0
-17630 18131 0
-17630 17726 0
-17630 17725 0
17630 -18131 -17726 -17725 0
-18261 18134 0
-18261 17961 0
18261 -18134 -17961 0
-17563 18138 0
-17563 17737 0
-17563 17746 0
17563 -18138 -17737 -17746 0
-18317 17705 0
-18317 18141 0
18317 -17705 -18141 0
-18334 18144 0
-18334 18054 0
18334 -18144 -18054 0
-18241 18147 0
-18241 17846 0
18241 -18147 -17846 0
-18263 18150 0
-18263 17803 0
18263 -18150 -17803 0
-18244 18153 0
-18244 18057 0
18244 -18153 -18057 0
-18279 17746 0
-18279 18157 0
18279 -17746 -18157 0
-18247 18160 0
-18247 18054 0
18247 -18160 -18054 0
-18251 17857 0
-18251 18163 0
18251 -17857 -18163 0
-18339 18167 0
-18339 17803 0
18339 -18167 -17803 0
-18258 17834 0
-18258 18170 0
18258 -17834 -18170 0
-18311 17761 0
-18311 18173 0
18311 -17761 -18173 0
-18285 18176 0
-18285 17801 0
18285 -18176 -17801 0
-18302 18179 0
-18302 17705 0
18302 -18179 -17705 0
-18332 17857 0
-18332 18182 0
18332 -17857 -18182 0
-18260 17857 0
-18260 18185 0
18260 -17857 -18185 0
-18265 17857 0
-18265 18188 0
18265 -17857 -18188 0
-18337 18195 0
-18337 17705 0
18337 -18195 -17705 0
-18274 17737 0
-18274 18198 0
18274 -17737 -18198 0
-18328 17705 0
-18328 18202 0
18328 -17705 -18202 0
-18276 18205 0
-18276 17961 0
18276 -18205 -17961 0
-17627 17737 0
-17627 17961 0
-17627 17630 0
17627 -17737 -17961 -17630 0
-17631 18208 0
-17631 17961 0
17631 -18208 -17961 0
-18286 17737 0
-18286 18215 0
18286 -17737 -18215 0
-18312 17705 0
-18312 18218 0
18312 -17705 -18218 0
-18289 17737 0
-18289 18221 0
18289 -17737 -18221 0
-18291 18231 0
-18291 18193 0
18291 -18231 -18193 0
-18294 17737 0
-18294 18234 0
18294 -17737 -18234 0
-18299 18243 0
-18299 17737 0
18299 -18243 -17737 0
-18303 18246 0
-18303 17737 0
18303 -18246 -17737 0
-18307 17737 0
-18307 18249 0
18307 -17737 -18249 0
-18310 18254 0
-18310 17737 0
18310 -18254 -17737 0
-18316 18262 0
-18316 17737 0
18316 -18262 -17737 0
-18319 18267 0
-18319 17737 0
18319 -18267 -17737 0
-18325 18275 0
-18325 17834 0
18325 -18275 -17834 0
-18329 17737 0
-18329 18278 0
18329 -17737 -18278 0
-18331 18287 0
-18331 17746 0
18331 -18287 -17746 0
-18335 18290 0
-18335 17961 0
18335 -18290 -17961 0
-18338 17737 0
-18338 18333 0
18338 -17737 -18333 0
-18351 17683 0
-18351 17699 0
18351 -17683 -17699 0
-18345 17686 0
-18345 17699 0
18345 -17686 -17699 0
-18349 17689 0
-18349 17699 0
18349 -17689 -17699 0
-18341 17692 0
-18341 17699 0
18341 -17692 -17699 0
-18343 17695 0
-18343 17699 0
18343 -17695 -17699 0
-18347 17698 0
-18347 17699 0
18347 -17698 -17699 0
17700 -17701 0
17700 -17726 0
-17700 17701 17726 0
17703 -17834 0
17703 -17705 0
-17703 17834 17705 0
17706 -18057 0
17706 -17803 0
-17706 18057 17803 0
17709 -17803 0
17709 -17801 0
-17709 17803 17801 0
17712 -17764 0
17712 -18236 0
-17712 17764 18236 0
17715 -18057 0
17715 -18236 0
-17715 18057 18236 0
17718 -17761 0
17718 -18236 0
-17718 17761 18236 0
17721 -17722 0
17721 -17725 0
-17721 17722 17725 0
17724 -17725 0
17724 -17726 0
-17724 17725 17726 0
17727 -17728 0
17727 -17735 0
-17727 17728 17735 0
17730 -17735 0
17730 -17803 0
-17730 17735 17803 0
17785 -17734 0
17785 -17735 0
-17785 17734 17735 0
17736 -17737 0
17736 -17803 0
-17736 17737 17803 0
17739 -17746 0
17739 -17803 0
-17739 17746 17803 0
17742 -17746 0
17742 -17801 0
-17742 17746 17801 0
17745 -17746 0
17745 -18054 0
-17745 17746 18054 0
17748 -18054 0
17748 -17834 0
-17748 18054 17834 0
17751 -17764 0
17751 -17846 0
-17751 17764 17846 0
17754 -17846 0
17754 -18057 0
-17754 17846 18057 0
17800 -17846 0
17800 -18236 0
-17800 17846 18236 0
17760 -17761 0
17760 -17846 0
-17760 17761 17846 0
17763 -17764 0
17763 -17894 0
-17763 17764 17894 0
17766 -17846 0
17766 -17894 0
-17766 17846 17894 0
17815 -17894 0
17815 -18236 0
-17815 17894 18236 0
17772 -17894 0
17772 -17961 0
-17772 17894 17961 0
17775 -17846 0
17775 -17961 0
-17775 17846 17961 0
17778 -18057 0
17778 -17961 0
-17778 18057 17961 0
17781 -18057 0
17781 -17783 0
-17781 18057 17783 0
17784 -17785 0
17784 -17786 0
-17784 17785 17786 0
17787 -17788 0
17787 -17801 0
-17787 17788 17801 0
17790 -17791 0
17790 -17792 0
-17790 17791 17792 0
17793 -17794 0
17793 -18236 0
-17793 17794 18236 0
17796 -17797 0
17796 -17798 0
-17796 17797 17798 0
17799 -17800 0
17799 -17801 0
-17799 17800 17801 0
17802 -17803 0
17802 -17804 0
-17802 17803 17804 0
17805 -17806 0
17805 -17807 0
-17805 17806 17807 0
17872 -17809 0
17872 -17810 0
-17872 17809 17810 0
17811 -17815 0
17811 -17813 0
-17811 17815 17813 0
17814 -17815 0
17814 -17816 0
-17814 17815 17816 0
17817 -18057 0
17817 -17819 0
-17817 18057 17819 0
17820 -17964 0
17820 -18054 0
-17820 17964 18054 0
17823 -17824 0
17823 -17825 0
-17823 17824 17825 0
17826 -17827 0
17826 -17828 0
-17826 17827 17828 0
17829 -17830 0
17829 -17831 0
-17829 17830 17831 0
17832 -18193 0
17832 -17834 0
-17832 18193 17834 0
17835 -18236 0
17835 -17837 0
-17835 18236 17837 0
17838 -17839 0
17838 -17840 0
-17838 17839 17840 0
17841 -17842 0
17841 -17843 0
-17841 17842 17843 0
17844 -17845 0
17844 -17846 0
-17844 17845 17846 0
17847 -17848 0
17847 -17849 0
-17847 17848 17849 0
17850 -17851 0
17850 -17852 0
-17850 17851 17852 0
17853 -17854 0
17853 -17894 0
-17853 17854 17894 0
17856 -17857 0
17856 -17858 0
-17856 17857 17858 0
17859 -17860 0
17859 -17861 0
-17859 17860 17861 0
17862 -17863 0
17862 -17864 0
-17862 17863 17864 0
17865 -17866 0
17865 -17867 0
-17865 17866 17867 0
17868 -17869 0
17868 -17870 0
-17868 17869 17870 0
17871 -17872 0
17871 -18057 0
-17871 17872 18057 0
17874 -17875 0
17874 -17876 0
-17874 17875 17876 0
17877 -17884 0
17877 -17879 0
-17877 17884 17879 0
17880 -17884 0
17880 -17882 0
-17880 17884 17882 0
17883 -17884 0
17883 -17885 0
-17883 17884 17885 0
17886 -17887 0
17886 -17888 0
-17886 17887 17888 0
17889 -17890 0
17889 -17891 0
-17889 17890 17891 0
17892 -17899 0
17892 -17894 0
-17892 17899 17894 0
17895 -17899 0
17895 -17897 0
-17895 17899 17897 0
17898 -17899 0
17898 -17900 0
-17898 17899 17900 0
17901 -17902 0
17901 -17903 0
-17901 17902 17903 0
17904 -17905 0
17904 -17906 0
-17904 17905 17906 0
17907 -17908 0
17907 -17909 0
-17907 17908 17909 0
17910 -17911 0
17910 -17912 0
-17910 17911 17912 0
17913 -17914 0
17913 -17915 0
-17913 17914 17915 0
17916 -17917 0
17916 -17918 0
-17916 17917 17918 0
17919 -17920 0
17919 -17921 0
-17919 17920 17921 0
17922 -17923 0
17922 -17924 0
-17922 17923 17924 0
17925 -17926 0
17925 -17927 0
-17925 17926 17927 0
17928 -17929 0
17928 -17930 0
-17928 17929 17930 0
17931 -17932 0
17931 -17933 0
-17931 17932 17933 0
17934 -17935 0
17934 -17936 0
-17934 17935 17936 0
17937 -17938 0
17937 -17939 0
-17937 17938 17939 0
17940 -17941 0
17940 -17942 0
-17940 17941 17942 0
17943 -17944 0
17943 -17945 0
-17943 17944 17945 0
17946 -17947 0
17946 -17948 0
-17946 17947 17948 0
17949 -17950 0
17949 -17951 0
-17949 17950 17951 0
17952 -18145 0
17952 -18057 0
17952 -17955 0
-17952 18145 18057 17955 0
17956 -17957 0
17956 -17958 0
-17956 17957 17958 0
17959 -17960 0
17959 -17961 0
-17959 17960 17961 0
17962 -17963 0
17962 -17964 0
-17962 17963 17964 0
17965 -17966 0
17965 -17967 0
-17965 17966 17967 0
17968 -17969 0
17968 -17970 0
-17968 17969 17970 0
17971 -17972 0
17971 -17973 0
-17971 17972 17973 0
17974 -17975 0
17974 -17976 0
-17974 17975 17976 0
17977 -17978 0
17977 -17979 0
-17977 17978 17979 0
17980 -17981 0
17980 -17982 0
-17980 17981 17982 0
17983 -17984 0
17983 -17985 0
-17983 17984 17985 0
17986 -17987 0
17986 -17988 0
-17986 17987 17988 0
17989 -17990 0
17989 -17991 0
-17989 17990 17991 0
17992 -17993 0
17992 -17994 0
-17992 17993 17994 0
17995 -17996 0
17995 -17997 0
-17995 17996 17997 0
17998 -17999 0
17998 -18000 0
-17998 17999 18000 0
18001 -18002 0
18001 -18003 0
-18001 18002 18003 0
18004 -18005 0
18004 -18006 0
-18004 18005 18006 0
18007 -18008 0
18007 -18009 0
-18007 18008 18009 0
18010 -18011 0
18010 -18012 0
-18010 18011 18012 0
18013 -18145 0
18013 -18015 0
-18013 18145 18015 0
18016 -18017 0
18016 -18018 0
-18016 18017 18018 0
18019 -18020 0
18019 -18021 0
-18019 18020 18021 0
18022 -18023 0
18022 -18057 0
-18022 18023 18057 0
18025 -18026 0
18025 -18027 0
-18025 18026 18027 0
18028 -18029 0
18028 -18030 0
-18028 18029 18030 0
18031 -18032 0
18031 -18033 0
-18031 18032 18033 0
18034 -18035 0
18034 -18036 0
-18034 18035 18036 0
18037 -18038 0
18037 -18039 0
-18037 18038 18039 0
18040 -18041 0
18040 -18042 0
-18040 18041 18042 0
18043 -18044 0
18043 -18045 0
-18043 18044 18045 0
18046 -18047 0
18046 -18048 0
-18046 18047 18048 0
18049 -18050 0
18049 -18051 0
-18049 18050 18051 0
18052 -18053 0
18052 -18054 0
-18052 18053 18054 0
18055 -18056 0
18055 -18057 0
-18055 18056 18057 0
18058 -18059 0
18058 -18060 0
-18058 18059 18060 0
18061 -18062 0
18061 -18063 0
-18061 18062 18063 0
18064 -18065 0
18064 -18066 0
18064 -18067 0
18064 -18068 0
-18064 18065 18066 18067 18068 0
18069 -18070 0
18069 -18071 0
-18069 18070 18071 0
18072 -18073 0
18072 -18074 0
-18072 18073 18074 0
18075 -18076 0
18075 -18077 0
-18075 18076 18077 0
18078 -18079 0
18078 -18080 0
18078 -18236 0
18078 -18082 0
-18078 18079 18080 18236 18082 0
18083 -18084 0
18083 -18085 0
-18083 18084 18085 0
18086 -18087 0
18086 -18088 0
-18086 18087 18088 0
18089 -18090 0
18089 -18091 0
-18089 18090 18091 0
18092 -18093 0
18092 -18094 0
-18092 18093 18094 0
18095 -18096 0
18095 -18097 0
-18095 18096 18097 0
18098 -18099 0
18098 -18100 0
-18098 18099 18100 0
18101 -18102 0
18101 -18103 0
18101 -18104 0
-18101 18102 18103 18104 0
18105 -18106 0
18105 -18107 0
-18105 18106 18107 0
18108 -18109 0
18108 -18110 0
-18108 18109 18110 0
18111 -18112 0
18111 -18113 0
-18111 18112 18113 0
18114 -18115 0
18114 -18116 0
-18114 18115 18116 0
18117 -18118 0
18117 -18119 0
-18117 18118 18119 0
18201 -18121 0
18201 -18122 0
18201 -18123 0
-18201 18121 18122 18123 0
18124 -18125 0
18124 -18126 0
-18124 18125 18126 0
18127 -18128 0
18127 -18129 0
18127 -18130 0
-18127 18128 18129 18130 0
18131 -18132 0
18131 -18133 0
-18131 18132 18133 0
18134 -18135 0
18134 -18136 0
18134 -18137 0
-18134 18135 18136 18137 0
18138 -18139 0
18138 -18140 0
-18138 18139 18140 0
18141 -18142 0
18141 -18143 0
-18141 18142 18143 0
18144 -18145 0
18144 -18146 0
-18144 18145 18146 0
18147 -18148 0
18147 -18149 0
-18147 18148 18149 0
18150 -18151 0
18150 -18152 0
-18150 18151 18152 0
18153 -18154 0
18153 -18155 0
18153 -18156 0
-18153 18154 18155 18156 0
18157 -18158 0
18157 -18159 0
-18157 18158 18159 0
18160 -18161 0
18160 -18162 0
-18160 18161 18162 0
18163 -18164 0
18163 -18165 0
18163 -18166 0
-18163 18164 18165 18166 0
18167 -18168 0
18167 -18169 0
-18167 18168 18169 0
18170 -18171 0
18170 -18172 0
-18170 18171 18172 0
18173 -18174 0
18173 -18175 0
-18173 18174 18175 0
18176 -18177 0
18176 -18178 0
-18176 18177 18178 0
18179 -18180 0
18179 -18181 0
-18179 18180 18181 0
18182 -18183 0
18182 -18184 0
-18182 18183 18184 0
18185 -18186 0
18185 -18187 0
-18185 18186 18187 0
18188 -18189 0
18188 -18190 0
-18188 18189 18190 0
18238 -18192 0
18238 -18193 0
18238 -18194 0
-18238 18192 18193 18194 0
18195 -18196 0
18195 -18197 0
-18195 18196 18197 0
18198 -18199 0
18198 -18200 0
18198 -18201 0
-18198 18199 18200 18201 0
18202 -18203 0
18202 -18204 0
-18202 18203 18204 0
18205 -18206 0
18205 -18207 0
-18205 18206 18207 0
18208 -18209 0
18208 -18210 0
-18208 18209 18210 0
18211 -18212 0
18211 -18213 0
18211 -18214 0
-18211 18212 18213 18214 0
18215 -18216 0
18215 -18217 0
-18215 18216 18217 0
18218 -18219 0
18218 -18220 0
-18218 18219 18220 0
18221 -18222 0
18221 -18223 0
-18221 18222 18223 0
18270 -18225 0
18270 -18226 0
18270 -18227 0
-18270 18225 18226 18227 0
18228 -18229 0
18228 -18230 0
-18228 18229 18230 0
18231 -18232 0
18231 -18233 0
-18231 18232 18233 0
18234 -18235 0
18234 -18236 0
18234 -18237 0
18234 -18238 0
-18234 18235 18236 18237 18238 0
18282 -18240 0
18282 -18241 0
18282 -18242 0
-18282 18240 18241 18242 0
18243 -18244 0
18243 -18245 0
-18243 18244 18245 0
18246 -18247 0
18246 -18248 0
-18246 18247 18248 0
18249 -18250 0
18249 -18251 0
18249 -18252 0
18249 -18253 0
-18249 18250 18251 18252 18253 0
18254 -18255 0
18254 -18256 0
18254 -18257 0
18254 -18258 0
-18254 18255 18256 18257 18258 0
18259 -18260 0
18259 -18261 0
-18259 18260 18261 0
18262 -18263 0
18262 -18264 0
18262 -18265 0
18262 -18266 0
-18262 18263 18264 18265 18266 0
18267 -18268 0
18267 -18269 0
18267 -18270 0
-18267 18268 18269 18270 0
18271 -18272 0
18271 -18273 0
18271 -18274 0
-18271 18272 18273 18274 0
18275 -18276 0
18275 -18277 0
-18275 18276 18277 0
18278 -18279 0
18278 -18280 0
18278 -18281 0
18278 -18282 0
-18278 18279 18280 18281 18282 0
18283 -18284 0
18283 -18285 0
18283 -18286 0
-18283 18284 18285 18286 0
18287 -18288 0
18287 -18289 0
-18287 18288 18289 0
18290 -18291 0
18290 -18292 0
-18290 18291 18292 0
18293 -18294 0
18293 -18295 0
18293 -18296 0
-18293 18294 18295 18296 0
18297 -18298 0
18297 -18299 0
18297 -18300 0
-18297 18298 18299 18300 0
18301 -18302 0
18301 -18303 0
-18301 18302 18303 0
18304 -18305 0
18304 -18306 0
18304 -18307 0
-18304 18305 18306 18307 0
18308 -18309 0
18308 -18310 0
18308 -18311 0
18308 -18312 0
-18308 18309 18310 18311 18312 0
18313 -18314 0
18313 -18315 0
18313 -18316 0
18313 -18317 0
-18313 18314 18315 18316 18317 0
18318 -18319 0
18318 -18320 0
18318 -18321 0
18318 -18322 0
-18318 18319 18320 18321 18322 0
18323 -18324 0
18323 -18325 0
-18323 18324 18325 0
18326 -18327 0
18326 -18328 0
18326 -18329 0
-18326 18327 18328 18329 0
18330 -18331 0
18330 -18332 0
-18330 18331 18332 0
18333 -18334 0
18333 -18335 0
-18333 18334 18335 0
18336 -18337 0
18336 -18338 0
18336 -18339 0
-18336 18337 18338 18339 0
-18341 20250 0
18341 -20250 0
-18343 19815 0
18343 -19815 0
-18345 19817 0
18345 -19817 0
-18347 20071 0
18347 -20071 0
-18349 19871 0
18349 -19871 0
-18351 19719 0
18351 -19719 0
19800 19778 0
-19800 -19778 0
19456 19748 0
-19456 -19748 0
19775 19848 0
-19775 -19848 0
19742 19416 0
-19742 -19416 0
19736 19740 0
-19736 -19740 0
19739 19715 0
-19739 -19715 0
19749 19197 0
-19749 -19197 0
19751 19719 0
-19751 -19719 0
19760 19871 0
-19760 -19871 0
20068 20071 0
-20068 -20071 0
19860 19817 0
-19860 -19817 0
19908 19815 0
-19908 -19815 0
19975 20250 0
-19975 -20250 0
20206 19714 0
-20206 -19714 0
18383 20071 0
-18383 -20071 0
19818 18383 0
-19818 -18383 0
19820 19720 0
-19820 -19720 0
18389 19848 0
-18389 -19848 0
18782 18389 0
-18782 -18389 0
19978 19723 0
-19978 -19723 0
18395 19860 0
-18395 -19860 0
19845 18395 0
-19845 -18395 0
19411 19729 0
-19411 -19729 0
19245 19732 0
-19245 -19732 0
20207 19735 0
-20207 -19735 0
18405 19735 0
-18405 -19735 0
19899 18405 0
-19899 -18405 0
19272 19741 0
-19272 -19741 0
19137 19799 0
-19137 -19799 0
18900 19750 0
-18900 -19750 0
19856 19753 0
-19856 -19753 0
19859 19756 0
-19859 -19756 0
19273 19759 0
-19273 -19759 0
19865 19762 0
-19865 -19762 0
19868 19765 0
-19868 -19765 0
19928 19768 0
-19928 -19768 0
18973 19814 0
-18973 -19814 0
19154 19774 0
-19154 -19774 0
19883 19777 0
-19883 -19777 0
19027 19780 0
-19027 -19780 0
19231 19829 0
-19231 -19829 0
19898 19786 0
-19898 -19786 0
20079 19789 0
-20079 -19789 0
19913 19792 0
-19913 -19792 0
18443 19815 0
-18443 -19815 0
19239 18443 0
-19239 -18443 0
20159 19813 0
-20159 -19813 0
18449 18654 0
-18449 -18654 0
19288 18449 0
-19288 -18449 0
18453 18891 0
-18453 -18891 0
19342 18453 0
-19342 -18453 0
20070 19867 0
-20070 -19867 0
18456 19147 0
-18456 -19147 0
18458 19356 0
-18458 -19356 0
19563 20069 0
-19563 -20069 0
18462 19436 0
-18462 -19436 0
18464 20122 0
-18464 -20122 0
18466 20131 0
-18466 -20131 0
18468 19557 0
-18468 -19557 0
18470 20225 0
-18470 -20225 0
18472 19577 0
-18472 -19577 0
18474 20242 0
-18474 -20242 0
18476 19641 0
-18476 -19641 0
18478 19645 0
-18478 -19645 0
18480 20273 0
-18480 -20273 0
18482 20285 0
-18482 -20285 0
18484 20297 0
-18484 -20297 0
18486 20307 0
-18486 -20307 0
18505 20311 0
-18505 -20311 0
18490 20315 0
-18490 -20315 0
18507 20318 0
-18507 -20318 0
18509 20322 0
-18509 -20322 0
18513 20327 0
-18513 -20327 0
18515 20332 0
-18515 -20332 0
18500 20337 0
-18500 -20337 0
18517 20340 0
-18517 -20340 0
19697 18505 0
-19697 -18505 0
19700 18507 0
-19700 -18507 0
19703 18509 0
-19703 -18509 0
18510 20344 0
-18510 -20344 0
19706 18513 0
-19706 -18513 0
19709 18515 0
-19709 -18515 0
19712 18517 0
-19712 -18517 0
18518 20350 0
-18518 -20350 0
-19811 20071 0
-19811 19817 0
19811 -20071 -19817 0
-19821 20071 0
-19821 19817 0
19821 -20071 -19817 0
-19862 19871 0
-19862 20071 0
-19862 19817 0
19862 -19871 -20071 -19817 0
-19838 19871 0
-19838 19815 0
19838 -19871 -19815 0
-19823 19778 0
-19823 19815 0
19823 -19778 -19815 0
-19923 19778 0
-19923 19815 0
19923 -19778 -19815 0
-19853 19848 0
-19853 19815 0
19853 -19848 -19815 0
-20087 20071 0
-20087 19815 0
20087 -20071 -19815 0
-19797 19748 0
-19797 20250 0
19797 -19748 -20250 0
-19802 19742 0
-19802 19749 0
19802 -19742 -19749 0
-19151 19416 0
-19151 19751 0
-19151 19817 0
19151 -19416 -19751 -19817 0
-19806 19778 0
-19806 19760 0
-19806 19815 0
19806 -19778 -19760 -19815 0
-19841 19749 0
-19841 19751 0
-19841 19760 0
-19841 20250 0
19841 -19749 -19751 -19760 -20250 0
-19866 19760 0
-19866 19815 0
19866 -19760 -19815 0
-19941 19760 0
-19941 20071 0
-19941 20250 0
19941 -19760 -20071 -20250 0
-19857 19760 0
-19857 20071 0
-19857 19817 0
19857 -19760 -20071 -19817 0
-18794 19748 0
-18794 19197 0
-18794 19751 0
-18794 19760 0
18794 -19748 -19197 -19751 -19760 0
-19805 19775 0
-19805 19871 0
-19805 20068 0
19805 -19775 -19871 -20068 0
-19808 20068 0
-19808 19815 0
19808 -20068 -19815 0
-19827 19742 0
-19827 20068 0
19827 -19742 -20068 0
-19950 19751 0
-19950 19760 0
-19950 20068 0
19950 -19751 -19760 -20068 0
-19155 19719 0
-19155 19871 0
-19155 20068 0
19155 -19719 -19871 -20068 0
-19812 19760 0
-19812 19860 0
19812 -19760 -19860 0
-19926 19748 0
-19926 19860 0
-19926 20250 0
19926 -19748 -19860 -20250 0
-19959 19760 0
-19959 19860 0
-19959 19815 0
19959 -19760 -19860 -19815 0
-19947 19860 0
-19947 20250 0
19947 -19860 -20250 0
-19981 19456 0
-19981 20071 0
-19981 19860 0
19981 -19456 -20071 -19860 0
-19830 19760 0
-19830 19860 0
19830 -19760 -19860 0
-20221 19871 0
-20221 19815 0
-20221 19720 0
20221 -19871 -19815 -19720 0
-19824 19817 0
-19824 19908 0
19824 -19817 -19908 0
-19833 19197 0
-19833 19908 0
19833 -19197 -19908 0
-18890 19751 0
-18890 20071 0
-18890 19908 0
18890 -19751 -20071 -19908 0
-19884 20068 0
-19884 19908 0
19884 -20068 -19908 0
-19920 19760 0
-19920 19908 0
19920 -19760 -19908 0
-20014 19817 0
-20014 19908 0
20014 -19817 -19908 0
-19914 20071 0
-19914 19908 0
19914 -20071 -19908 0
-19932 19817 0
-19932 19908 0
19932 -19817 -19908 0
-19880 19817 0
-19880 19908 0
19880 -19817 -19908 0
-20249 19817 0
-20249 19908 0
20249 -19817 -19908 0
-18654 19871 0
-18654 19723 0
18654 -19871 -19723 0
-19935 19723 0
-19935 20250 0
19935 -19723 -20250 0
-19839 19751 0
-19839 19975 0
19839 -19751 -19975 0
-19842 19871 0
-19842 19975 0
19842 -19871 -19975 0
-20011 19751 0
-20011 20071 0
-20011 19860 0
-20011 19975 0
20011 -19751 -20071 -19860 -19975 0
-20017 19760 0
-20017 20071 0
-20017 19908 0
-20017 19975 0
20017 -19760 -20071 -19908 -19975 0
-19893 19760 0
-19893 19908 0
-19893 19975 0
19893 -19760 -19908 -19975 0
-20047 19760 0
-20047 20071 0
-20047 19860 0
-20047 19975 0
20047 -19760 -20071 -19860 -19975 0
-19896 19739 0
-19896 19908 0
-19896 19975 0
19896 -19739 -19908 -19975 0
-20023 19760 0
-20023 19908 0
-20023 19975 0
20023 -19760 -19908 -19975 0
-19911 19416 0
-19911 19860 0
-19911 19975 0
19911 -19416 -19860 -19975 0
-19905 19860 0
-19905 19975 0
19905 -19860 -19975 0
-20056 19720 0
-20056 19975 0
20056 -19720 -19975 0
-19917 19760 0
-19917 20071 0
-19917 19908 0
-19917 19975 0
19917 -19760 -20071 -19908 -19975 0
-19902 19908 0
-19902 19975 0
19902 -19908 -19975 0
-20065 19717 0
-20065 19975 0
-20065 19720 0
20065 -19717 -19975 -19720 0
-20032 19749 0
-20032 19908 0
-20032 19975 0
20032 -19749 -19908 -19975 0
-20085 19975 0
-20085 19723 0
20085 -19975 -19723 0
-20198 19719 0
-20198 19975 0
20198 -19719 -19975 0
-19969 19726 0
-19969 19815 0
19969 -19726 -19815 0
-19844 19732 0
-19844 19908 0
19844 -19732 -19908 0
-19851 19860 0
-19851 19738 0
19851 -19860 -19738 0
-19854 19741 0
-19854 19908 0
19854 -19741 -19908 0
-19875 19744 0
-19875 19908 0
-19875 19975 0
19875 -19744 -19908 -19975 0
-20053 19750 0
-20053 19739 0
-20053 20071 0
-20053 19975 0
20053 -19750 -19739 -20071 -19975 0
-19863 19759 0
-19863 19860 0
19863 -19759 -19860 0
-19878 19815 0
-19878 19762 0
19878 -19815 -19762 0
-19872 19768 0
-19872 19815 0
19872 -19768 -19815 0
-19972 19871 0
-19972 19814 0
19972 -19871 -19814 0
-19874 19815 0
-19874 19814 0
19874 -19815 -19814 0
-19877 19774 0
-19877 19908 0
19877 -19774 -19908 0
-19881 19815 0
-19881 19774 0
19881 -19815 -19774 0
-19965 19749 0
-19965 19760 0
-19965 20250 0
-19965 19820 0
19965 -19749 -19760 -20250 -19820 0
-20270 19871 0
-20270 19975 0
-20270 19820 0
20270 -19871 -19975 -19820 0
-19890 20071 0
-19890 20250 0
-19890 19780 0
19890 -20071 -20250 -19780 0
-20251 19871 0
-20251 18782 0
20251 -19871 -18782 0
-20137 20071 0
-20137 19829 0
20137 -20071 -19829 0
-19996 19197 0
-19996 20250 0
-19996 19978 0
19996 -19197 -20250 -19978 0
-19987 20071 0
-19987 19975 0
-19987 19978 0
-19987 18794 0
19987 -20071 -19975 -19978 -18794 0
-19990 19760 0
-19990 20068 0
-19990 19978 0
19990 -19760 -20068 -19978 0
-20059 20071 0
-20059 19978 0
20059 -20071 -19978 0
-19889 19416 0
-19889 19975 0
-19889 19978 0
19889 -19416 -19975 -19978 0
-20172 19749 0
-20172 20071 0
-20172 19975 0
-20172 19978 0
20172 -19749 -20071 -19975 -19978 0
-20120 20071 0
-20120 20250 0
-20120 19978 0
20120 -20071 -20250 -19978 0
-19115 19751 0
-19115 19760 0
-19115 19978 0
19115 -19751 -19760 -19978 0
-19901 19786 0
-19901 20068 0
19901 -19786 -20068 0
-20074 19820 0
-20074 19786 0
20074 -19820 -19786 0
-19904 19789 0
-19904 20068 0
19904 -19789 -20068 0
-19962 19792 0
-19962 19860 0
19962 -19792 -19860 0
-19937 19760 0
-19937 19817 0
-19937 19411 0
19937 -19760 -19817 -19411 0
-20165 19908 0
-20165 19411 0
20165 -19908 -19411 0
-20328 19871 0
-20328 19817 0
-20328 19411 0
20328 -19871 -19817 -19411 0
-19916 19795 0
-19916 19871 0
-19916 19815 0
19916 -19795 -19871 -19815 0
-20062 19245 0
-20062 19720 0
20062 -19245 -19720 0
-19919 19871 0
-19919 19815 0
-19919 20207 0
19919 -19871 -19815 -20207 0
-19944 19760 0
-19944 20068 0
-19944 19908 0
-19944 20207 0
19944 -19760 -20068 -19908 -20207 0
-19922 19860 0
-19922 20207 0
19922 -19860 -20207 0
-19925 19871 0
-19925 19975 0
-19925 20207 0
19925 -19871 -19975 -20207 0
-19929 20071 0
-19929 20207 0
19929 -20071 -20207 0
-20019 19411 0
-20019 20207 0
20019 -19411 -20207 0
-20129 19760 0
-20129 20068 0
-20129 19978 0
-20129 20207 0
20129 -19760 -20068 -19978 -20207 0
-20162 19908 0
-20162 19411 0
-20162 20207 0
20162 -19908 -19411 -20207 0
-20126 19975 0
-20126 19820 0
-20126 20207 0
20126 -19975 -19820 -20207 0
-20093 19756 0
-20093 20207 0
20093 -19756 -20207 0
-20007 19975 0
-20007 19272 0
-20007 18890 0
20007 -19975 -19272 -18890 0
-18891 19416 0
-18891 20250 0
-18891 19798 0
18891 -19416 -20250 -19798 0
-19931 19801 0
-19931 19860 0
19931 -19801 -19860 0
-19934 19975 0
-19934 18900 0
19934 -19975 -18900 0
-19938 20071 0
-19938 19815 0
-19938 19856 0
19938 -20071 -19815 -19856 0
-19984 19775 0
-19984 19719 0
-19984 19856 0
19984 -19775 -19719 -19856 0
-19940 19775 0
-19940 19975 0
-19940 19859 0
19940 -19775 -19975 -19859 0
-19998 20250 0
-19998 19859 0
19998 -20250 -19859 0
-20040 19975 0
-20040 19859 0
20040 -19975 -19859 0
-20001 19729 0
-20001 19859 0
20001 -19729 -19859 0
-19943 19848 0
-19943 19273 0
19943 -19848 -19273 0
-19946 19975 0
-19946 19273 0
19946 -19975 -19273 0
-19949 19815 0
-19949 19273 0
19949 -19815 -19273 0
-19953 19871 0
-19953 19865 0
19953 -19871 -19865 0
-19956 19871 0
-19956 19815 0
-19956 19865 0
19956 -19871 -19815 -19865 0
-20146 19871 0
-20146 19815 0
-20146 19865 0
20146 -19871 -19815 -19865 0
-20247 19871 0
-20247 19815 0
-20247 19865 0
20247 -19871 -19815 -19865 0
-20224 19751 0
-20224 19817 0
-20224 19804 0
20224 -19751 -19817 -19804 0
-20213 19860 0
-20213 19807 0
20213 -19860 -19807 0
-19952 19760 0
-19952 20068 0
-19952 19868 0
19952 -19760 -20068 -19868 0
-19955 19760 0
-19955 20068 0
-19955 19868 0
19955 -19760 -20068 -19868 0
-19958 19859 0
-19958 19928 0
19958 -19859 -19928 0
-19961 20250 0
-19961 19928 0
19961 -20250 -19928 0
-19964 19197 0
-19964 18973 0
-19964 19273 0
19964 -19197 -18973 -19273 0
-20025 19777 0
-20025 18973 0
20025 -19777 -18973 0
-20143 19813 0
-20143 20071 0
20143 -19813 -20071 0
-19971 19975 0
-19971 19154 0
19971 -19975 -19154 0
-19992 19908 0
-19992 19154 0
19992 -19908 -19154 0
-20175 19908 0
-20175 19975 0
-20175 19154 0
20175 -19908 -19975 -19154 0
-20306 19816 0
-20306 19848 0
-20306 19871 0
-20306 19815 0
20306 -19816 -19848 -19871 -19815 0
-20151 19819 0
-20151 19760 0
-20151 19815 0
20151 -19819 -19760 -19815 0
-19974 20068 0
-19974 19027 0
19974 -20068 -19027 0
-19977 19800 0
-19977 19027 0
19977 -19800 -19027 0
-20043 20071 0
-20043 19027 0
20043 -20071 -19027 0
-19980 20068 0
-19980 19027 0
19980 -20068 -19027 0
-19983 19739 0
-19983 19751 0
-19983 19760 0
-19983 19027 0
19983 -19739 -19751 -19760 -19027 0
-19986 19871 0
-19986 20068 0
-19986 19027 0
19986 -19871 -20068 -19027 0
-19989 19778 0
-19989 19799 0
-19989 19871 0
-19989 19027 0
19989 -19778 -19799 -19871 -19027 0
-20004 20068 0
-20004 19027 0
20004 -20068 -19027 0
-20090 19760 0
-20090 19027 0
20090 -19760 -19027 0
-19993 19886 0
-19993 19760 0
19993 -19886 -19760 0
-19995 19778 0
-19995 19817 0
-19995 19231 0
19995 -19778 -19817 -19231 0
-19999 19760 0
-19999 20071 0
-19999 19231 0
19999 -19760 -20071 -19231 0
-20050 19817 0
-20050 19231 0
20050 -19817 -19231 0
-20002 19760 0
-20002 19231 0
20002 -19760 -19231 0
-20139 19860 0
-20139 19231 0
20139 -19860 -19231 0
-20104 19817 0
-20104 19231 0
20104 -19817 -19231 0
-20195 19753 0
-20195 20071 0
-20195 19231 0
20195 -19753 -20071 -19231 0
-20156 20071 0
-20156 19817 0
-20156 19231 0
20156 -20071 -19817 -19231 0
-20101 19760 0
-20101 19860 0
-20101 19231 0
20101 -19760 -19860 -19231 0
-20182 19748 0
-20182 20071 0
-20182 19231 0
20182 -19748 -20071 -19231 0
-20076 20068 0
-20076 19231 0
-20076 20207 0
-20076 19868 0
20076 -20068 -19231 -20207 -19868 0
-20210 19760 0
-20210 19860 0
-20210 19231 0
20210 -19760 -19860 -19231 0
-20236 20071 0
-20236 19817 0
-20236 19231 0
20236 -20071 -19817 -19231 0
-20218 19231 0
-20218 19768 0
20218 -19231 -19768 0
-20203 20071 0
-20203 19860 0
-20203 19231 0
20203 -20071 -19860 -19231 0
-20226 19760 0
-20226 19860 0
-20226 19231 0
20226 -19760 -19860 -19231 0
-20233 19810 0
-20233 19231 0
20233 -19810 -19231 0
-20302 19820 0
-20302 19231 0
20302 -19820 -19231 0
-20116 19825 0
-20116 19860 0
20116 -19825 -19860 0
-20082 20071 0
-20082 19828 0
20082 -20071 -19828 0
-20005 19831 0
-20005 19860 0
20005 -19831 -19860 0
-20227 19834 0
-20227 19871 0
20227 -19834 -19871 0
-20309 19871 0
-20309 19834 0
20309 -19871 -19834 0
-20338 19411 0
-20338 20207 0
-20338 19115 0
20338 -19411 -20207 -19115 0
-20008 19848 0
-20008 19719 0
-20008 20068 0
-20008 19898 0
20008 -19848 -19719 -20068 -19898 0
-20010 19719 0
-20010 19871 0
-20010 19898 0
-20010 19928 0
20010 -19719 -19871 -19898 -19928 0
-20013 19860 0
-20013 19898 0
20013 -19860 -19898 0
-20016 19775 0
-20016 19871 0
-20016 19898 0
20016 -19775 -19871 -19898 0
-20020 19416 0
-20020 19871 0
-20020 19898 0
-20020 19137 0
20020 -19416 -19871 -19898 -19137 0
-20022 19197 0
-20022 19898 0
20022 -19197 -19898 0
-20026 19860 0
-20026 19898 0
20026 -19860 -19898 0
-20034 19871 0
-20034 19898 0
20034 -19871 -19898 0
-19147 19898 0
-19147 19273 0
-19147 19799 0
-19147 19151 0
19147 -19898 -19273 -19799 -19151 0
-20132 19898 0
-20132 19154 0
-20132 19155 0
20132 -19898 -19154 -19155 0
-20029 19860 0
-20029 19898 0
20029 -19860 -19898 0
-20153 20071 0
-20153 19817 0
-20153 19898 0
20153 -20071 -19817 -19898 0
-20185 19456 0
-20185 19860 0
-20185 19898 0
20185 -19456 -19860 -19898 0
-20031 19798 0
-20031 19416 0
-20031 19898 0
20031 -19798 -19416 -19898 0
-20269 20071 0
-20269 19898 0
20269 -20071 -19898 0
-20035 19456 0
-20035 19837 0
20035 -19456 -19837 0
-20037 19742 0
-20037 20079 0
20037 -19742 -20079 0
-20113 19908 0
-20113 20079 0
20113 -19908 -20079 0
-20098 19908 0
-20098 20079 0
20098 -19908 -20079 0
-20295 20071 0
-20295 19908 0
-20295 20079 0
20295 -20071 -19908 -20079 0
-20241 19908 0
-20241 20079 0
20241 -19908 -20079 0
-20041 19742 0
-20041 19840 0
20041 -19742 -19840 0
-20044 19197 0
-20044 19978 0
-20044 19913 0
20044 -19197 -19978 -19913 0
-20046 19908 0
-20046 19913 0
20046 -19908 -19913 0
-20049 19719 0
-20049 19913 0
20049 -19719 -19913 0
-20052 19719 0
-20052 19817 0
-20052 19913 0
20052 -19719 -19817 -19913 0
-20055 19860 0
-20055 19913 0
20055 -19860 -19913 0
-20058 19780 0
-20058 19913 0
20058 -19780 -19913 0
-20061 19817 0
-20061 19913 0
20061 -19817 -19913 0
-20064 19817 0
-20064 19913 0
20064 -19817 -19913 0
-20110 19719 0
-20110 19871 0
-20110 19913 0
20110 -19719 -19871 -19913 0
-20179 19843 0
-20179 20068 0
20179 -19843 -20068 0
-20067 19846 0
-20067 19231 0
20067 -19846 -19231 0
-20080 19849 0
-20080 19908 0
20080 -19849 -19908 0
-20096 19871 0
-20096 19852 0
20096 -19871 -19852 0
-20320 19239 0
-20320 19719 0
-20320 20071 0
-20320 19975 0
20320 -19239 -19719 -20071 -19975 0
-20264 19855 0
-20264 19245 0
20264 -19855 -19245 0
-20170 19858 0
-20170 20250 0
20170 -19858 -20250 0
-20192 19719 0
-20192 19975 0
-20192 19861 0
20192 -19719 -19975 -19861 0
-20214 19864 0
-20214 19738 0
20214 -19864 -19738 0
-20310 19719 0
-20310 19975 0
-20310 19870 0
20310 -19719 -19975 -19870 0
-20073 20071 0
-20073 20159 0
20073 -20071 -20159 0
-20123 19719 0
-20123 20159 0
-20123 19273 0
20123 -19719 -20159 -19273 0
-20107 20068 0
-20107 20159 0
20107 -20068 -20159 0
-20230 20159 0
-20230 19272 0
-20230 19273 0
20230 -20159 -19272 -19273 0
-20077 19873 0
-20077 20071 0
20077 -19873 -20071 0
-20081 19871 0
-20081 19876 0
20081 -19871 -19876 0
-20084 20068 0
-20084 19879 0
20084 -20068 -19879 0
-20088 19751 0
-20088 19882 0
20088 -19751 -19882 0
-20091 19719 0
-20091 19288 0
20091 -19719 -19288 0
-20094 19885 0
-20094 19760 0
20094 -19885 -19760 0
-20256 19871 0
-20256 19888 0
20256 -19871 -19888 0
-20169 19742 0
-20169 19891 0
20169 -19742 -19891 0
-20099 19894 0
-20099 19860 0
20099 -19894 -19860 0
-20180 19897 0
-20180 19860 0
20180 -19897 -19860 0
-20102 19900 0
-20102 19871 0
-20102 19817 0
20102 -19900 -19871 -19817 0
-20201 19903 0
-20201 19719 0
-20201 19908 0
20201 -19903 -19719 -19908 0
-20105 19906 0
-20105 19860 0
20105 -19906 -19860 0
-20323 19909 0
-20323 19859 0
20323 -19909 -19859 0
-20286 19912 0
-20286 19856 0
20286 -19912 -19856 0
-20108 19915 0
-20108 19860 0
20108 -19915 -19860 0
-20111 19918 0
-20111 19751 0
-20111 20071 0
-20111 19975 0
20111 -19918 -19751 -20071 -19975 0
-20114 19921 0
-20114 19975 0
20114 -19921 -19975 0
-20189 19751 0
-20189 19815 0
-20189 19924 0
20189 -19751 -19815 -19924 0
-20117 19775 0
-20117 19975 0
-20117 19927 0
20117 -19775 -19975 -19927 0
-20118 20071 0
-20118 19342 0
20118 -20071 -19342 0
-20144 19930 0
-20144 20250 0
20144 -19930 -20250 0
-20121 19933 0
-20121 20068 0
20121 -19933 -20068 0
-20294 19936 0
-20294 19735 0
20294 -19936 -19735 0
-20124 19939 0
-20124 19751 0
-20124 19860 0
20124 -19939 -19751 -19860 0
-19356 19942 0
-19356 19751 0
-19356 19860 0
-19356 19975 0
19356 -19942 -19751 -19860 -19975 0
-20127 19742 0
-20127 19945 0
20127 -19742 -19945 0
-20149 19948 0
-20149 20207 0
20149 -19948 -20207 0
-20130 19951 0
-20130 19714 0
-20130 19815 0
20130 -19951 -19714 -19815 0
-20262 19738 0
-20262 19954 0
-20262 19975 0
20262 -19738 -19954 -19975 0
-20336 19719 0
-20336 19975 0
-20336 19957 0
20336 -19719 -19975 -19957 0
-20319 19960 0
-20319 19859 0
20319 -19960 -19859 0
-20133 19963 0
-20133 19416 0
-20133 19751 0
-20133 19908 0
20133 -19963 -19416 -19751 -19908 0
-20136 19760 0
-20136 19966 0
20136 -19760 -19966 0
-20135 19970 0
-20135 19908 0
20135 -19970 -19908 0
-20140 19973 0
-20140 19871 0
20140 -19973 -19871 0
-20142 19975 0
-20142 19976 0
-20142 20207 0
20142 -19975 -19976 -20207 0
-20147 19760 0
-20147 20068 0
-20147 19976 0
20147 -19760 -20068 -19976 0
-20283 19760 0
-20283 19975 0
-20283 19979 0
20283 -19760 -19975 -19979 0
-20298 19800 0
-20298 19982 0
-20298 19411 0
20298 -19800 -19982 -19411 0
-20329 19775 0
-20329 19985 0
20329 -19775 -19985 0
-20278 19416 0
-20278 19988 0
-20278 20250 0
20278 -19416 -19988 -20250 0
-20150 19751 0
-20150 19991 0
-20150 20068 0
20150 -19751 -19991 -20068 0
-20154 19994 0
-20154 20068 0
20154 -19994 -20068 0
-20334 19997 0
-20334 19860 0
20334 -19997 -19860 0
-20157 20000 0
-20157 19860 0
20157 -20000 -19860 0
-20267 19760 0
-20267 20250 0
-20267 20003 0
20267 -19760 -20250 -20003 0
-19436 20006 0
-19436 19871 0
-19436 19817 0
19436 -20006 -19871 -19817 0
-20335 19848 0
-20335 20009 0
20335 -19848 -20009 0
-20160 20012 0
-20160 19760 0
20160 -20012 -19760 0
-20282 20071 0
-20282 20012 0
20282 -20071 -20012 0
-20163 19456 0
-20163 20015 0
20163 -19456 -20015 0
-20166 19800 0
-20166 20018 0
20166 -19800 -20018 0
-20168 19456 0
-20168 20021 0
20168 -19456 -20021 0
-20173 20024 0
-20173 20068 0
20173 -20024 -20068 0
-20176 20027 0
-20176 19760 0
20176 -20027 -19760 0
-20178 20030 0
-20178 20071 0
20178 -20030 -20071 0
-20183 20033 0
-20183 20068 0
20183 -20033 -20068 0
-20186 20036 0
-20186 19760 0
20186 -20036 -19760 0
-20341 20039 0
-20341 19820 0
20341 -20039 -19820 0
-20280 19760 0
-20280 20042 0
20280 -19760 -20042 0
-20239 19749 0
-20239 20045 0
20239 -19749 -20045 0
-20188 20048 0
-20188 19871 0
20188 -20048 -19871 0
-20191 19775 0
-20191 19871 0
-20191 20051 0
20191 -19775 -19871 -20051 0
-20194 20054 0
-20194 19859 0
20194 -20054 -19859 0
-20314 19719 0
-20314 20057 0
-20314 19871 0
20314 -19719 -20057 -19871 0
-20197 20060 0
-20197 19815 0
20197 -20060 -19815 0
-20200 20063 0
-20200 19815 0
20200 -20063 -19815 0
-20204 20066 0
-20204 19817 0
20204 -20066 -19817 0
-20208 20069 0
-20208 19760 0
20208 -20069 -19760 0
-20211 20072 0
-20211 19871 0
20211 -20072 -19871 0
-20259 19760 0
-20259 20075 0
20259 -19760 -20075 0
-20244 19751 0
-20244 20078 0
20244 -19751 -20078 0
-20217 19871 0
-20217 20083 0
20217 -19871 -20083 0
-20220 20086 0
-20220 19817 0
20220 -20086 -19817 0
-20223 20089 0
-20223 20071 0
20223 -20089 -20071 0
-20228 19751 0
-20228 20092 0
20228 -19751 -20092 0
-20231 20097 0
-20231 19760 0
-20231 20068 0
20231 -20097 -19760 -20068 0
-20287 19719 0
-20287 20100 0
20287 -19719 -20100 0
-20234 19871 0
-20234 20103 0
20234 -19871 -20103 0
-20254 19848 0
-20254 20106 0
20254 -19848 -20106 0
-20312 19775 0
-20312 20109 0
20312 -19775 -20109 0
-20237 20112 0
-20237 20068 0
20237 -20112 -20068 0
-20240 19871 0
-20240 20115 0
20240 -19871 -20115 0
-20243 20119 0
-20243 19871 0
20243 -20119 -19871 0
-20266 20125 0
-20266 19908 0
20266 -20125 -19908 0
-19557 20128 0
-19557 19751 0
-19557 19975 0
19557 -20128 -19751 -19975 0
-20246 19760 0
-20246 19563 0
20246 -19760 -19563 0
-20291 19719 0
-20291 20138 0
20291 -19719 -20138 0
-20271 20141 0
-20271 19760 0
20271 -20141 -19760 0
-19644 20145 0
-19644 19740 0
-19644 19739 0
19644 -20145 -19740 -19739 0
-20275 20148 0
-20275 19975 0
20275 -20148 -19975 0
-19577 20152 0
-19577 19751 0
-19577 19760 0
19577 -20152 -19751 -19760 0
-20331 19719 0
-20331 20155 0
20331 -19719 -20155 0
-20348 20158 0
-20348 20068 0
20348 -20158 -20068 0
-20255 20161 0
-20255 19860 0
20255 -20161 -19860 0
-20277 20164 0
-20277 19817 0
20277 -20164 -19817 0
-20258 20167 0
-20258 20071 0
20258 -20167 -20071 0
-20293 19760 0
-20293 20171 0
20293 -19760 -20171 0
-20261 20174 0
-20261 20068 0
20261 -20174 -20068 0
-20265 19871 0
-20265 20177 0
20265 -19871 -20177 0
-20353 20181 0
-20353 19817 0
20353 -20181 -19817 0
-20272 19848 0
-20272 20184 0
20272 -19848 -20184 0
-20325 19775 0
-20325 20187 0
20325 -19775 -20187 0
-20299 20190 0
-20299 19815 0
20299 -20190 -19815 0
-20316 20193 0
-20316 19719 0
20316 -20193 -19719 0
-20346 19871 0
-20346 20196 0
20346 -19871 -20196 0
-20274 19871 0
-20274 20199 0
20274 -19871 -20199 0
-20279 19871 0
-20279 20202 0
20279 -19871 -20202 0
-20351 20209 0
-20351 19719 0
20351 -20209 -19719 0
-20288 19751 0
-20288 20212 0
20288 -19751 -20212 0
-20342 19719 0
-20342 20216 0
20342 -19719 -20216 0
-20290 20219 0
-20290 19975 0
20290 -20219 -19975 0
-19641 19751 0
-19641 19975 0
-19641 19644 0
19641 -19751 -19975 -19644 0
-19645 20222 0
-19645 19975 0
19645 -20222 -19975 0
-20300 19751 0
-20300 20229 0
20300 -19751 -20229 0
-20326 19719 0
-20326 20232 0
20326 -19719 -20232 0
-20303 19751 0
-20303 20235 0
20303 -19751 -20235 0
-20305 20245 0
-20305 20207 0
20305 -20245 -20207 0
-20308 19751 0
-20308 20248 0
20308 -19751 -20248 0
-20313 20257 0
-20313 19751 0
20313 -20257 -19751 0
-20317 20260 0
-20317 19751 0
20317 -20260 -19751 0
-20321 19751 0
-20321 20263 0
20321 -19751 -20263 0
-20324 20268 0
-20324 19751 0
20324 -20268 -19751 0
-20330 20276 0
-20330 19751 0
20330 -20276 -19751 0
-20333 20281 0
-20333 19751 0
20333 -20281 -19751 0
-20339 20289 0
-20339 19848 0
20339 -20289 -19848 0
-20343 19751 0
-20343 20292 0
20343 -19751 -20292 0
-20345 20301 0
-20345 19760 0
20345 -20301 -19760 0
-20349 20304 0
-20349 19975 0
20349 -20304 -19975 0
-20352 19751 0
-20352 20347 0
20352 -19751 -20347 0
-20365 19697 0
-20365 19713 0
20365 -19697 -19713 0
-20359 19700 0
-20359 19713 0
20359 -19700 -19713 0
-20363 19703 0
-20363 19713 0
20363 -19703 -19713 0
-20355 19706 0
-20355 19713 0
20355 -19706 -19713 0
-20357 19709 0
-20357 19713 0
20357 -19709 -19713 0
-20361 19712 0
-20361 19713 0
20361 -19712 -19713 0
19714 -19715 0
19714 -19740 0
-19714 19715 19740 0
19717 -19848 0
19717 -19719 0
-19717 19848 19719 0
19720 -20071 0
19720 -19817 0
-19720 20071 19817 0
19723 -19817 0
19723 -19815 0
-19723 19817 19815 0
19726 -19778 0
19726 -20250 0
-19726 19778 20250 0
19729 -20071 0
19729 -20250 0
-19729 20071 20250 0
19732 -19775 0
19732 -20250 0
-19732 19775 20250 0
19735 -19736 0
19735 -19739 0
-19735 19736 19739 0
19738 -19739 0
19738 -19740 0
-19738 19739 19740 0
19741 -19742 0
19741 -19749 0
-19741 19742 19749 0
19744 -19749 0
19744 -19817 0
-19744 19749 19817 0
19799 -19748 0
19799 -19749 0
-19799 19748 19749 0
19750 -19751 0
19750 -19817 0
-19750 19751 19817 0
19753 -19760 0
19753 -19817 0
-19753 19760 19817 0
19756 -19760 0
19756 -19815 0
-19756 19760 19815 0
19759 -19760 0
19759 -20068 0
-19759 19760 20068 0
19762 -20068 0
19762 -19848 0
-19762 20068 19848 0
19765 -19778 0
19765 -19860 0
-19765 19778 19860 0
19768 -19860 0
19768 -20071 0
-19768 19860 20071 0
19814 -19860 0
19814 -20250 0
-19814 19860 20250 0
19774 -19775 0
19774 -19860 0
-19774 19775 19860 0
19777 -19778 0
19777 -19908 0
-19777 19778 19908 0
19780 -19860 0
19780 -19908 0
-19780 19860 19908 0
19829 -19908 0
19829 -20250 0
-19829 19908 20250 0
19786 -19908 0
19786 -19975 0
-19786 19908 19975 0
19789 -19860 0
19789 -19975 0
-19789 19860 19975 0
19792 -20071 0
19792 -19975 0
-19792 20071 19975 0
19795 -20071 0
19795 -19797 0
-19795 20071 19797 0
19798 -19799 0
19798 -19800 0
-19798 19799 19800 0
19801 -19802 0
19801 -19815 0
-19801 19802 19815 0
19804 -19805 0
19804 -19806 0
-19804 19805 19806 0
19807 -19808 0
19807 -20250 0
-19807 19808 20250 0
19810 -19811 0
19810 -19812 0
-19810 19811 19812 0
19813 -19814 0
19813 -19815 0
-19813 19814 19815 0
19816 -19817 0
19816 -19818 0
-19816 19817 19818 0
19819 -19820 0
19819 -19821 0
-19819 19820 19821 0
19886 -19823 0
19886 -19824 0
-19886 19823 19824 0
19825 -19829 0
19825 -19827 0
-19825 19829 19827 0
19828 -19829 0
19828 -19830 0
-19828 19829 19830 0
19831 -20071 0
19831 -19833 0
-19831 20071 19833 0
19834 -19978 0
19834 -20068 0
-19834 19978 20068 0
19837 -19838 0
19837 -19839 0
-19837 19838 19839 0
19840 -19841 0
19840 -19842 0
-19840 19841 19842 0
19843 -19844 0
19843 -19845 0
-19843 19844 19845 0
19846 -20207 0
19846 -19848 0
-19846 20207 19848 0
19849 -20250 0
19849 -19851 0
-19849 20250 19851 0
19852 -19853 0
19852 -19854 0
-19852 19853 19854 0
19855 -19856 0
19855 -19857 0
-19855 19856 19857 0
19858 -19859 0
19858 -19860 0
-19858 19859 19860 0
19861 -19862 0
19861 -19863 0
-19861 19862 19863 0
19864 -19865 0
19864 -19866 0
-19864 19865 19866 0
19867 -19868 0
19867 -19908 0
-19867 19868 19908 0
19870 -19871 0
19870 -19872 0
-19870 19871 19872 0
19873 -19874 0
19873 -19875 0
-19873 19874 19875 0
19876 -19877 0
19876 -19878 0
-19876 19877 19878 0
19879 -19880 0
19879 -19881 0
-19879 19880 19881 0
19882 -19883 0
19882 -19884 0
-19882 19883 19884 0
19885 -19886 0
19885 -20071 0
-19885 19886 20071 0
19888 -19889 0
19888 -19890 0
-19888 19889 19890 0
19891 -19898 0
19891 -19893 0
-19891 19898 19893 0
19894 -19898 0
19894 -19896 0
-19894 19898 19896 0
19897 -19898 0
19897 -19899 0
-19897 19898 19899 0
19900 -19901 0
19900 -19902 0
-19900 19901 19902 0
19903 -19904 0
19903 -19905 0
-19903 19904 19905 0
19906 -19913 0
19906 -19908 0
-19906 19913 19908 0
19909 -19913 0
19909 -19911 0
-19909 19913 19911 0
19912 -19913 0
19912 -19914 0
-19912 19913 19914 0
19915 -19916 0
19915 -19917 0
-19915 19916 19917 0
19918 -19919 0
19918 -19920 0
-19918 19919 19920 0
19921 -19922 0
19921 -19923 0
-19921 19922 19923 0
19924 -19925 0
19924 -19926 0
-19924 19925 19926 0
19927 -19928 0
19927 -19929 0
-19927 19928 19929 0
19930 -19931 0
19930 -19932 0
-19930 19931 19932 0
19933 -19934 0
19933 -19935 0
-19933 19934 19935 0
19936 -19937 0
19936 -19938 0
-19936 19937 19938 0
19939 -19940 0
19939 -19941 0
-19939 19940 19941 0
19942 -19943 0
19942 -19944 0
-19942 19943 19944 0
19945 -19946 0
19945 -19947 0
-19945 19946 19947 0
19948 -19949 0
19948 -19950 0
-19948 19949 19950 0
19951 -19952 0
19951 -19953 0
-19951 19952 19953 0
19954 -19955 0
19954 -19956 0
-19954 19955 19956 0
19957 -19958 0
19957 -19959 0
-19957 19958 19959 0
19960 -19961 0
19960 -19962 0
-19960 19961 19962 0
19963 -19964 0
19963 -19965 0
-19963 19964 19965 0
19966 -20159 0
19966 -20071 0
19966 -19969 0
-19966 20159 20071 19969 0
19970 -19971 0
19970 -19972 0
-19970 19971 19972 0
19973 -19974 0
19973 -19975 0
-19973 19974 19975 0
19976 -19977 0
19976 -19978 0
-19976 19977 19978 0
19979 -19980 0
19979 -19981 0
-19979 19980 19981 0
19982 -19983 0
19982 -19984 0
-19982 19983 19984 0
19985 -19986 0
19985 -19987 0
-19985 19986 19987 0
19988 -19989 0
19988 -19990 0
-19988 19989 19990 0
19991 -19992 0
19991 -19993 0
-19991 19992 19993 0
19994 -19995 0
19994 -19996 0
-19994 19995 19996 0
19997 -19998 0
19997 -19999 0
-19997 19998 19999 0
20000 -20001 0
20000 -20002 0
-20000 20001 20002 0
20003 -20004 0
20003 -20005 0
-20003 20004 20005 0
20006 -20007 0
20006 -20008 0
-20006 20007 20008 0
20009 -20010 0
20009 -20011 0
-20009 20010 20011 0
20012 -20013 0
20012 -20014 0
-20012 20013 20014 0
20015 -20016 0
20015 -20017 0
-20015 20016 20017 0
20018 -20019 0
20018 -20020 0
-20018 20019 20020 0
20021 -20022 0
20021 -20023 0
-20021 20022 20023 0
20024 -20025 0
20024 -20026 0
-20024 20025 20026 0
20027 -20159 0
20027 -20029 0
-20027 20159 20029 0
20030 -20031 0
20030 -20032 0
-20030 20031 20032 0
20033 -20034 0
20033 -20035 0
-20033 20034 20035 0
20036 -20037 0
20036 -20071 0
-20036 20037 20071 0
20039 -20040 0
20039 -20041 0
-20039 20040 20041 0
20042 -20043 0
20042 -20044 0
-20042 20043 20044 0
20045 -20046 0
20045 -20047 0
-20045 20046 20047 0
20048 -20049 0
20048 -20050 0
-20048 20049 20050 0
20051 -20052 0
20051 -20053 0
-20051 20052 20053 0
20054 -20055 0
20054 -20056 0
-20054 20055 20056 0
20057 -20058 0
20057 -20059 0
-20057 20058 20059 0
20060 -20061 0
20060 -20062 0
-20060 20061 20062 0
20063 -20064 0
20063 -20065 0
-20063 20064 20065 0
20066 -20067 0
20066 -20068 0
-20066 20067 20068 0
20069 -20070 0
20069 -20071 0
-20069 20070 20071 0
20072 -20073 0
20072 -20074 0
-20072 20073 20074 0
20075 -20076 0
20075 -20077 0
-20075 20076 20077 0
20078 -20079 0
20078 -20080 0
20078 -20081 0
20078 -20082 0
-20078 20079 20080 20081 20082 0
20083 -20084 0
20083 -20085 0
-20083 20084 20085 0
20086 -20087 0
20086 -20088 0
-20086 20087 20088 0
20089 -20090 0
20089 -20091 0
-20089 20090 20091 0
20092 -20093 0
20092 -20094 0
20092 -20250 0
20092 -20096 0
-20092 20093 20094 20250 20096 0
20097 -20098 0
20097 -20099 0
-20097 20098 20099 0
20100 -20101 0
20100 -20102 0
-20100 20101 20102 0
20103 -20104 0
20103 -20105 0
-20103 20104 20105 0
20106 -20107 0
20106 -20108 0
-20106 20107 20108 0
20109 -20110 0
20109 -20111 0
-20109 20110 20111 0
20112 -20113 0
20112 -20114 0
-20112 20113 20114 0
20115 -20116 0
20115 -20117 0
20115 -20118 0
-20115 20116 20117 20118 0
20119 -20120 0
20119 -20121 0
-20119 20120 20121 0
20122 -20123 0
20122 -20124 0
-20122 20123 20124 0
20125 -20126 0
20125 -20127 0
-20125 20126 20127 0
20128 -20129 0
20128 -20130 0
-20128 20129 20130 0
20131 -20132 0
20131 -20133 0
-20131 20132 20133 0
20215 -20135 0
20215 -20136 0
20215 -20137 0
-20215 20135 20136 20137 0
20138 -20139 0
20138 -20140 0
-20138 20139 20140 0
20141 -20142 0
20141 -20143 0
20141 -20144 0
-20141 20142 20143 20144 0
20145 -20146 0
20145 -20147 0
-20145 20146 20147 0
20148 -20149 0
20148 -20150 0
20148 -20151 0
-20148 20149 20150 20151 0
20152 -20153 0
20152 -20154 0
-20152 20153 20154 0
20155 -20156 0
20155 -20157 0
-20155 20156 20157 0
20158 -20159 0
20158 -20160 0
-20158 20159 20160 0
20161 -20162 0
20161 -20163 0
-20161 20162 20163 0
20164 -20165 0
20164 -20166 0
-20164 20165 20166 0
20167 -20168 0
20167 -20169 0
20167 -20170 0
-20167 20168 20169 20170 0
20171 -20172 0
20171 -20173 0
-20171 20172 20173 0
20174 -20175 0
20174 -20176 0
-20174 20175 20176 0
20177 -20178 0
20177 -20179 0
20177 -20180 0
-20177 20178 20179 20180 0
20181 -20182 0
20181 -20183 0
-20181 20182 20183 0
20184 -20185 0
20184 -20186 0
-20184 20185 20186 0
20187 -20188 0
20187 -20189 0
-20187 20188 20189 0
20190 -20191 0
20190 -20192 0
-20190 20191 20192 0
20193 -20194 0
20193 -20195 0
-20193 20194 20195 0
20196 -20197 0
20196 -20198 0
-20196 20197 20198 0
20199 -20200 0
20199 -20201 0
-20199 20200 20201 0
20202 -20203 0
20202 -20204 0
-20202 20203 20204 0
20252 -20206 0
20252 -20207 0
20252 -20208 0
-20252 20206 20207 20208 0
20209 -20210 0
20209 -20211 0
-20209 20210 20211 0
20212 -20213 0
20212 -20214 0
20212 -20215 0
-20212 20213 20214 20215 0
20216 -20217 0
20216 -20218 0
-20216 20217 20218 0
20219 -20220 0
20219 -20221 0
-20219 20220 20221 0
20222 -20223 0
20222 -20224 0
-20222 20223 20224 0
20225 -20226 0
20225 -20227 0
20225 -20228 0
-20225 20226 20227 20228 0
20229 -20230 0
20229 -20231 0
-20229 20230 20231 0
20232 -20233 0
20232 -20234 0
-20232 20233 20234 0
20235 -20236 0
20235 -20237 0
-20235 20236 20237 0
20284 -20239 0
20284 -20240 0
20284 -20241 0
-20284 20239 20240 20241 0
20242 -20243 0
20242 -20244 0
-20242 20243 20244 0
20245 -20246 0
20245 -20247 0
-20245 20246 20247 0
20248 -20249 0
20248 -20250 0
20248 -20251 0
20248 -20252 0
-20248 20249 20250 20251 20252 0
20296 -20254 0
20296 -20255 0
20296 -20256 0
-20296 20254 20255 20256 0
20257 -20258 0
20257 -20259 0
-20257 20258 20259 0
20260 -20261 0
20260 -20262 0
-20260 20261 20262 0
20263 -20264 0
20263 -20265 0
20263 -20266 0
20263 -20267 0
-20263 20264 20265 20266 20267 0
20268 -20269 0
20268 -20270 0
20268 -20271 0
20268 -20272 0
-20268 20269 20270 20271 20272 0
20273 -20274 0
20273 -20275 0
-20273 20274 20275 0
20276 -20277 0
20276 -20278 0
20276 -20279 0
20276 -20280 0
-20276 20277 20278 20279 20280 0
20281 -20282 0
20281 -20283 0
20281 -20284 0
-20281 20282 20283 20284 0
20285 -20286 0
20285 -20287 0
20285 -20288 0
-20285 20286 20287 20288 0
20289 -20290 0
20289 -20291 0
-20289 20290 20291 0
20292 -20293 0
20292 -20294 0
20292 -20295 0
20292 -20296 0
-20292 20293 20294 20295 20296 0
20297 -20298 0
20297 -20299 0
20297 -20300 0
-20297 20298 20299 20300 0
20301 -20302 0
20301 -20303 0
-20301 20302 20303 0
20304 -20305 0
20304 -20306 0
-20304 20305 20306 0
20307 -20308 0
20307 -20309 0
20307 -20310 0
-20307 20308 20309 20310 0
20311 -20312 0
20311 -20313 0
20311 -20314 0
-20311 20312 20313 20314 0
20315 -20316 0
20315 -20317 0
-20315 20316 20317 0
20318 -20319 0
20318 -20320 0
20318 -20321 0
-20318 20319 20320 20321 0
20322 -20323 0
20322 -20324 0
20322 -20325 0
20322 -20326 0
-20322 20323 20324 20325 20326 0
20327 -20328 0
20327 -20329 0
20327 -20330 0
20327 -20331 0
-20327 20328 20329 20330 20331 0
20332 -20333 0
20332 -20334 0
20332 -20335 0
20332 -20336 0
-20332 20333 20334 20335 20336 0
20337 -20338 0
20337 -20339 0
-20337 20338 20339 0
20340 -20341 0
20340 -20342 0
20340 -20343 0
-20340 20341 20342 20343 0
20344 -20345 0
20344 -20346 0
-20344 20345 20346 0
20347 -20348 0
20347 -20349 0
-20347 20348 20349 0
20350 -20351 0
20350 -20352 0
20350 -20353 0
-20350 20351 20352 20353 0
-20355 22264 0
20355 -22264 0
-20357 21829 0
20357 -21829 0
-20359 21831 0
20359 -21831 0
-20361 22085 0
20361 -22085 0
-20363 21885 0
20363 -21885 0
-20365 21733 0
20365 -21733 0
21814 21792 0
-21814 -21792 0
21470 21762 0
-21470 -21762 0
21789 21862 0
-21789 -21862 0
21756 21430 0
-21756 -21430 0
21750 21754 0
-21750 -21754 0
21753 21729 0
-21753 -21729 0
21763 21211 0
-21763 -21211 0
21765 21733 0
-21765 -21733 0
21774 21885 0
-21774 -21885 0
22082 22085 0
-22082 -22085 0
21874 21831 0
-21874 -21831 0
21922 21829 0
-21922 -21829 0
21989 22264 0
-21989 -22264 0
22220 21728 0
-22220 -21728 0
20397 22085 0
-20397 -22085 0
21832 20397 0
-21832 -20397 0
21834 21734 0
-21834 -21734 0
20403 21862 0
-20403 -21862 0
20796 20403 0
-20796 -20403 0
21992 21737 0
-21992 -21737 0
20409 21874 0
-20409 -21874 0
21859 20409 0
-21859 -20409 0
21425 21743 0
-21425 -21743 0
21259 21746 0
-21259 -21746 0
22221 21749 0
-22221 -21749 0
20419 21749 0
-20419 -21749 0
21913 20419 0
-21913 -20419 0
21286 21755 0
-21286 -21755 0
21151 21813 0
-21151 -21813 0
20914 21764 0
-20914 -21764 0
21870 21767 0
-21870 -21767 0
21873 21770 0
-21873 -21770 0
21287 21773 0
-21287 -21773 0
21879 21776 0
-21879 -21776 0
21882 21779 0
-21882 -21779 0
21942 21782 0
-21942 -21782 0
20987 21828 0
-20987 -21828 0
21168 21788 0
-21168 -21788 0
21897 21791 0
-21897 -21791 0
21041 21794 0
-21041 -21794 0
21245 21843 0
-21245 -21843 0
21912 21800 0
-21912 -21800 0
22093 21803 0
-22093 -21803 0
21927 21806 0
-21927 -21806 0
20457 21829 0
-20457 -21829 0
21253 20457 0
-21253 -20457 0
22173 21827 0
-22173 -21827 0
20463 20668 0
-20463 -20668 0
21302 20463 0
-21302 -20463 0
20467 20905 0
-20467 -20905 0
21356 20467 0
-21356 -20467 0
22084 21881 0
-22084 -21881 0
20470 21161 0
-20470 -21161 0
20472 21370 0
-20472 -21370 0
21577 22083 0
-21577 -22083 0
20476 21450 0
-20476 -21450 0
20478 22136 0
-20478 -22136 0
20480 22145 0
-20480 -22145 0
20482 21571 0
-20482 -21571 0
20484 22239 0
-20484 -22239 0
20486 21591 0
-20486 -21591 0
20488 22256 0
-20488 -22256 0
20490 21655 0
-20490 -21655 0
20492 21659 0
-20492 -21659 0
20494 22287 0
-20494 -22287 0
20496 22299 0
-20496 -22299 0
20498 22311 0
-20498 -22311 0
20500 22321 0
-20500 -22321 0
20519 22325 0
-20519 -22325 0
20504 22329 0
-20504 -22329 0
20521 22332 0
-20521 -22332 0
20523 22336 0
-20523 -22336 0
20527 22341 0
-20527 -22341 0
20529 22346 0
-20529 -22346 0
20514 22351 0
-20514 -22351 0
20531 22354 0
-20531 -22354 0
21711 20519 0
-21711 -20519 0
21714 20521 0
-21714 -20521 0
21717 20523 0
-21717 -20523 0
20524 22358 0
-20524 -22358 0
21720 20527 0
-21720 -20527 0
21723 20529 0
-21723 -20529 0
21726 20531 0
-21726 -20531 0
20532 22364 0
-20532 -22364 0
-21825 22085 0
-21825 21831 0
21825 -22085 -21831 0
-21835 22085 0
-21835 21831 0
21835 -22085 -21831 0
-21876 21885 0
-21876 22085 0
-21876 21831 0
21876 -21885 -22085 -21831 0
-21852 21885 0
-21852 21829 0
21852 -21885 -21829 0
-21837 21792 0
-21837 21829 0
21837 -21792 -21829 0
-21937 21792 0
-21937 21829 0
21937 -21792 -21829 0
-21867 21862 0
-21867 21829 0
21867 -21862 -21829 0
-22101 22085 0
-22101 21829 0
22101 -22085 -21829 0
-21811 21762 0
-21811 22264 0
21811 -21762 -22264 0
-21816 21756 0
-21816 21763 0
21816 -21756 -21763 0
-21165 21430 0
-21165 21765 0
-21165 21831 0
21165 -21430 -21765 -21831 0
-21820 21792 0
-21820 21774 0
-21820 21829 0
21820 -21792 -21774 -21829 0
-21855 21763 0
-21855 21765 0
-21855 21774 0
-21855 22264 0
21855 -21763 -21765 -21774 -22264 0
-21880 21774 0
-21880 21829 0
21880 -21774 -21829 0
-21955 21774 0
-21955 22085 0
-21955 22264 0
21955 -21774 -22085 -22264 0
-21871 21774 0
-21871 22085 0
-21871 21831 0
21871 -21774 -22085 -21831 0
-20808 21762 0
-20808 21211 0
-20808 21765 0
-20808 21774 0
20808 -21762 -21211 -21765 -21774 0
-21819 21789 0
-21819 21885 0
-21819 22082 0
21819 -21789 -21885 -22082 0
-21822 22082 0
-21822 21829 0
21822 -22082 -21829 0
-21841 21756 0
-21841 22082 0
21841 -21756 -22082 0
-21964 21765 0
-21964 21774 0
-21964 22082 0
21964 -21765 -21774 -22082 0
-21169 21733 0
-21169 21885 0
-21169 22082 0
21169 -21733 -21885 -22082 0
-21826 21774 0
-21826 21874 0
21826 -21774 -21874 0
-21940 21762 0
-21940 21874 0
-21940 22264 0
21940 -21762 -21874 -22264 0
-21973 21774 0
-21973 21874 0
-21973 21829 0
21973 -21774 -21874 -21829 0
-21961 21874 0
-21961 22264 0
21961 -21874 -22264 0
-21995 21470 0
-21995 22085 0
-21995 21874 0
21995 -21470 -22085 -21874 0
-21844 21774 0
-21844 21874 0
21844 -21774 -21874 0
-22235 21885 0
-22235 21829 0
-22235 21734 0
22235 -21885 -21829 -21734 0
-21838 21831 0
-21838 21922 0
21838 -21831 -21922 0
-21847 21211 0
-21847 21922 0
21847 -21211 -21922 0
-20904 21765 0
-20904 22085 0
-20904 21922 0
20904 -21765 -22085 -21922 0
-21898 22082 0
-21898 21922 0
21898 -22082 -21922 0
-21934 21774 0
-21934 21922 0
21934 -21774 -21922 0
-22028 21831 0
-22028 21922 0
22028 -21831 -21922 0
-21928 22085 0
-21928 21922 0
21928 -22085 -21922 0
-21946 21831 0
-21946 21922 0
21946 -21831 -21922 0
-21894 21831 0
-21894 21922 0
21894 -21831 -21922 0
-22263 21831 0
-22263 21922 0
22263 -21831 -21922 0
-20668 21885 0
-20668 21737 0
20668 -21885 -21737 0
-21949 21737 0
-21949 22264 0
21949 -21737 -22264 0
-21853 21765 0
-21853 21989 0
21853 -21765 -21989 0
-21856 21885 0
-21856 21989 0
21856 -21885 -21989 0
-22025 21765 0
-22025 22085 0
-22025 21874 0
-22025 21989 0
22025 -21765 -22085 -21874 -21989 0
-22031 21774 0
-22031 22085 0
-22031 21922 0
-22031 21989 0
22031 -21774 -22085 -21922 -21989 0
-21907 21774 0
-21907 21922 0
-21907 21989 0
21907 -21774 -21922 -21989 0
-22061 21774 0
-22061 22085 0
-22061 21874 0
-22061 21989 0
22061 -21774 -22085 -21874 -21989 0
-21910 21753 0
-21910 21922 0
-21910 21989 0
21910 -21753 -21922 -21989 0
-22037 21774 0
-22037 21922 0
-22037 21989 0
22037 -21774 -21922 -21989 0
-21925 21430 0
-21925 21874 0
-21925 21989 0
21925 -21430 -21874 -21989 0
-21919 21874 0
-21919 21989 0
21919 -21874 -21989 0
-22070 21734 0
-22070 21989 0
22070 -21734 -21989 0
-21931 21774 0
-21931 22085 0
-21931 21922 0
-21931 21989 0
21931 -21774 -22085 -21922 -21989 0
-21916 21922 0
-21916 21989 0
21916 -21922 -21989 0
-22079 21731 0
-22079 21989 0
-22079 21734 0
22079 -21731 -21989 -21734 0
-22046 21763 0
-22046 21922 0
-22046 21989 0
22046 -21763 -21922 -21989 0
-22099 21989 0
-22099 21737 0
22099 -21989 -21737 0
-22212 21733 0
-22212 21989 0
22212 -21733 -21989 0
-21983 21740 0
-21983 21829 0
21983 -21740 -21829 0
-21858 21746 0
-21858 21922 0
21858 -21746 -21922 0
-21865 21874 0
-21865 21752 0
21865 -21874 -21752 0
-21868 21755 0
-21868 21922 0
21868 -21755 -21922 0
-21889 21758 0
-21889 21922 0
-21889 21989 0
21889 -21758 -21922 -21989 0
-22067 21764 0
-22067 21753 0
-22067 22085 0
-22067 21989 0
22067 -21764 -21753 -22085 -21989 0
-21877 21773 0
-21877 21874 0
21877 -21773 -21874 0
-21892 21829 0
-21892 21776 0
21892 -21829 -21776 0
-21886 21782 0
-21886 21829 0
21886 -21782 -21829 0
-21986 21885 0
-21986 21828 0
21986 -21885 -21828 0
-21888 21829 0
-21888 21828 0
21888 -21829 -21828 0
-21891 21788 0
-21891 21922 0
21891 -21788 -21922 0
-21895 21829 0
-21895 21788 0
21895 -21829 -21788 0
-21979 21763 0
-21979 21774 0
-21979 22264 0
-21979 21834 0
21979 -21763 -21774 -22264 -21834 0
-22284 21885 0
-22284 21989 0
-22284 21834 0
22284 -21885 -21989 -21834 0
-21904 22085 0
-21904 22264 0
-21904 21794 0
21904 -22085 -22264 -21794 0
-22265 21885 0
-22265 20796 0
22265 -21885 -20796 0
-22151 22085 0
-22151 21843 0
22151 -22085 -21843 0
-22010 21211 0
-22010 22264 0
-22010 21992 0
22010 -21211 -22264 -21992 0
-22001 22085 0
-22001 21989 0
-22001 21992 0
-22001 20808 0
22001 -22085 -21989 -21992 -20808 0
-22004 21774 0
-22004 22082 0
-22004 21992 0
22004 -21774 -22082 -21992 0
-22073 22085 0
-22073 21992 0
22073 -22085 -21992 0
-21903 21430 0
-21903 21989 0
-21903 21992 0
21903 -21430 -21989 -21992 0
-22186 21763 0
-22186 22085 0
-22186 21989 0
-22186 21992 0
22186 -21763 -22085 -21989 -21992 0
-22134 22085 0
-22134 22264 0
-22134 21992 0
22134 -22085 -22264 -21992 0
-21129 21765 0
-21129 21774 0
-21129 21992 0
21129 -21765 -21774 -21992 0
-21915 21800 0
-21915 22082 0
21915 -21800 -22082 0
-22088 21834 0
-22088 21800 0
22088 -21834 -21800 0
-21918 21803 0
-21918 22082 0
21918 -21803 -22082 0
-21976 21806 0
-21976 21874 0
21976 -21806 -21874 0
-21951 21774 0
-21951 21831 0
-21951 21425 0
21951 -21774 -21831 -21425 0
-22179 21922 0
-22179 21425 0
22179 -21922 -21425 0
-22342 21885 0
-22342 21831 0
-22342 21425 0
22342 -21885 -21831 -21425 0
-21930 21809 0
-21930 21885 0
-21930 21829 0
21930 -21809 -21885 -21829 0
-22076 21259 0
-22076 21734 0
22076 -21259 -21734 0
-21933 21885 0
-21933 21829 0
-21933 22221 0
21933 -21885 -21829 -22221 0
-21958 21774 0
-21958 22082 0
-21958 21922 0
-21958 22221 0
21958 -21774 -22082 -21922 -22221 0
-21936 21874 0
-21936 22221 0
21936 -21874 -22221 0
-21939 21885 0
-21939 21989 0
-21939 22221 0
21939 -21885 -21989 -22221 0
-21943 22085 0
-21943 22221 0
21943 -22085 -22221 0
-22033 21425 0
-22033 22221 0
22033 -21425 -22221 0
-22143 21774 0
-22143 22082 0
-22143 21992 0
-22143 22221 0
22143 -21774 -22082 -21992 -22221 0
-22176 21922 0
-22176 21425 0
-22176 22221 0
22176 -21922 -21425 -22221 0
-22140 21989 0
-22140 21834 0
-22140 22221 0
22140 -21989 -21834 -22221 0
-22107 21770 0
-22107 22221 0
22107 -21770 -22221 0
-22021 21989 0
-22021 21286 0
-22021 20904 0
22021 -21989 -21286 -20904 0
-20905 21430 0
-20905 22264 0
-20905 21812 0
20905 -21430 -22264 -21812 0
-21945 21815 0
-21945 21874 0
21945 -21815 -21874 0
-21948 21989 0
-21948 20914 0
21948 -21989 -20914 0
-21952 22085 0
-21952 21829 0
-21952 21870 0
21952 -22085 -21829 -21870 0
-21998 21789 0
-21998 21733 0
-21998 21870 0
21998 -21789 -21733 -21870 0
-21954 21789 0
-21954 21989 0
-21954 21873 0
21954 -21789 -21989 -21873 0
-22012 22264 0
-22012 21873 0
22012 -22264 -21873 0
-22054 21989 0
-22054 21873 0
22054 -21989 -21873 0
-22015 21743 0
-22015 21873 0
22015 -21743 -21873 0
-21957 21862 0
-21957 21287 0
21957 -21862 -21287 0
-21960 21989 0
-21960 21287 0
21960 -21989 -21287 0
-21963 21829 0
-21963 21287 0
21963 -21829 -21287 0
-21967 21885 0
-21967 21879 0
21967 -21885 -21879 0
-21970 21885 0
-21970 21829 0
-21970 21879 0
21970 -21885 -21829 -21879 0
-22160 21885 0
-22160 21829 0
-22160 21879 0
22160 -21885 -21829 -21879 0
-22261 21885 0
-22261 21829 0
-22261 21879 0
22261 -21885 -21829 -21879 0
-22238 21765 0
-22238 21831 0
-22238 21818 0
22238 -21765 -21831 -21818 0
-22227 21874 0
-22227 21821 0
22227 -21874 -21821 0
-21966 21774 0
-21966 22082 0
-21966 21882 0
21966 -21774 -22082 -21882 0
-21969 21774 0
-21969 22082 0
-21969 21882 0
21969 -21774 -22082 -21882 0
-21972 21873 0
-21972 21942 0
21972 -21873 -21942 0
-21975 22264 0
-21975 21942 0
21975 -22264 -21942 0
-21978 21211 0
-21978 20987 0
-21978 21287 0
21978 -21211 -20987 -21287 0
-22039 21791 0
-22039 20987 0
22039 -21791 -20987 0
-22157 21827 0
-22157 22085 0
22157 -21827 -22085 0
-21985 21989 0
-21985 21168 0
21985 -21989 -21168 0
-22006 21922 0
-22006 21168 0
22006 -21922 -21168 0
-22189 21922 0
-22189 21989 0
-22189 21168 0
22189 -21922 -21989 -21168 0
-22320 21830 0
-22320 21862 0
-22320 21885 0
-22320 21829 0
22320 -21830 -21862 -21885 -21829 0
-22165 21833 0
-22165 21774 0
-22165 21829 0
22165 -21833 -21774 -21829 0
-21988 22082 0
-21988 21041 0
21988 -22082 -21041 0
-21991 21814 0
-21991 21041 0
21991 -21814 -21041 0
-22057 22085 0
-22057 21041 0
22057 -22085 -21041 0
-21994 22082 0
-21994 21041 0
21994 -22082 -21041 0
-21997 21753 0
-21997 21765 0
-21997 21774 0
-21997 21041 0
21997 -21753 -21765 -21774 -21041 0
-22000 21885 0
-22000 22082 0
-22000 21041 0
22000 -21885 -22082 -21041 0
-22003 21792 0
-22003 21813 0
-22003 21885 0
-22003 21041 0
22003 -21792 -21813 -21885 -21041 0
-22018 22082 0
-22018 21041 0
22018 -22082 -21041 0
-22104 21774 0
-22104 21041 0
22104 -21774 -21041 0
-22007 21900 0
-22007 21774 0
22007 -21900 -21774 0
-22009 21792 0
-22009 21831 0
-22009 21245 0
22009 -21792 -21831 -21245 0
-22013 21774 0
-22013 22085 0
-22013 21245 0
22013 -21774 -22085 -21245 0
-22064 21831 0
-22064 21245 0
22064 -21831 -21245 0
-22016 21774 0
-22016 21245 0
22016 -21774 -21245 0
-22153 21874 0
-22153 21245 0
22153 -21874 -21245 0
-22118 21831 0
-22118 21245 0
22118 -21831 -21245 0
-22209 21767 0
-22209 22085 0
-22209 21245 0
22209 -21767 -22085 -21245 0
-22170 22085 0
-22170 21831 0
-22170 21245 0
22170 -22085 -21831 -21245 0
-22115 21774 0
-22115 21874 0
-22115 21245 0
22115 -21774 -21874 -21245 0
-22196 21762 0
-22196 22085 0
-22196 21245 0
22196 -21762 -22085 -21245 0
-22090 22082 0
-22090 21245 0
-22090 22221 0
-22090 21882 0
22090 -22082 -21245 -22221 -21882 0
-22224 21774 0
-22224 21874 0
-22224 21245 0
22224 -21774 -21874 -21245 0
-22250 22085 0
-22250 21831 0
-22250 21245 0
22250 -22085 -21831 -21245 0
-22232 21245 0
-22232 21782 0
22232 -21245 -21782 0
-22217 22085 0
-22217 21874 0
-22217 21245 0
22217 -22085 -21874 -21245 0
-22240 21774 0
-22240 21874 0
-22240 21245 0
22240 -21774 -21874 -21245 0
-22247 21824 0
-22247 21245 0
22247 -21824 -21245 0
-22316 21834 0
-22316 21245 0
22316 -21834 -21245 0
-22130 21839 0
-22130 21874 0
22130 -21839 -21874 0
-22096 22085 0
-22096 21842 0
22096 -22085 -21842 0
-22019 21845 0
-22019 21874 0
22019 -21845 -21874 0
-22241 21848 0
-22241 21885 0
22241 -21848 -21885 0
-22323 21885 0
-22323 21848 0
22323 -21885 -21848 0
-22352 21425 0
-22352 22221 0
-22352 21129 0
22352 -21425 -22221 -21129 0
-22022 21862 0
-22022 21733 0
-22022 22082 0
-22022 21912 0
22022 -21862 -21733 -22082 -21912 0
-22024 21733 0
-22024 21885 0
-22024 21912 0
-22024 21942 0
22024 -21733 -21885 -21912 -21942 0
-22027 21874 0
-22027 21912 0
22027 -21874 -21912 0
-22030 21789 0
-22030 21885 0
-22030 21912 0
22030 -21789 -21885 -21912 0
-22034 21430 0
-22034 21885 0
-22034 21912 0
-22034 21151 0
22034 -21430 -21885 -21912 -21151 0
-22036 21211 0
-22036 21912 0
22036 -21211 -21912 0
-22040 21874 0
-22040 21912 0
22040 -21874 -21912 0
-22048 21885 0
-22048 21912 0
22048 -21885 -21912 0
-21161 21912 0
-21161 21287 0
-21161 21813 0
-21161 21165 0
21161 -21912 -21287 -21813 -21165 0
-22146 21912 0
-22146 21168 0
-22146 21169 0
22146 -21912 -21168 -21169 0
-22043 21874 0
-22043 21912 0
22043 -21874 -21912 0
-22167 22085 0
-22167 21831 0
-22167 21912 0
22167 -22085 -21831 -21912 0
-22199 21470 0
-22199 21874 0
-22199 21912 0
22199 -21470 -21874 -21912 0
-22045 21812 0
-22045 21430 0
-22045 21912 0
22045 -21812 -21430 -21912 0
-22283 22085 0
-22283 21912 0
22283 -22085 -21912 0
-22049 21470 0
-22049 21851 0
22049 -21470 -21851 0
-22051 21756 0
-22051 22093 0
22051 -21756 -22093 0
-22127 21922 0
-22127 22093 0
22127 -21922 -22093 0
-22112 21922 0
-22112 22093 0
22112 -21922 -22093 0
-22309 22085 0
-22309 21922 0
-22309 22093 0
22309 -22085 -21922 -22093 0
-22255 21922 0
-22255 22093 0
22255 -21922 -22093 0
-22055 21756 0
-22055 21854 0
22055 -21756 -21854 0
-22058 21211 0
-22058 21992 0
-22058 21927 0
22058 -21211 -21992 -21927 0
-22060 21922 0
-22060 21927 0
22060 -21922 -21927 0
-22063 21733 0
-22063 21927 0
22063 -21733 -21927 0
-22066 21733 0
-22066 21831 0
-22066 21927 0
22066 -21733 -21831 -21927 0
-22069 21874 0
-22069 21927 0
22069 -21874 -21927 0
-22072 21794 0
-22072 21927 0
22072 -21794 -21927 0
-22075 21831 0
-22075 21927 0
22075 -21831 -21927 0
-22078 21831 0
-22078 21927 0
22078 -21831 -21927 0
-22124 21733 0
-22124 21885 0
-22124 21927 0
22124 -21733 -21885 -21927 0
-22193 21857 0
-22193 22082 0
22193 -21857 -22082 0
-22081 21860 0
-22081 21245 0
22081 -21860 -21245 0
-22094 21863 0
-22094 21922 0
22094 -21863 -21922 0
-22110 21885 0
-22110 21866 0
22110 -21885 -21866 0
-22334 21253 0
-22334 21733 0
-22334 22085 0
-22334 21989 0
22334 -21253 -21733 -22085 -21989 0
-22278 21869 0
-22278 21259 0
22278 -21869 -21259 0
-22184 21872 0
-22184 22264 0
22184 -21872 -22264 0
-22206 21733 0
-22206 21989 0
-22206 21875 0
22206 -21733 -21989 -21875 0
-22228 21878 0
-22228 21752 0
22228 -21878 -21752 0
-22324 21733 0
-22324 21989 0
-22324 21884 0
22324 -21733 -21989 -21884 0
-22087 22085 0
-22087 22173 0
22087 -22085 -22173 0
-22137 21733 0
-22137 22173 0
-22137 21287 0
22137 -21733 -22173 -21287 0
-22121 22082 0
-22121 22173 0
22121 -22082 -22173 0
-22244 22173 0
-22244 21286 0
-22244 21287 0
22244 -22173 -21286 -21287 0
-22091 21887 0
-22091 22085 0
22091 -21887 -22085 0
-22095 21885 0
-22095 21890 0
22095 -21885 -21890 0
-22098 22082 0
-22098 21893 0
22098 -22082 -21893 0
-22102 21765 0
-22102 21896 0
22102 -21765 -21896 0
-22105 21733 0
-22105 21302 0
22105 -21733 -21302 0
-22108 21899 0
-22108 21774 0
22108 -21899 -21774 0
-22270 21885 0
-22270 21902 0
22270 -21885 -21902 0
-22183 21756 0
-22183 21905 0
22183 -21756 -21905 0
-22113 21908 0
-22113 21874 0
22113 -21908 -21874 0
-22194 21911 0
-22194 21874 0
22194 -21911 -21874 0
-22116 21914 0
-22116 21885 0
-22116 21831 0
22116 -21914 -21885 -21831 0
-22215 21917 0
-22215 21733 0
-22215 21922 0
22215 -21917 -21733 -21922 0
-22119 21920 0
-22119 21874 0
22119 -21920 -21874 0
-22337 21923 0
-22337 21873 0
22337 -21923 -21873 0
-22300 21926 0
-22300 21870 0
22300 -21926 -21870 0
-22122 21929 0
-22122 21874 0
22122 -21929 -21874 0
-22125 21932 0
-22125 21765 0
-22125 22085 0
-22125 21989 0
22125 -21932 -21765 -22085 -21989 0
-22128 21935 0
-22128 21989 0
22128 -21935 -21989 0
-22203 21765 0
-22203 21829 0
-22203 21938 0
22203 -21765 -21829 -21938 0
-22131 21789 0
-22131 21989 0
-22131 21941 0
22131 -21789 -21989 -21941 0
-22132 22085 0
-22132 21356 0
22132 -22085 -21356 0
-22158 21944 0
-22158 22264 0
22158 -21944 -22264 0
-22135 21947 0
-22135 22082 0
22135 -21947 -22082 0
-22308 21950 0
-22308 21749 0
22308 -21950 -21749 0
-22138 21953 0
-22138 21765 0
-22138 21874 0
22138 -21953 -21765 -21874 0
-21370 21956 0
-21370 21765 0
-21370 21874 0
-21370 21989 0
21370 -21956 -21765 -21874 -21989 0
-22141 21756 0
-22141 21959 0
22141 -21756 -21959 0
-22163 21962 0
-22163 22221 0
22163 -21962 -22221 0
-22144 21965 0
-22144 21728 0
-22144 21829 0
22144 -21965 -21728 -21829 0
-22276 21752 0
-22276 21968 0
-22276 21989 0
22276 -21752 -21968 -21989 0
-22350 21733 0
-22350 21989 0
-22350 21971 0
22350 -21733 -21989 -21971 0
-22333 21974 0
-22333 21873 0
22333 -21974 -21873 0
-22147 21977 0
-22147 21430 0
-22147 21765 0
-22147 21922 0
22147 -21977 -21430 -21765 -21922 0
-22150 21774 0
-22150 21980 0
22150 -21774 -21980 0
-22149 21984 0
-22149 21922 0
22149 -21984 -21922 0
-22154 21987 0
-22154 21885 0
22154 -21987 -21885 0
-22156 21989 0
-22156 21990 0
-22156 22221 0
22156 -21989 -21990 -22221 0
-22161 21774 0
-22161 22082 0
-22161 21990 0
22161 -21774 -22082 -21990 0
-22297 21774 0
-22297 21989 0
-22297 21993 0
22297 -21774 -21989 -21993 0
-22312 21814 0
-22312 21996 0
-22312 21425 0
22312 -21814 -21996 -21425 0
-22343 21789 0
-22343 21999 0
22343 -21789 -21999 0
-22292 21430 0
-22292 22002 0
-22292 22264 0
22292 -21430 -22002 -22264 0
-22164 21765 0
-22164 22005 0
-22164 22082 0
22164 -21765 -22005 -22082 0
-22168 22008 0
-22168 22082 0
22168 -22008 -22082 0
-22348 22011 0
-22348 21874 0
22348 -22011 -21874 0
-22171 22014 0
-22171 21874 0
22171 -22014 -21874 0
-22281 21774 0
-22281 22264 0
-22281 22017 0
22281 -21774 -22264 -22017 0
-21450 22020 0
-21450 21885 0
-21450 21831 0
21450 -22020 -21885 -21831 0
-22349 21862 0
-22349 22023 0
22349 -21862 -22023 0
-22174 22026 0
-22174 21774 0
22174 -22026 -21774 0
-22296 22085 0
-22296 22026 0
22296 -22085 -22026 0
-22177 21470 0
-22177 22029 0
22177 -21470 -22029 0
-22180 21814 0
-22180 22032 0
22180 -21814 -22032 0
-22182 21470 0
-22182 22035 0
22182 -21470 -22035 0
-22187 22038 0
-22187 22082 0
22187 -22038 -22082 0
-22190 22041 0
-22190 21774 0
22190 -22041 -21774 0
-22192 22044 0
-22192 22085 0
22192 -22044 -22085 0
-22197 22047 0
-22197 22082 0
22197 -22047 -22082 0
-22200 22050 0
-22200 21774 0
22200 -22050 -21774 0
-22355 22053 0
-22355 21834 0
22355 -22053 -21834 0
-22294 21774 0
-22294 22056 0
22294 -21774 -22056 0
-22253 21763 0
-22253 22059 0
22253 -21763 -22059 0
-22202 22062 0
-22202 21885 0
22202 -22062 -21885 0
-22205 21789 0
-22205 21885 0
-22205 22065 0
22205 -21789 -21885 -22065 0
-22208 22068 0
-22208 21873 0
22208 -22068 -21873 0
-22328 21733 0
-22328 22071 0
-22328 21885 0
22328 -21733 -22071 -21885 0
-22211 22074 0
-22211 21829 0
22211 -22074 -21829 0
-22214 22077 0
-22214 21829 0
22214 -22077 -21829 0
-22218 22080 0
-22218 21831 0
22218 -22080 -21831 0
-22222 22083 0
-22222 21774 0
22222 -22083 -21774 0
-22225 22086 0
-22225 21885 0
22225 -22086 -21885 0
-22273 21774 0
-22273 22089 0
22273 -21774 -22089 0
-22258 21765 0
-22258 22092 0
22258 -21765 -22092 0
-22231 21885 0
-22231 22097 0
22231 -21885 -22097 0
-22234 22100 0
-22234 21831 0
22234 -22100 -21831 0
-22237 22103 0
-22237 22085 0
22237 -22103 -22085 0
-22242 21765 0
-22242 22106 0
22242 -21765 -22106 0
-22245 22111 0
-22245 21774 0
-22245 22082 0
22245 -22111 -21774 -22082 0
-22301 21733 0
-22301 22114 0
22301 -21733 -22114 0
-22248 21885 0
-22248 22117 0
22248 -21885 -22117 0
-22268 21862 0
-22268 22120 0
22268 -21862 -22120 0
-22326 21789 0
-22326 22123 0
22326 -21789 -22123 0
-22251 22126 0
-22251 22082 0
22251 -22126 -22082 0
-22254 21885 0
-22254 22129 0
22254 -21885 -22129 0
-22257 22133 0
-22257 21885 0
22257 -22133 -21885 0
-22280 22139 0
-22280 21922 0
22280 -22139 -21922 0
-21571 22142 0
-21571 21765 0
-21571 21989 0
21571 -22142 -21765 -21989 0
-22260 21774 0
-22260 21577 0
22260 -21774 -21577 0
-22305 21733 0
-22305 22152 0
22305 -21733 -22152 0
-22285 22155 0
-22285 21774 0
22285 -22155 -21774 0
-21658 22159 0
-21658 21754 0
-21658 21753 0
21658 -22159 -21754 -21753 0
-22289 22162 0
-22289 21989 0
22289 -22162 -21989 0
-21591 22166 0
-21591 21765 0
-21591 21774 0
21591 -22166 -21765 -21774 0
-22345 21733 0
-22345 22169 0
22345 -21733 -22169 0
-22362 22172 0
-22362 22082 0
22362 -22172 -22082 0
-22269 22175 0
-22269 21874 0
22269 -22175 -21874 0
-22291 22178 0
-22291 21831 0
22291 -22178 -21831 0
-22272 22181 0
-22272 22085 0
22272 -22181 -22085 0
-22307 21774 0
-22307 22185 0
22307 -21774 -22185 0
-22275 22188 0
-22275 22082 0
22275 -22188 -22082 0
-22279 21885 0
-22279 22191 0
22279 -21885 -22191 0
-22367 22195 0
-22367 21831 0
22367 -22195 -21831 0
-22286 21862 0
-22286 22198 0
22286 -21862 -22198 0
-22339 21789 0
-22339 22201 0
22339 -21789 -22201 0
-22313 22204 0
-22313 21829 0
22313 -22204 -21829 0
-22330 22207 0
-22330 21733 0
22330 -22207 -21733 0
-22360 21885 0
-22360 22210 0
22360 -21885 -22210 0
-22288 21885 0
-22288 22213 0
22288 -21885 -22213 0
-22293 21885 0
-22293 22216 0
22293 -21885 -22216 0
-22365 22223 0
-22365 21733 0
22365 -22223 -21733 0
-22302 21765 0
-22302 22226 0
22302 -21765 -22226 0
-22356 21733 0
-22356 22230 0
22356 -21733 -22230 0
-22304 22233 0
-22304 21989 0
22304 -22233 -21989 0
-21655 21765 0
-21655 21989 0
-21655 21658 0
21655 -21765 -21989 -21658 0
-21659 22236 0
-21659 21989 0
21659 -22236 -21989 0
-22314 21765 0
-22314 22243 0
22314 -21765 -22243 0
-22340 21733 0
-22340 22246 0
22340 -21733 -22246 0
-22317 21765 0
-22317 22249 0
22317 -21765 -22249 0
-22319 22259 0
-22319 22221 0
22319 -22259 -22221 0
-22322 21765 0
-22322 22262 0
22322 -21765 -22262 0
-22327 22271 0
-22327 21765 0
22327 -22271 -21765 0
-22331 22274 0
-22331 21765 0
22331 -22274 -21765 0
-22335 21765 0
-22335 22277 0
22335 -21765 -22277 0
-22338 22282 0
-22338 21765 0
22338 -22282 -21765 0
-22344 22290 0
-22344 21765 0
22344 -22290 -21765 0
-22347 22295 0
-22347 21765 0
22347 -22295 -21765 0
-22353 22303 0
-22353 21862 0
22353 -22303 -21862 0
-22357 21765 0
-22357 22306 0
22357 -21765 -22306 0
-22359 22315 0
-22359 21774 0
22359 -22315 -21774 0
-22363 22318 0
-22363 21989 0
22363 -22318 -21989 0
-22366 21765 0
-22366 22361 0
22366 -21765 -22361 0
-22379 21711 0
-22379 21727 0
22379 -21711 -21727 0
-22373 21714 0
-22373 21727 0
22373 -21714 -21727 0
-22377 21717 0
-22377 21727 0
22377 -21717 -21727 0
-22369 21720 0
-22369 21727 0
22369 -21720 -21727 0
-22371 21723 0
-22371 21727 0
22371 -21723 -21727 0
-22375 21726 0
-22375 21727 0
22375 -21726 -21727 0
21728 -21729 0
21728 -21754 0
-21728 21729 21754 0
21731 -21862 0
21731 -21733 0
-21731 21862 21733 0
21734 -22085 0
21734 -21831 0
-21734 22085 21831 0
21737 -21831 0
21737 -21829 0
-21737 21831 21829 0
21740 -21792 0
21740 -22264 0
-21740 21792 22264 0
21743 -22085 0
21743 -22264 0
-21743 22085 22264 0
21746 -21789 0
21746 -22264 0
-21746 21789 22264 0
21749 -21750 0
21749 -21753 0
-21749 21750 21753 0
21752 -21753 0
21752 -21754 0
-21752 21753 21754 0
21755 -21756 0
21755 -21763 0
-21755 21756 21763 0
21758 -21763 0
21758 -21831 0
-21758 21763 21831 0
21813 -21762 0
21813 -21763 0
-21813 21762 21763 0
21764 -21765 0
21764 -21831 0
-21764 21765 21831 0
21767 -21774 0
21767 -21831 0
-21767 21774 21831 0
21770 -21774 0
21770 -21829 0
-21770 21774 21829 0
21773 -21774 0
21773 -22082 0
-21773 21774 22082 0
21776 -22082 0
21776 -21862 0
-21776 22082 21862 0
21779 -21792 0
21779 -21874 0
-21779 21792 21874 0
21782 -21874 0
21782 -22085 0
-21782 21874 22085 0
21828 -21874 0
21828 -22264 0
-21828 21874 22264 0
21788 -21789 0
21788 -21874 0
-21788 21789 21874 0
21791 -21792 0
21791 -21922 0
-21791 21792 21922 0
21794 -21874 0
21794 -21922 0
-21794 21874 21922 0
21843 -21922 0
21843 -22264 0
-21843 21922 22264 0
21800 -21922 0
21800 -21989 0
-21800 21922 21989 0
21803 -21874 0
21803 -21989 0
-21803 21874 21989 0
21806 -22085 0
21806 -21989 0
-21806 22085 21989 0
21809 -22085 0
21809 -21811 0
-21809 22085 21811 0
21812 -21813 0
21812 -21814 0
-21812 21813 21814 0
21815 -21816 0
21815 -21829 0
-21815 21816 21829 0
21818 -21819 0
21818 -21820 0
-21818 21819 21820 0
21821 -21822 0
21821 -22264 0
-21821 21822 22264 0
21824 -21825 0
21824 -21826 0
-21824 21825 21826 0
21827 -21828 0
21827 -21829 0
-21827 21828 21829 0
21830 -21831 0
21830 -21832 0
-21830 21831 21832 0
21833 -21834 0
21833 -21835 0
-21833 21834 21835 0
21900 -21837 0
21900 -21838 0
-21900 21837 21838 0
21839 -21843 0
21839 -21841 0
-21839 21843 21841 0
21842 -21843 0
21842 -21844 0
-21842 21843 21844 0
21845 -22085 0
21845 -21847 0
-21845 22085 21847 0
21848 -21992 0
21848 -22082 0
-21848 21992 22082 0
21851 -21852 0
21851 -21853 0
-21851 21852 21853 0
21854 -21855 0
21854 -21856 0
-21854 21855 21856 0
21857 -21858 0
21857 -21859 0
-21857 21858 21859 0
21860 -22221 0
21860 -21862 0
-21860 22221 21862 0
21863 -22264 0
21863 -21865 0
-21863 22264 21865 0
21866 -21867 0
21866 -21868 0
-21866 21867 21868 0
21869 -21870 0
21869 -21871 0
-21869 21870 21871 0
21872 -21873 0
21872 -21874 0
-21872 21873 21874 0
21875 -21876 0
21875 -21877 0
-21875 21876 21877 0
21878 -21879 0
21878 -21880 0
-21878 21879 21880 0
21881 -21882 0
21881 -21922 0
-21881 21882 21922 0
21884 -21885 0
21884 -21886 0
-21884 21885 21886 0
21887 -21888 0
21887 -21889 0
-21887 21888 21889 0
21890 -21891 0
21890 -21892 0
-21890 21891 21892 0
21893 -21894 0
21893 -21895 0
-21893 21894 21895 0
21896 -21897 0
21896 -21898 0
-21896 21897 21898 0
21899 -21900 0
21899 -22085 0
-21899 21900 22085 0
21902 -21903 0
21902 -21904 0
-21902 21903 21904 0
21905 -21912 0
21905 -21907 0
-21905 21912 21907 0
21908 -21912 0
21908 -21910 0
-21908 21912 21910 0
21911 -21912 0
21911 -21913 0
-21911 21912 21913 0
21914 -21915 0
21914 -21916 0
-21914 21915 21916 0
21917 -21918 0
21917 -21919 0
-21917 21918 21919 0
21920 -21927 0
21920 -21922 0
-21920 21927 21922 0
21923 -21927 0
21923 -21925 0
-21923 21927 21925 0
21926 -21927 0
21926 -21928 0
-21926 21927 21928 0
21929 -21930 0
21929 -21931 0
-21929 21930 21931 0
21932 -21933 0
21932 -21934 0
-21932 21933 21934 0
21935 -21936 0
21935 -21937 0
-21935 21936 21937 0
21938 -21939 0
21938 -21940 0
-21938 21939 21940 0
21941 -21942 0
21941 -21943 0
-21941 21942 21943 0
21944 -21945 0
21944 -21946 0
-21944 21945 21946 0
21947 -21948 0
21947 -21949 0
-21947 21948 21949 0
21950 -21951 0
21950 -21952 0
-21950 21951 21952 0
21953 -21954 0
21953 -21955 0
-21953 21954 21955 0
21956 -21957 0
21956 -21958 0
-21956 21957 21958 0
21959 -21960 0
21959 -21961 0
-21959 21960 21961 0
21962 -21963 0
21962 -21964 0
-21962 21963 21964 0
21965 -21966 0
21965 -21967 0
-21965 21966 21967 0
21968 -21969 0
21968 -21970 0
-21968 21969 21970 0
21971 -21972 0
21971 -21973 0
-21971 21972 21973 0
21974 -21975 0
21974 -21976 0
-21974 21975 21976 0
21977 -21978 0
21977 -21979 0
-21977 21978 21979 0
21980 -22173 0
21980 -22085 0
21980 -21983 0
-21980 22173 22085 21983 0
21984 -21985 0
21984 -21986 0
-21984 21985 21986 0
21987 -21988 0
21987 -21989 0
-21987 21988 21989 0
21990 -21991 0
21990 -21992 0
-21990 21991 21992 0
21993 -21994 0
21993 -21995 0
-21993 21994 21995 0
21996 -21997 0
21996 -21998 0
-21996 21997 21998 0
21999 -22000 0
21999 -22001 0
-21999 22000 22001 0
22002 -22003 0
22002 -22004 0
-22002 22003 22004 0
22005 -22006 0
22005 -22007 0
-22005 22006 22007 0
22008 -22009 0
22008 -22010 0
-22008 22009 22010 0
22011 -22012 0
22011 -22013 0
-22011 22012 22013 0
22014 -22015 0
22014 -22016 0
-22014 22015 22016 0
22017 -22018 0
22017 -22019 0
-22017 22018 22019 0
22020 -22021 0
22020 -22022 0
-22020 22021 22022 0
22023 -22024 0
22023 -22025 0
-22023 22024 22025 0
22026 -22027 0
22026 -22028 0
-22026 22027 22028 0
22029 -22030 0
22029 -22031 0
-22029 22030 22031 0
22032 -22033 0
22032 -22034 0
-22032 22033 22034 0
22035 -22036 0
22035 -22037 0
-22035 22036 22037 0
22038 -22039 0
22038 -22040 0
-22038 22039 22040 0
22041 -22173 0
22041 -22043 0
-22041 22173 22043 0
22044 -22045 0
22044 -22046 0
-22044 22045 22046 0
22047 -22048 0
22047 -22049 0
-22047 22048 22049 0
22050 -22051 0
22050 -22085 0
-22050 22051 22085 0
22053 -22054 0
22053 -22055 0
-22053 22054 22055 0
22056 -22057 0
22056 -22058 0
-22056 22057 22058 0
22059 -22060 0
22059 -22061 0
-22059 22060 22061 0
22062 -22063 0
22062 -22064 0
-22062 22063 22064 0
22065 -22066 0
22065 -22067 0
-22065 22066 22067 0
22068 -22069 0
22068 -22070 0
-22068 22069 22070 0
22071 -22072 0
22071 -22073 0
-22071 22072 22073 0
22074 -22075 0
22074 -22076 0
-22074 22075 22076 0
22077 -22078 0
22077 -22079 0
-22077 22078 22079 0
22080 -22081 0
22080 -22082 0
-22080 22081 22082 0
22083 -22084 0
22083 -22085 0
-22083 22084 22085 0
22086 -22087 0
22086 -22088 0
-22086 22087 22088 0
22089 -22090 0
22089 -22091 0
-22089 22090 22091 0
22092 -22093 0
22092 -22094 0
22092 -22095 0
22092 -22096 0
-22092 22093 22094 22095 22096 0
22097 -22098 0
22097 -22099 0
-22097 22098 22099 0
22100 -22101 0
22100 -22102 0
-22100 22101 22102 0
22103 -22104 0
22103 -22105 0
-22103 22104 22105 0
22106 -22107 0
22106 -22108 0
22106 -22264 0
22106 -22110 0
-22106 22107 22108 22264 22110 0
22111 -22112 0
22111 -22113 0
-22111 22112 22113 0
22114 -22115 0
22114 -22116 0
-22114 22115 22116 0
22117 -22118 0
22117 -22119 0
-22117 22118 22119 0
22120 -22121 0
22120 -22122 0
-22120 22121 22122 0
22123 -22124 0
22123 -22125 0
-22123 22124 22125 0
22126 -22127 0
22126 -22128 0
-22126 22127 22128 0
22129 -22130 0
22129 -22131 0
22129 -22132 0
-22129 22130 22131 22132 0
22133 -22134 0
22133 -22135 0
-22133 22134 22135 0
22136 -22137 0
22136 -22138 0
-22136 22137 22138 0
22139 -22140 0
22139 -22141 0
-22139 22140 22141 0
22142 -22143 0
22142 -22144 0
-22142 22143 22144 0
22145 -22146 0
22145 -22147 0
-22145 22146 22147 0
22229 -22149 0
22229 -22150 0
22229 -22151 0
-22229 22149 22150 22151 0
22152 -22153 0
22152 -22154 0
-22152 22153 22154 0
22155 -22156 0
22155 -22157 0
22155 -22158 0
-22155 22156 22157 22158 0
22159 -22160 0
22159 -22161 0
-22159 22160 22161 0
22162 -22163 0
22162 -22164 0
22162 -22165 0
-22162 22163 22164 22165 0
22166 -22167 0
22166 -22168 0
-22166 22167 22168 0
22169 -22170 0
22169 -22171 0
-22169 22170 22171 0
22172 -22173 0
22172 -22174 0
-22172 22173 22174 0
22175 -22176 0
22175 -22177 0
-22175 22176 22177 0
22178 -22179 0
22178 -22180 0
-22178 22179 22180 0
22181 -22182 0
22181 -22183 0
22181 -22184 0
-22181 22182 22183 22184 0
22185 -22186 0
22185 -22187 0
-22185 22186 22187 0
22188 -22189 0
22188 -22190 0
-22188 22189 22190 0
22191 -22192 0
22191 -22193 0
22191 -22194 0
-22191 22192 22193 22194 0
22195 -22196 0
22195 -22197 0
-22195 22196 22197 0
22198 -22199 0
22198 -22200 0
-22198 22199 22200 0
22201 -22202 0
22201 -22203 0
-22201 22202 22203 0
22204 -22205 0
22204 -22206 0
-22204 22205 22206 0
22207 -22208 0
22207 -22209 0
-22207 22208 22209 0
22210 -22211 0
22210 -22212 0
-22210 22211 22212 0
22213 -22214 0
22213 -22215 0
-22213 22214 22215 0
22216 -22217 0
22216 -22218 0
-22216 22217 22218 0
22266 -22220 0
22266 -22221 0
22266 -22222 0
-22266 22220 22221 22222 0
22223 -22224 0
22223 -22225 0
-22223 22224 22225 0
22226 -22227 0
22226 -22228 0
22226 -22229 0
-22226 22227 22228 22229 0
22230 -22231 0
22230 -22232 0
-22230 22231 22232 0
22233 -22234 0
22233 -22235 0
-22233 22234 22235 0
22236 -22237 0
22236 -22238 0
-22236 22237 22238 0
22239 -22240 0
22239 -22241 0
22239 -22242 0
-22239 22240 22241 22242 0
22243 -22244 0
22243 -22245 0
-22243 22244 22245 0
22246 -22247 0
22246 -22248 0
-22246 22247 22248 0
22249 -22250 0
22249 -22251 0
-22249 22250 22251 0
22298 -22253 0
22298 -22254 0
22298 -22255 0
-22298 22253 22254 22255 0
22256 -22257 0
22256 -22258 0
-22256 22257 22258 0
22259 -22260 0
22259 -22261 0
-22259 22260 22261 0
22262 -22263 0
22262 -22264 0
22262 -22265 0
22262 -22266 0
-22262 22263 22264 22265 22266 0
22310 -22268 0
22310 -22269 0
22310 -22270 0
-22310 22268 22269 22270 0
22271 -22272 0
22271 -22273 0
-22271 22272 22273 0
22274 -22275 0
22274 -22276 0
-22274 22275 22276 0
22277 -22278 0
22277 -22279 0
22277 -22280 0
22277 -22281 0
-22277 22278 22279 22280 22281 0
22282 -22283 0
22282 -22284 0
22282 -22285 0
22282 -22286 0
-22282 22283 22284 22285 22286 0
22287 -22288 0
22287 -22289 0
-22287 22288 22289 0
22290 -22291 0
22290 -22292 0
22290 -22293 0
22290 -22294 0
-22290 22291 22292 22293 22294 0
22295 -22296 0
22295 -22297 0
22295 -22298 0
-22295 22296 22297 22298 0
22299 -22300 0
22299 -22301 0
22299 -22302 0
-22299 22300 22301 22302 0
22303 -22304 0
22303 -22305 0
-22303 22304 22305 0
22306 -22307 0
22306 -22308 0
22306 -22309 0
22306 -22310 0
-22306 22307 22308 22309 22310 0
22311 -22312 0
22311 -22313 0
22311 -22314 0
-22311 22312 22313 22314 0
22315 -22316 0
22315 -22317 0
-22315 22316 22317 0
22318 -22319 0
22318 -22320 0
-22318 22319 22320 0
22321 -22322 0
22321 -22323 0
22321 -22324 0
-22321 22322 22323 22324 0
22325 -22326 0
22325 -22327 0
22325 -22328 0
-22325 22326 22327 22328 0
22329 -22330 0
22329 -22331 0
-22329 22330 22331 0
22332 -22333 0
22332 -22334 0
22332 -22335 0
-22332 22333 22334 22335 0
22336 -22337 0
22336 -22338 0
22336 -22339 0
22336 -22340 0
-22336 22337 22338 22339 22340 0
22341 -22342 0
22341 -22343 0
22341 -22344 0
22341 -22345 0
-22341 22342 22343 22344 22345 0
22346 -22347 0
22346 -22348 0
22346 -22349 0
22346 -22350 0
-22346 22347 22348 22349 22350 0
22351 -22352 0
22351 -22353 0
-22351 22352 22353 0
22354 -22355 0
22354 -22356 0
22354 -22357 0
-22354 22355 22356 22357 0
22358 -22359 0
22358 -22360 0
-22358 22359 22360 0
22361 -22362 0
22361 -22363 0
-22361 22362 22363 0
22364 -22365 0
22364 -22366 0
22364 -22367 0
-22364 22365 22366 22367 0
-22369 24278 0
22369 -24278 0
-22371 23843 0
22371 -23843 0
-22373 23845 0
22373 -23845 0
-22375 24099 0
22375 -24099 0
-22377 23899 0
22377 -23899 0
-22379 23747 0
22379 -23747 0
23828 23806 0
-23828 -23806 0
23484 23776 0
-23484 -23776 0
23803 23876 0
-23803 -23876 0
23770 23444 0
-23770 -23444 0
23764 23768 0
-23764 -23768 0
23767 23743 0
-23767 -23743 0
23777 23225 0
-23777 -23225 0
23779 23747 0
-23779 -23747 0
23788 23899 0
-23788 -23899 0
24096 24099 0
-24096 -24099 0
23888 23845 0
-23888 -23845 0
23936 23843 0
-23936 -23843 0
24003 24278 0
-24003 -24278 0
24234 23742 0
-24234 -23742 0
22411 24099 0
-22411 -24099 0
23846 22411 0
-23846 -22411 0
23848 23748 0
-23848 -23748 0
22417 23876 0
-22417 -23876 0
22810 22417 0
-22810 -22417 0
24006 23751 0
-24006 -23751 0
22423 23888 0
-22423 -23888 0
23873 22423 0
-23873 -22423 0
23439 23757 0
-23439 -23757 0
23273 23760 0
-23273 -23760 0
24235 23763 0
-24235 -23763 0
22433 23763 0
-22433 -23763 0
23927 22433 0
-23927 -22433 0
23300 23769 0
-23300 -23769 0
23165 23827 0
-23165 -23827 0
22928 23778 0
-22928 -23778 0
23884 23781 0
-23884 -23781 0
23887 23784 0
-23887 -23784 0
23301 23787 0
-23301 -23787 0
23893 23790 0
-23893 -23790 0
23896 23793 0
-23896 -23793 0
23956 23796 0
-23956 -23796 0
23001 23842 0
-23001 -23842 0
23182 23802 0
-23182 -23802 0
23911 23805 0
-23911 -23805 0
23055 23808 0
-23055 -23808 0
23259 23857 0
-23259 -23857 0
23926 23814 0
-23926 -23814 0
24107 23817 0
-24107 -23817 0
23941 23820 0
-23941 -23820 0
22471 23843 0
-22471 -23843 0
23267 22471 0
-23267 -22471 0
24187 23841 0
-24187 -23841 0
22477 22682 0
-22477 -22682 0
23316 22477 0
-23316 -22477 0
22481 22919 0
-22481 -22919 0
23370 22481 0
-23370 -22481 0
24098 23895 0
-24098 -23895 0
22484 23175 0
-22484 -23175 0
22486 23384 0
-22486 -23384 0
23591 24097 0
-23591 -24097 0
22490 23464 0
-22490 -23464 0
22492 24150 0
-22492 -24150 0
22494 24159 0
-22494 -24159 0
22496 23585 0
-22496 -23585 0
22498 24253 0
-22498 -24253 0
22500 23605 0
-22500 -23605 0
22502 24270 0
-22502 -24270 0
22504 23669 0
-22504 -23669 0
22506 23673 0
-22506 -23673 0
22508 24301 0
-22508 -24301 0
22510 24313 0
-22510 -24313 0
22512 24325 0
-22512 -24325 0
22514 24335 0
-22514 -24335 0
22533 24339 0
-22533 -24339 0
22518 24343 0
-22518 -24343 0
22535 24346 0
-22535 -24346 0
22537 24350 0
-22537 -24350 0
22541 24355 0
-22541 -24355 0
22543 24360 0
-22543 -24360 0
22528 24365 0
-22528 -24365 0
22545 24368 0
-22545 -24368 0
23725 22533 0
-23725 -22533 0
23728 22535 0
-23728 -22535 0
23731 22537 0
-23731 -22537 0
22538 24372 0
-22538 -24372 0
23734 22541 0
-23734 -22541 0
23737 22543 0
-23737 -22543 0
23740 22545 0
-23740 -22545 0
22546 24378 0
-22546 -24378 0
-23839 24099 0
-23839 23845 0
23839 -24099 -23845 0
-23849 24099 0
-23849 23845 0
23849 -24099 -23845 0
-23890 23899 0
-23890 24099 0
-23890 23845 0
23890 -23899 -24099 -23845 0
-23866 23899 0
-23866 23843 0
23866 -23899 -23843 0
-23851 23806 0
-23851 23843 0
23851 -23806 -23843 0
-23951 23806 0
-23951 23843 0
23951 -23806 -23843 0
-23881 23876 0
-23881 23843 0
23881 -23876 -23843 0
-24115 24099 0
-24115 23843 0
24115 -24099 -23843 0
-23825 23776 0
-23825 24278 0
23825 -23776 -24278 0
-23830 23770 0
-23830 23777 0
23830 -23770 -23777 0
-23179 23444 0
-23179 23779 0
-23179 23845 0
23179 -23444 -23779 -23845 0
-23834 23806 0
-23834 23788 0
-23834 23843 0
23834 -23806 -23788 -23843 0
-23869 23777 0
-23869 23779 0
-23869 23788 0
-23869 24278 0
23869 -23777 -23779 -23788 -24278 0
-23894 23788 0
-23894 23843 0
23894 -23788 -23843 0
-23969 23788 0
-23969 24099 0
-23969 24278 0
23969 -23788 -24099 -24278 0
-23885 23788 0
-23885 24099 0
-23885 23845 0
23885 -23788 -24099 -23845 0
-22822 23776 0
-22822 23225 0
-22822 23779 0
-22822 23788 0
22822 -23776 -23225 -23779 -23788 0
-23833 23803 0
-23833 23899 0
-23833 24096 0
23833 -23803 -23899 -24096 0
-23836 24096 0
-23836 23843 0
23836 -24096 -23843 0
-23855 23770 0
-23855 24096 0
23855 -23770 -24096 0
-23978 23779 0
-23978 23788 0
-23978 24096 0
23978 -23779 -23788 -24096 0
-23183 23747 0
-23183 23899 0
-23183 24096 0
23183 -23747 -23899 -24096 0
-23840 23788 0
-23840 23888 0
23840 -23788 -23888 0
-23954 23776 0
-23954 23888 0
-23954 24278 0
23954 -23776 -23888 -24278 0
-23987 23788 0
-23987 23888 0
-23987 23843 0
23987 -23788 -23888 -23843 0
-23975 23888 0
-23975 24278 0
23975 -23888 -24278 0
-24009 23484 0
-24009 24099 0
-24009 23888 0
24009 -23484 -24099 -23888 0
-23858 23788 0
-23858 23888 0
23858 -23788 -23888 0
-24249 23899 0
-24249 23843 0
-24249 23748 0
24249 -23899 -23843 -23748 0
-23852 23845 0
-23852 23936 0
23852 -23845 -23936 0
-23861 23225 0
-23861 23936 0
23861 -23225 -23936 0
-22918 23779 0
-22918 24099 0
-22918 23936 0
22918 -23779 -24099 -23936 0
-23912 24096 0
-23912 23936 0
23912 -24096 -23936 0
-23948 23788 0
-23948 23936 0
23948 -23788 -23936 0
-24042 23845 0
-24042 23936 0
24042 -23845 -23936 0
-23942 24099 0
-23942 23936 0
23942 -24099 -23936 0
-23960 23845 0
-23960 23936 0
23960 -23845 -23936 0
-23908 23845 0
-23908 23936 0
23908 -23845 -23936 0
-24277 23845 0
-24277 23936 0
24277 -23845 -23936 0
-22682 23899 0
-22682 23751 0
22682 -23899 -23751 0
-23963 23751 0
-23963 24278 0
23963 -23751 -24278 0
-23867 23779 0
-23867 24003 0
23867 -23779 -24003 0
-23870 23899 0
-23870 24003 0
23870 -23899 -24003 0
-24039 23779 0
-24039 24099 0
-24039 23888 0
-24039 24003 0
24039 -23779 -24099 -23888 -24003 0
-24045 23788 0
-24045 24099 0
-24045 23936 0
-24045 24003 0
24045 -23788 -24099 -23936 -24003 0
-23921 23788 0
-23921 23936 0
-23921 24003 0
23921 -23788 -23936 -24003 0
-24075 23788 0
-24075 24099 0
-24075 23888 0
-24075 24003 0
24075 -23788 -24099 -23888 -24003 0
-23924 23767 0
-23924 23936 0
-23924 24003 0
23924 -23767 -23936 -24003 0
-24051 23788 0
-24051 23936 0
-24051 24003 0
24051 -23788 -23936 -24003 0
-23939 23444 0
-23939 23888 0
-23939 24003 0
23939 -23444 -23888 -24003 0
-23933 23888 0
-23933 24003 0
23933 -23888 -24003 0
-24084 23748 0
-24084 24003 0
24084 -23748 -24003 0
-23945 23788 0
-23945 24099 0
-23945 23936 0
-23945 24003 0
23945 -23788 -24099 -23936 -24003 0
-23930 23936 0
-23930 24003 0
23930 -23936 -24003 0
-24093 23745 0
-24093 24003 0
-24093 23748 0
24093 -23745 -24003 -23748 0
-24060 23777 0
-24060 23936 0
-24060 24003 0
24060 -23777 -23936 -24003 0
-24113 24003 0
-24113 23751 0
24113 -24003 -23751 0
-24226 23747 0
-24226 24003 0
24226 -23747 -24003 0
-23997 23754 0
-23997 23843 0
23997 -23754 -23843 0
-23872 23760 0
-23872 23936 0
23872 -23760 -23936 0
-23879 23888 0
-23879 23766 0
23879 -23888 -23766 0
-23882 23769 0
-23882 23936 0
23882 -23769 -23936 0
-23903 23772 0
-23903 23936 0
-23903 24003 0
23903 -23772 -23936 -24003 0
-24081 23778 0
-24081 23767 0
-24081 24099 0
-24081 24003 0
24081 -23778 -23767 -24099 -24003 0
-23891 23787 0
-23891 23888 0
23891 -23787 -23888 0
-23906 23843 0
-23906 23790 0
23906 -23843 -23790 0
-23900 23796 0
-23900 23843 0
23900 -23796 -23843 0
-24000 23899 0
-24000 23842 0
24000 -23899 -23842 0
-23902 23843 0
-23902 23842 0
23902 -23843 -23842 0
-23905 23802 0
-23905 23936 0
23905 -23802 -23936 0
-23909 23843 0
-23909 23802 0
23909 -23843 -23802 0
-23993 23777 0
-23993 23788 0
-23993 24278 0
-23993 23848 0
23993 -23777 -23788 -24278 -23848 0
-24298 23899 0
-24298 24003 0
-24298 23848 0
24298 -23899 -24003 -23848 0
-23918 24099 0
-23918 24278 0
-23918 23808 0
23918 -24099 -24278 -23808 0
-24279 23899 0
-24279 22810 0
24279 -23899 -22810 0
-24165 24099 0
-24165 23857 0
24165 -24099 -23857 0
-24024 23225 0
-24024 24278 0
-24024 24006 0
24024 -23225 -24278 -24006 0
-24015 24099 0
-24015 24003 0
-24015 24006 0
-24015 22822 0
24015 -24099 -24003 -24006 -22822 0
-24018 23788 0
-24018 24096 0
-24018 24006 0
24018 -23788 -24096 -24006 0
-24087 24099 0
-24087 24006 0
24087 -24099 -24006 0
-23917 23444 0
-23917 24003 0
-23917 24006 0
23917 -23444 -24003 -24006 0
-24200 23777 0
-24200 24099 0
-24200 24003 0
-24200 24006 0
24200 -23777 -24099 -24003 -24006 0
-24148 24099 0
-24148 24278 0
-24148 24006 0
24148 -24099 -24278 -24006 0
-23143 23779 0
-23143 23788 0
-23143 24006 0
23143 -23779 -23788 -24006 0
-23929 23814 0
-23929 24096 0
23929 -23814 -24096 0
-24102 23848 0
-24102 23814 0
24102 -23848 -23814 0
-23932 23817 0
-23932 24096 0
23932 -23817 -24096 0
-23990 23820 0
-23990 23888 0
23990 -23820 -23888 0
-23965 23788 0
-23965 23845 0
-23965 23439 0
23965 -23788 -23845 -23439 0
-24193 23936 0
-24193 23439 0
24193 -23936 -23439 0
-24356 23899 0
-24356 23845 0
-24356 23439 0
24356 -23899 -23845 -23439 0
-23944 23823 0
-23944 23899 0
-23944 23843 0
23944 -23823 -23899 -23843 0
-24090 23273 0
-24090 23748 0
24090 -23273 -23748 0
-23947 23899 0
-23947 23843 0
-23947 24235 0
23947 -23899 -23843 -24235 0
-23972 23788 0
-23972 24096 0
-23972 23936 0
-23972 24235 0
23972 -23788 -24096 -23936 -24235 0
-23950 23888 0
-23950 24235 0
23950 -23888 -24235 0
-23953 23899 0
-23953 24003 0
-23953 24235 0
23953 -23899 -24003 -24235 0
-23957 24099 0
-23957 24235 0
23957 -24099 -24235 0
-24047 23439 0
-24047 24235 0
24047 -23439 -24235 0
-24157 23788 0
-24157 24096 0
-24157 24006 0
-24157 24235 0
24157 -23788 -24096 -24006 -24235 0
-24190 23936 0
-24190 23439 0
-24190 24235 0
24190 -23936 -23439 -24235 0
-24154 24003 0
-24154 23848 0
-24154 24235 0
24154 -24003 -23848 -24235 0
-24121 23784 0
-24121 24235 0
24121 -23784 -24235 0
-24035 24003 0
-24035 23300 0
-24035 22918 0
24035 -24003 -23300 -22918 0
-22919 23444 0
-22919 24278 0
-22919 23826 0
22919 -23444 -24278 -23826 0
-23959 23829 0
-23959 23888 0
23959 -23829 -23888 0
-23962 24003 0
-23962 22928 0
23962 -24003 -22928 0
-23966 24099 0
-23966 23843 0
-23966 23884 0
23966 -24099 -23843 -23884 0
-24012 23803 0
-24012 23747 0
-24012 23884 0
24012 -23803 -23747 -23884 0
-23968 23803 0
-23968 24003 0
-23968 23887 0
23968 -23803 -24003 -23887 0
-24026 24278 0
-24026 23887 0
24026 -24278 -23887 0
-24068 24003 0
-24068 23887 0
24068 -24003 -23887 0
-24029 23757 0
-24029 23887 0
24029 -23757 -23887 0
-23971 23876 0
-23971 23301 0
23971 -23876 -23301 0
-23974 24003 0
-23974 23301 0
23974 -24003 -23301 0
-23977 23843 0
-23977 23301 0
23977 -23843 -23301 0
-23981 23899 0
-23981 23893 0
23981 -23899 -23893 0
-23984 23899 0
-23984 23843 0
-23984 23893 0
23984 -23899 -23843 -23893 0
-24174 23899 0
-24174 23843 0
-24174 23893 0
24174 -23899 -23843 -23893 0
-24275 23899 0
-24275 23843 0
-24275 23893 0
24275 -23899 -23843 -23893 0
-24252 23779 0
-24252 23845 0
-24252 23832 0
24252 -23779 -23845 -23832 0
-24241 23888 0
-24241 23835 0
24241 -23888 -23835 0
-23980 23788 0
-23980 24096 0
-23980 23896 0
23980 -23788 -24096 -23896 0
-23983 23788 0
-23983 24096 0
-23983 23896 0
23983 -23788 -24096 -23896 0
-23986 23887 0
-23986 23956 0
23986 -23887 -23956 0
-23989 24278 0
-23989 23956 0
23989 -24278 -23956 0
-23992 23225 0
-23992 23001 0
-23992 23301 0
23992 -23225 -23001 -23301 0
-24053 23805 0
-24053 23001 0
24053 -23805 -23001 0
-24171 23841 0
-24171 24099 0
24171 -23841 -24099 0
-23999 24003 0
-23999 23182 0
23999 -24003 -23182 0
-24020 23936 0
-24020 23182 0
24020 -23936 -23182 0
-24203 23936 0
-24203 24003 0
-24203 23182 0
24203 -23936 -24003 -23182 0
-24334 23844 0
-24334 23876 0
-24334 23899 0
-24334 23843 0
24334 -23844 -23876 -23899 -23843 0
-24179 23847 0
-24179 23788 0
-24179 23843 0
24179 -23847 -23788 -23843 0
-24002 24096 0
-24002 23055 0
24002 -24096 -23055 0
-24005 23828 0
-24005 23055 0
24005 -23828 -23055 0
-24071 24099 0
-24071 23055 0
24071 -24099 -23055 0
-24008 24096 0
-24008 23055 0
24008 -24096 -23055 0
-24011 23767 0
-24011 23779 0
-24011 23788 0
-24011 23055 0
24011 -23767 -23779 -23788 -23055 0
-24014 23899 0
-24014 24096 0
-24014 23055 0
24014 -23899 -24096 -23055 0
-24017 23806 0
-24017 23827 0
-24017 23899 0
-24017 23055 0
24017 -23806 -23827 -23899 -23055 0
-24032 24096 0
-24032 23055 0
24032 -24096 -23055 0
-24118 23788 0
-24118 23055 0
24118 -23788 -23055 0
-24021 23914 0
-24021 23788 0
24021 -23914 -23788 0
-24023 23806 0
-24023 23845 0
-24023 23259 0
24023 -23806 -23845 -23259 0
-24027 23788 0
-24027 24099 0
-24027 23259 0
24027 -23788 -24099 -23259 0
-24078 23845 0
-24078 23259 0
24078 -23845 -23259 0
-24030 23788 0
-24030 23259 0
24030 -23788 -23259 0
-24167 23888 0
-24167 23259 0
24167 -23888 -23259 0
-24132 23845 0
-24132 23259 0
24132 -23845 -23259 0
-24223 23781 0
-24223 24099 0
-24223 23259 0
24223 -23781 -24099 -23259 0
-24184 24099 0
-24184 23845 0
-24184 23259 0
24184 -24099 -23845 -23259 0
-24129 23788 0
-24129 23888 0
-24129 23259 0
24129 -23788 -23888 -23259 0
-24210 23776 0
-24210 24099 0
-24210 23259 0
24210 -23776 -24099 -23259 0
-24104 24096 0
-24104 23259 0
-24104 24235 0
-24104 23896 0
24104 -24096 -23259 -24235 -23896 0
-24238 23788 0
-24238 23888 0
-24238 23259 0
24238 -23788 -23888 -23259 0
-24264 24099 0
-24264 23845 0
-24264 23259 0
24264 -24099 -23845 -23259 0
-24246 23259 0
-24246 23796 0
24246 -23259 -23796 0
-24231 24099 0
-24231 23888 0
-24231 23259 0
24231 -24099 -23888 -23259 0
-24254 23788 0
-24254 23888 0
-24254 23259 0
24254 -23788 -23888 -23259 0
-24261 23838 0
-24261 23259 0
24261 -23838 -23259 0
-24330 23848 0
-24330 23259 0
24330 -23848 -23259 0
-24144 23853 0
-24144 23888 0
24144 -23853 -23888 0
-24110 24099 0
-24110 23856 0
24110 -24099 -23856 0
-24033 23859 0
-24033 23888 0
24033 -23859 -23888 0
-24255 23862 0
-24255 23899 0
24255 -23862 -23899 0
-24337 23899 0
-24337 23862 0
24337 -23899 -23862 0
-24366 23439 0
-24366 24235 0
-24366 23143 0
24366 -23439 -24235 -23143 0
-24036 23876 0
-24036 23747 0
-24036 24096 0
-24036 23926 0
24036 -23876 -23747 -24096 -23926 0
-24038 23747 0
-24038 23899 0
-24038 23926 0
-24038 23956 0
24038 -23747 -23899 -23926 -23956 0
-24041 23888 0
-24041 23926 0
24041 -23888 -23926 0
-24044 23803 0
-24044 23899 0
-24044 23926 0
24044 -23803 -23899 -23926 0
-24048 23444 0
-24048 23899 0
-24048 23926 0
-24048 23165 0
24048 -23444 -23899 -23926 -23165 0
-24050 23225 0
-24050 23926 0
24050 -23225 -23926 0
-24054 23888 0
-24054 23926 0
24054 -23888 -23926 0
-24062 23899 0
-24062 23926 0
24062 -23899 -23926 0
-23175 23926 0
-23175 23301 0
-23175 23827 0
-23175 23179 0
23175 -23926 -23301 -23827 -23179 0
-24160 23926 0
-24160 23182 0
-24160 23183 0
24160 -23926 -23182 -23183 0
-24057 23888 0
-24057 23926 0
24057 -23888 -23926 0
-24181 24099 0
-24181 23845 0
-24181 23926 0
24181 -24099 -23845 -23926 0
-24213 23484 0
-24213 23888 0
-24213 23926 0
24213 -23484 -23888 -23926 0
-24059 23826 0
-24059 23444 0
-24059 23926 0
24059 -23826 -23444 -23926 0
-24297 24099 0
-24297 23926 0
24297 -24099 -23926 0
-24063 23484 0
-24063 23865 0
24063 -23484 -23865 0
-24065 23770 0
-24065 24107 0
24065 -23770 -24107 0
-24141 23936 0
-24141 24107 0
24141 -23936 -24107 0
-24126 23936 0
-24126 24107 0
24126 -23936 -24107 0
-24323 24099 0
-24323 23936 0
-24323 24107 0
24323 -24099 -23936 -24107 0
-24269 23936 0
-24269 24107 0
24269 -23936 -24107 0
-24069 23770 0
-24069 23868 0
24069 -23770 -23868 0
-24072 23225 0
-24072 24006 0
-24072 23941 0
24072 -23225 -24006 -23941 0
-24074 23936 0
-24074 23941 0
24074 -23936 -23941 0
-24077 23747 0
-24077 23941 0
24077 -23747 -23941 0
-24080 23747 0
-24080 23845 0
-24080 23941 0
24080 -23747 -23845 -23941 0
-24083 23888 0
-24083 23941 0
24083 -23888 -23941 0
-24086 23808 0
-24086 23941 0
24086 -23808 -23941 0
-24089 23845 0
-24089 23941 0
24089 -23845 -23941 0
-24092 23845 0
-24092 23941 0
24092 -23845 -23941 0
-24138 23747 0
-24138 23899 0
-24138 23941 0
24138 -23747 -23899 -23941 0
-24207 23871 0
-24207 24096 0
24207 -23871 -24096 0
-24095 23874 0
-24095 23259 0
24095 -23874 -23259 0
-24108 23877 0
-24108 23936 0
24108 -23877 -23936 0
-24124 23899 0
-24124 23880 0
24124 -23899 -23880 0
-24348 23267 0
-24348 23747 0
-24348 24099 0
-24348 24003 0
24348 -23267 -23747 -24099 -24003 0
-24292 23883 0
-24292 23273 0
24292 -23883 -23273 0
-24198 23886 0
-24198 24278 0
24198 -23886 -24278 0
-24220 23747 0
-24220 24003 0
-24220 23889 0
24220 -23747 -24003 -23889 0
-24242 23892 0
-24242 23766 0
24242 -23892 -23766 0
-24338 23747 0
-24338 24003 0
-24338 23898 0
24338 -23747 -24003 -23898 0
-24101 24099 0
-24101 24187 0
24101 -24099 -24187 0
-24151 23747 0
-24151 24187 0
-24151 23301 0
24151 -23747 -24187 -23301 0
-24135 24096 0
-24135 24187 0
24135 -24096 -24187 0
-24258 24187 0
-24258 23300 0
-24258 23301 0
24258 -24187 -23300 -23301 0
-24105 23901 0
-24105 24099 0
24105 -23901 -24099 0
-24109 23899 0
-24109 23904 0
24109 -23899 -23904 0
-24112 24096 0
-24112 23907 0
24112 -24096 -23907 0
-24116 23779 0
-24116 23910 0
24116 -23779 -23910 0
-24119 23747 0
-24119 23316 0
24119 -23747 -23316 0
-24122 23913 0
-24122 23788 0
24122 -23913 -23788 0
-24284 23899 0
-24284 23916 0
24284 -23899 -23916 0
-24197 23770 0
-24197 23919 0
24197 -23770 -23919 0
-24127 23922 0
-24127 23888 0
24127 -23922 -23888 0
-24208 23925 0
-24208 23888 0
24208 -23925 -23888 0
-24130 23928 0
-24130 23899 0
-24130 23845 0
24130 -23928 -23899 -23845 0
-24229 23931 0
-24229 23747 0
-24229 23936 0
24229 -23931 -23747 -23936 0
-24133 23934 0
-24133 23888 0
24133 -23934 -23888 0
-24351 23937 0
-24351 23887 0
24351 -23937 -23887 0
-24314 23940 0
-24314 23884 0
24314 -23940 -23884 0
-24136 23943 0
-24136 23888 0
24136 -23943 -23888 0
-24139 23946 0
-24139 23779 0
-24139 24099 0
-24139 24003 0
24139 -23946 -23779 -24099 -24003 0
-24142 23949 0
-24142 24003 0
24142 -23949 -24003 0
-24217 23779 0
-24217 23843 0
-24217 23952 0
24217 -23779 -23843 -23952 0
-24145 23803 0
-24145 24003 0
-24145 23955 0
24145 -23803 -24003 -23955 0
-24146 24099 0
-24146 23370 0
24146 -24099 -23370 0
-24172 23958 0
-24172 24278 0
24172 -23958 -24278 0
-24149 23961 0
-24149 24096 0
24149 -23961 -24096 0
-24322 23964 0
-24322 23763 0
24322 -23964 -23763 0
-24152 23967 0
-24152 23779 0
-24152 23888 0
24152 -23967 -23779 -23888 0
-23384 23970 0
-23384 23779 0
-23384 23888 0
-23384 24003 0
23384 -23970 -23779 -23888 -24003 0
-24155 23770 0
-24155 23973 0
24155 -23770 -23973 0
-24177 23976 0
-24177 24235 0
24177 -23976 -24235 0
-24158 23979 0
-24158 23742 0
-24158 23843 0
24158 -23979 -23742 -23843 0
-24290 23766 0
-24290 23982 0
-24290 24003 0
24290 -23766 -23982 -24003 0
-24364 23747 0
-24364 24003 0
-24364 23985 0
24364 -23747 -24003 -23985 0
-24347 23988 0
-24347 23887 0
24347 -23988 -23887 0
-24161 23991 0
-24161 23444 0
-24161 23779 0
-24161 23936 0
24161 -23991 -23444 -23779 -23936 0
-24164 23788 0
-24164 23994 0
24164 -23788 -23994 0
-24163 23998 0
-24163 23936 0
24163 -23998 -23936 0
-24168 24001 0
-24168 23899 0
24168 -24001 -23899 0
-24170 24003 0
-24170 24004 0
-24170 24235 0
24170 -24003 -24004 -24235 0
-24175 23788 0
-24175 24096 0
-24175 24004 0
24175 -23788 -24096 -24004 0
-24311 23788 0
-24311 24003 0
-24311 24007 0
24311 -23788 -24003 -24007 0
-24326 23828 0
-24326 24010 0
-24326 23439 0
24326 -23828 -24010 -23439 0
-24357 23803 0
-24357 24013 0
24357 -23803 -24013 0
-24306 23444 0
-24306 24016 0
-24306 24278 0
24306 -23444 -24016 -24278 0
-24178 23779 0
-24178 24019 0
-24178 24096 0
24178 -23779 -24019 -24096 0
-24182 24022 0
-24182 24096 0
24182 -24022 -24096 0
-24362 24025 0
-24362 23888 0
24362 -24025 -23888 0
-24185 24028 0
-24185 23888 0
24185 -24028 -23888 0
-24295 23788 0
-24295 24278 0
-24295 24031 0
24295 -23788 -24278 -24031 0
-23464 24034 0
-23464 23899 0
-23464 23845 0
23464 -24034 -23899 -23845 0
-24363 23876 0
-24363 24037 0
24363 -23876 -24037 0
-24188 24040 0
-24188 23788 0
24188 -24040 -23788 0
-24310 24099 0
-24310 24040 0
24310 -24099 -24040 0
-24191 23484 0
-24191 24043 0
24191 -23484 -24043 0
-24194 23828 0
-24194 24046 0
24194 -23828 -24046 0
-24196 23484 0
-24196 24049 0
24196 -23484 -24049 0
-24201 24052 0
-24201 24096 0
24201 -24052 -24096 0
-24204 24055 0
-24204 23788 0
24204 -24055 -23788 0
-24206 24058 0
-24206 24099 0
24206 -24058 -24099 0
-24211 24061 0
-24211 24096 0
24211 -24061 -24096 0
-24214 24064 0
-24214 23788 0
24214 -24064 -23788 0
-24369 24067 0
-24369 23848 0
24369 -24067 -23848 0
-24308 23788 0
-24308 24070 0
24308 -23788 -24070 0
-24267 23777 0
-24267 24073 0
24267 -23777 -24073 0
-24216 24076 0
-24216 23899 0
24216 -24076 -23899 0
-24219 23803 0
-24219 23899 0
-24219 24079 0
24219 -23803 -23899 -24079 0
-24222 24082 0
-24222 23887 0
24222 -24082 -23887 0
-24342 23747 0
-24342 24085 0
-24342 23899 0
24342 -23747 -24085 -23899 0
-24225 24088 0
-24225 23843 0
24225 -24088 -23843 0
-24228 24091 0
-24228 23843 0
24228 -24091 -23843 0
-24232 24094 0
-24232 23845 0
24232 -24094 -23845 0
-24236 24097 0
-24236 23788 0
24236 -24097 -23788 0
-24239 24100 0
-24239 23899 0
24239 -24100 -23899 0
-24287 23788 0
-24287 24103 0
24287 -23788 -24103 0
-24272 23779 0
-24272 24106 0
24272 -23779 -24106 0
-24245 23899 0
-24245 24111 0
24245 -23899 -24111 0
-24248 24114 0
-24248 23845 0
24248 -24114 -23845 0
-24251 24117 0
-24251 24099 0
24251 -24117 -24099 0
-24256 23779 0
-24256 24120 0
24256 -23779 -24120 0
-24259 24125 0
-24259 23788 0
-24259 24096 0
24259 -24125 -23788 -24096 0
-24315 23747 0
-24315 24128 0
24315 -23747 -24128 0
-24262 23899 0
-24262 24131 0
24262 -23899 -24131 0
-24282 23876 0
-24282 24134 0
24282 -23876 -24134 0
-24340 23803 0
-24340 24137 0
24340 -23803 -24137 0
-24265 24140 0
-24265 24096 0
24265 -24140 -24096 0
-24268 23899 0
-24268 24143 0
24268 -23899 -24143 0
-24271 24147 0
-24271 23899 0
24271 -24147 -23899 0
-24294 24153 0
-24294 23936 0
24294 -24153 -23936 0
-23585 24156 0
-23585 23779 0
-23585 24003 0
23585 -24156 -23779 -24003 0
-24274 23788 0
-24274 23591 0
24274 -23788 -23591 0
-24319 23747 0
-24319 24166 0
24319 -23747 -24166 0
-24299 24169 0
-24299 23788 0
24299 -24169 -23788 0
-23672 24173 0
-23672 23768 0
-23672 23767 0
23672 -24173 -23768 -23767 0
-24303 24176 0
-24303 24003 0
24303 -24176 -24003 0
-23605 24180 0
-23605 23779 0
-23605 23788 0
23605 -24180 -23779 -23788 0
-24359 23747 0
-24359 24183 0
24359 -23747 -24183 0
-24376 24186 0
-24376 24096 0
24376 -24186 -24096 0
-24283 24189 0
-24283 23888 0
24283 -24189 -23888 0
-24305 24192 0
-24305 23845 0
24305 -24192 -23845 0
-24286 24195 0
-24286 24099 0
24286 -24195 -24099 0
-24321 23788 0
-24321 24199 0
24321 -23788 -24199 0
-24289 24202 0
-24289 24096 0
24289 -24202 -24096 0
-24293 23899 0
-24293 24205 0
24293 -23899 -24205 0
-24381 24209 0
-24381 23845 0
24381 -24209 -23845 0
-24300 23876 0
-24300 24212 0
24300 -23876 -24212 0
-24353 23803 0
-24353 24215 0
24353 -23803 -24215 0
-24327 24218 0
-24327 23843 0
24327 -24218 -23843 0
-24344 24221 0
-24344 23747 0
24344 -24221 -23747 0
-24374 23899 0
-24374 24224 0
24374 -23899 -24224 0
-24302 23899 0
-24302 24227 0
24302 -23899 -24227 0
-24307 23899 0
-24307 24230 0
24307 -23899 -24230 0
-24379 24237 0
-24379 23747 0
24379 -24237 -23747 0
-24316 23779 0
-24316 24240 0
24316 -23779 -24240 0
-24370 23747 0
-24370 24244 0
24370 -23747 -24244 0
-24318 24247 0
-24318 24003 0
24318 -24247 -24003 0
-23669 23779 0
-23669 24003 0
-23669 23672 0
23669 -23779 -24003 -23672 0
-23673 24250 0
-23673 24003 0
23673 -24250 -24003 0
-24328 23779 0
-24328 24257 0
24328 -23779 -24257 0
-24354 23747 0
-24354 24260 0
24354 -23747 -24260 0
-24331 23779 0
-24331 24263 0
24331 -23779 -24263 0
-24333 24273 0
-24333 24235 0
24333 -24273 -24235 0
-24336 23779 0
-24336 24276 0
24336 -23779 -24276 0
-24341 24285 0
-24341 23779 0
24341 -24285 -23779 0
-24345 24288 0
-24345 23779 0
24345 -24288 -23779 0
-24349 23779 0
-24349 24291 0
24349 -23779 -24291 0
-24352 24296 0
-24352 23779 0
24352 -24296 -23779 0
-24358 24304 0
-24358 23779 0
24358 -24304 -23779 0
-24361 24309 0
-24361 23779 0
24361 -24309 -23779 0
-24367 24317 0
-24367 23876 0
24367 -24317 -23876 0
-24371 23779 0
-24371 24320 0
24371 -23779 -24320 0
-24373 24329 0
-24373 23788 0
24373 -24329 -23788 0
-24377 24332 0
-24377 24003 0
24377 -24332 -24003 0
-24380 23779 0
-24380 24375 0
24380 -23779 -24375 0
-24393 23725 0
-24393 23741 0
24393 -23725 -23741 0
-24387 23728 0
-24387 23741 0
24387 -23728 -23741 0
-24391 23731 0
-24391 23741 0
24391 -23731 -23741 0
-24383 23734 0
-24383 23741 0
24383 -23734 -23741 0
-24385 23737 0
-24385 23741 0
24385 -23737 -23741 0
-24389 23740 0
-24389 23741 0
24389 -23740 -23741 0
23742 -23743 0
23742 -23768 0
-23742 23743 23768 0
23745 -23876 0
23745 -23747 0
-23745 23876 23747 0
23748 -24099 0
23748 -23845 0
-23748 24099 23845 0
23751 -23845 0
23751 -23843 0
-23751 23845 23843 0
23754 -23806 0
23754 -24278 0
-23754 23806 24278 0
23757 -24099 0
23757 -24278 0
-23757 24099 24278 0
23760 -23803 0
23760 -24278 0
-23760 23803 24278 0
23763 -23764 0
23763 -23767 0
-23763 23764 23767 0
23766 -23767 0
23766 -23768 0
-23766 23767 23768 0
23769 -23770 0
23769 -23777 0
-23769 23770 23777 0
23772 -23777 0
23772 -23845 0
-23772 23777 23845 0
23827 -23776 0
23827 -23777 0
-23827 23776 23777 0
23778 -23779 0
23778 -23845 0
-23778 23779 23845 0
23781 -23788 0
23781 -23845 0
-23781 23788 23845 0
23784 -23788 0
23784 -23843 0
-23784 23788 23843 0
23787 -23788 0
23787 -24096 0
-23787 23788 24096 0
23790 -24096 0
23790 -23876 0
-23790 24096 23876 0
23793 -23806 0
23793 -23888 0
-23793 23806 23888 0
23796 -23888 0
23796 -24099 0
-23796 23888 24099 0
23842 -23888 0
23842 -24278 0
-23842 23888 24278 0
23802 -23803 0
23802 -23888 0
-23802 23803 23888 0
23805 -23806 0
23805 -23936 0
-23805 23806 23936 0
23808 -23888 0
23808 -23936 0
-23808 23888 23936 0
23857 -23936 0
23857 -24278 0
-23857 23936 24278 0
23814 -23936 0
23814 -24003 0
-23814 23936 24003 0
23817 -23888 0
23817 -24003 0
-23817 23888 24003 0
23820 -24099 0
23820 -24003 0
-23820 24099 24003 0
23823 -24099 0
23823 -23825 0
-23823 24099 23825 0
23826 -23827 0
23826 -23828 0
-23826 23827 23828 0
23829 -23830 0
23829 -23843 0
-23829 23830 23843 0
23832 -23833 0
23832 -23834 0
-23832 23833 23834 0
23835 -23836 0
23835 -24278 0
-23835 23836 24278 0
23838 -23839 0
23838 -23840 0
-23838 23839 23840 0
23841 -23842 0
23841 -23843 0
-23841 23842 23843 0
23844 -23845 0
23844 -23846 0
-23844 23845 23846 0
23847 -23848 0
23847 -23849 0
-23847 23848 23849 0
23914 -23851 0
23914 -23852 0
-23914 23851 23852 0
23853 -23857 0
23853 -23855 0
-23853 23857 23855 0
23856 -23857 0
23856 -23858 0
-23856 23857 23858 0
23859 -24099 0
23859 -23861 0
-23859 24099 23861 0
23862 -24006 0
23862 -24096 0
-23862 24006 24096 0
23865 -23866 0
23865 -23867 0
-23865 23866 23867 0
23868 -23869 0
23868 -23870 0
-23868 23869 23870 0
23871 -23872 0
23871 -23873 0
-23871 23872 23873 0
23874 -24235 0
23874 -23876 0
-23874 24235 23876 0
23877 -24278 0
23877 -23879 0
-23877 24278 23879 0
23880 -23881 0
23880 -23882 0
-23880 23881 23882 0
23883 -23884 0
23883 -23885 0
-23883 23884 23885 0
23886 -23887 0
23886 -23888 0
-23886 23887 23888 0
23889 -23890 0
23889 -23891 0
-23889 23890 23891 0
23892 -23893 0
23892 -23894 0
-23892 23893 23894 0
23895 -23896 0
23895 -23936 0
-23895 23896 23936 0
23898 -23899 0
23898 -23900 0
-23898 23899 23900 0
23901 -23902 0
23901 -23903 0
-23901 23902 23903 0
23904 -23905 0
23904 -23906 0
-23904 23905 23906 0
23907 -23908 0
23907 -23909 0
-23907 23908 23909 0
23910 -23911 0
23910 -23912 0
-23910 23911 23912 0
23913 -23914 0
23913 -24099 0
-23913 23914 24099 0
23916 -23917 0
23916 -23918 0
-23916 23917 23918 0
23919 -23926 0
23919 -23921 0
-23919 23926 23921 0
23922 -23926 0
23922 -23924 0
-23922 23926 23924 0
23925 -23926 0
23925 -23927 0
-23925 23926 23927 0
23928 -23929 0
23928 -23930 0
-23928 23929 23930 0
23931 -23932 0
23931 -23933 0
-23931 23932 23933 0
23934 -23941 0
23934 -23936 0
-23934 23941 23936 0
23937 -23941 0
23937 -23939 0
-23937 23941 23939 0
23940 -23941 0
23940 -23942 0
-23940 23941 23942 0
23943 -23944 0
23943 -23945 0
-23943 23944 23945 0
23946 -23947 0
23946 -23948 0
-23946 23947 23948 0
23949 -23950 0
23949 -23951 0
-23949 23950 23951 0
23952 -23953 0
23952 -23954 0
-23952 23953 23954 0
23955 -23956 0
23955 -23957 0
-23955 23956 23957 0
23958 -23959 0
23958 -23960 0
-23958 23959 23960 0
23961 -23962 0
23961 -23963 0
-23961 23962 23963 0
23964 -23965 0
23964 -23966 0
-23964 23965 23966 0
23967 -23968 0
23967 -23969 0
-23967 23968 23969 0
23970 -23971 0
23970 -23972 0
-23970 23971 23972 0
23973 -23974 0
23973 -23975 0
-23973 23974 23975 0
23976 -23977 0
23976 -23978 0
-23976 23977 23978 0
23979 -23980 0
23979 -23981 0
-23979 23980 23981 0
23982 -23983 0
23982 -23984 0
-23982 23983 23984 0
23985 -23986 0
23985 -23987 0
-23985 23986 23987 0
23988 -23989 0
23988 -23990 0
-23988 23989 23990 0
23991 -23992 0
23991 -23993 0
-23991 23992 23993 0
23994 -24187 0
23994 -24099 0
23994 -23997 0
-23994 24187 24099 23997 0
23998 -23999 0
23998 -24000 0
-23998 23999 24000 0
24001 -24002 0
24001 -24003 0
-24001 24002 24003 0
24004 -24005 0
24004 -24006 0
-24004 24005 24006 0
24007 -24008 0
24007 -24009 0
-24007 24008 24009 0
24010 -24011 0
24010 -24012 0
-24010 24011 24012 0
24013 -24014 0
24013 -24015 0
-24013 24014 24015 0
24016 -24017 0
24016 -24018 0
-24016 24017 24018 0
24019 -24020 0
24019 -24021 0
-24019 24020 24021 0
24022 -24023 0
24022 -24024 0
-24022 24023 24024 0
24025 -24026 0
24025 -24027 0
-24025 24026 24027 0
24028 -24029 0
24028 -24030 0
-24028 24029 24030 0
24031 -24032 0
24031 -24033 0
-24031 24032 24033 0
24034 -24035 0
24034 -24036 0
-24034 24035 24036 0
24037 -24038 0
24037 -24039 0
-24037 24038 24039 0
24040 -24041 0
24040 -24042 0
-24040 24041 24042 0
24043 -24044 0
24043 -24045 0
-24043 24044 24045 0
24046 -24047 0
24046 -24048 0
-24046 24047 24048 0
24049 -24050 0
24049 -24051 0
-24049 24050 24051 0
24052 -24053 0
24052 -24054 0
-24052 24053 24054 0
24055 -24187 0
24055 -24057 0
-24055 24187 24057 0
24058 -24059 0
24058 -24060 0
-24058 24059 24060 0
24061 -24062 0
24061 -24063 0
-24061 24062 24063 0
24064 -24065 0
24064 -24099 0
-24064 24065 24099 0
24067 -24068 0
24067 -24069 0
-24067 24068 24069 0
24070 -24071 0
24070 -24072 0
-24070 24071 24072 0
24073 -24074 0
24073 -24075 0
-24073 24074 24075 0
24076 -24077 0
24076 -24078 0
-24076 24077 24078 0
24079 -24080 0
24079 -24081 0
-24079 24080 24081 0
24082 -24083 0
24082 -24084 0
-24082 24083 24084 0
24085 -24086 0
24085 -24087 0
-24085 24086 24087 0
24088 -24089 0
24088 -24090 0
-24088 24089 24090 0
24091 -24092 0
24091 -24093 0
-24091 24092 24093 0
24094 -24095 0
24094 -24096 0
-24094 24095 24096 0
24097 -24098 0
24097 -24099 0
-24097 24098 24099 0
24100 -24101 0
24100 -24102 0
-24100 24101 24102 0
24103 -24104 0
24103 -24105 0
-24103 24104 24105 0
24106 -24107 0
24106 -24108 0
24106 -24109 0
24106 -24110 0
-24106 24107 24108 24109 24110 0
24111 -24112 0
24111 -24113 0
-24111 24112 24113 0
24114 -24115 0
24114 -24116 0
-24114 24115 24116 0
24117 -24118 0
24117 -24119 0
-24117 24118 24119 0
24120 -24121 0
24120 -24122 0
24120 -24278 0
24120 -24124 0
-24120 24121 24122 24278 24124 0
24125 -24126 0
24125 -24127 0
-24125 24126 24127 0
24128 -24129 0
24128 -24130 0
-24128 24129 24130 0
24131 -24132 0
24131 -24133 0
-24131 24132 24133 0
24134 -24135 0
24134 -24136 0
-24134 24135 24136 0
24137 -24138 0
24137 -24139 0
-24137 24138 24139 0
24140 -24141 0
24140 -24142 0
-24140 24141 24142 0
24143 -24144 0
24143 -24145 0
24143 -24146 0
-24143 24144 24145 24146 0
24147 -24148 0
24147 -24149 0
-24147 24148 24149 0
24150 -24151 0
24150 -24152 0
-24150 24151 24152 0
24153 -24154 0
24153 -24155 0
-24153 24154 24155 0
24156 -24157 0
24156 -24158 0
-24156 24157 24158 0
24159 -24160 0
24159 -24161 0
-24159 24160 24161 0
24243 -24163 0
24243 -24164 0
24243 -24165 0
-24243 24163 24164 24165 0
24166 -24167 0
24166 -24168 0
-24166 24167 24168 0
24169 -24170 0
24169 -24171 0
24169 -24172 0
-24169 24170 24171 24172 0
24173 -24174 0
24173 -24175 0
-24173 24174 24175 0
24176 -24177 0
24176 -24178 0
24176 -24179 0
-24176 24177 24178 24179 0
24180 -24181 0
24180 -24182 0
-24180 24181 24182 0
24183 -24184 0
24183 -24185 0
-24183 24184 24185 0
24186 -24187 0
24186 -24188 0
-24186 24187 24188 0
24189 -24190 0
24189 -24191 0
-24189 24190 24191 0
24192 -24193 0
24192 -24194 0
-24192 24193 24194 0
24195 -24196 0
24195 -24197 0
24195 -24198 0
-24195 24196 24197 24198 0
24199 -24200 0
24199 -24201 0
-24199 24200 24201 0
24202 -24203 0
24202 -24204 0
-24202 24203 24204 0
24205 -24206 0
24205 -24207 0
24205 -24208 0
-24205 24206 24207 24208 0
24209 -24210 0
24209 -24211 0
-24209 24210 24211 0
24212 -24213 0
24212 -24214 0
-24212 24213 24214 0
24215 -24216 0
24215 -24217 0
-24215 24216 24217 0
24218 -24219 0
24218 -24220 0
-24218 24219 24220 0
24221 -24222 0
24221 -24223 0
-24221 24222 24223 0
24224 -24225 0
24224 -24226 0
-24224 24225 24226 0
24227 -24228 0
24227 -24229 0
-24227 24228 24229 0
24230 -24231 0
24230 -24232 0
-24230 24231 24232 0
24280 -24234 0
24280 -24235 0
24280 -24236 0
-24280 24234 24235 24236 0
24237 -24238 0
24237 -24239 0
-24237 24238 24239 0
24240 -24241 0
24240 -24242 0
24240 -24243 0
-24240 24241 24242 24243 0
24244 -24245 0
24244 -24246 0
-24244 24245 24246 0
24247 -24248 0
24247 -24249 0
-24247 24248 24249 0
24250 -24251 0
24250 -24252 0
-24250 24251 24252 0
24253 -24254 0
24253 -24255 0
24253 -24256 0
-24253 24254 24255 24256 0
24257 -24258 0
24257 -24259 0
-24257 24258 24259 0
24260 -24261 0
24260 -24262 0
-24260 24261 24262 0
24263 -24264 0
24263 -24265 0
-24263 24264 24265 0
24312 -24267 0
24312 -24268 0
24312 -24269 0
-24312 24267 24268 24269 0
24270 -24271 0
24270 -24272 0
-24270 24271 24272 0
24273 -24274 0
24273 -24275 0
-24273 24274 24275 0
24276 -24277 0
24276 -24278 0
24276 -24279 0
24276 -24280 0
-24276 24277 24278 24279 24280 0
24324 -24282 0
24324 -24283 0
24324 -24284 0
-24324 24282 24283 24284 0
24285 -24286 0
24285 -24287 0
-24285 24286 24287 0
24288 -24289 0
24288 -24290 0
-24288 24289 24290 0
24291 -24292 0
24291 -24293 0
24291 -24294 0
24291 -24295 0
-24291 24292 24293 24294 24295 0
24296 -24297 0
24296 -24298 0
24296 -24299 0
24296 -24300 0
-24296 24297 24298 24299 24300 0
24301 -24302 0
24301 -24303 0
-24301 24302 24303 0
24304 -24305 0
24304 -24306 0
24304 -24307 0
24304 -24308 0
-24304 24305 24306 24307 24308 0
24309 -24310 0
24309 -24311 0
24309 -24312 0
-24309 24310 24311 24312 0
24313 -24314 0
24313 -24315 0
24313 -24316 0
-24313 24314 24315 24316 0
24317 -24318 0
24317 -24319 0
-24317 24318 24319 0
24320 -24321 0
24320 -24322 0
24320 -24323 0
24320 -24324 0
-24320 24321 24322 24323 24324 0
24325 -24326 0
24325 -24327 0
24325 -24328 0
-24325 24326 24327 24328 0
24329 -24330 0
24329 -24331 0
-24329 24330 24331 0
24332 -24333 0
24332 -24334 0
-24332 24333 24334 0
24335 -24336 0
24335 -24337 0
24335 -24338 0
-24335 24336 24337 24338 0
24339 -24340 0
24339 -24341 0
24339 -24342 0
-24339 24340 24341 24342 0
24343 -24344 0
24343 -24345 0
-24343 24344 24345 0
24346 -24347 0
24346 -24348 0
24346 -24349 0
-24346 24347 24348 24349 0
24350 -24351 0
24350 -24352 0
24350 -24353 0
24350 -24354 0
-24350 24351 24352 24353 24354 0
24355 -24356 0
24355 -24357 0
24355 -24358 0
24355 -24359 0
-24355 24356 24357 24358 24359 0
24360 -24361 0
24360 -24362 0
24360 -24363 0
24360 -24364 0
-24360 24361 24362 24363 24364 0
24365 -24366 0
24365 -24367 0
-24365 24366 24367 0
24368 -24369 0
24368 -24370 0
24368 -24371 0
-24368 24369 24370 24371 0
24372 -24373 0
24372 -24374 0
-24372 24373 24374 0
24375 -24376 0
24375 -24377 0
-24375 24376 24377 0
24378 -24379 0
24378 -24380 0
24378 -24381 0
-24378 24379 24380 24381 0
-24383 26292 0
24383 -26292 0
-24385 25857 0
24385 -25857 0
-24387 25859 0
24387 -25859 0
-24389 26113 0
24389 -26113 0
-24391 25913 0
24391 -25913 0
-24393 25761 0
24393 -25761 0
25842 25820 0
-25842 -25820 0
25498 25790 0
-25498 -25790 0
25817 25890 0
-25817 -25890 0
25784 25458 0
-25784 -25458 0
25778 25782 0
-25778 -25782 0
25781 25757 0
-25781 -25757 0
25791 25239 0
-25791 -25239 0
25793 25761 0
-25793 -25761 0
25802 25913 0
-25802 -25913 0
26110 26113 0
-26110 -26113 0
25902 25859 0
-25902 -25859 0
25950 25857 0
-25950 -25857 0
26017 26292 0
-26017 -26292 0
26248 25756 0
-26248 -25756 0
24425 26113 0
-24425 -26113 0
25860 24425 0
-25860 -24425 0
25862 25762 0
-25862 -25762 0
24431 25890 0
-24431 -25890 0
24824 24431 0
-24824 -24431 0
26020 25765 0
-26020 -25765 0
24437 25902 0
-24437 -25902 0
25887 24437 0
-25887 -24437 0
25453 25771 0
-25453 -25771 0
25287 25774 0
-25287 -25774 0
26249 25777 0
-26249 -25777 0
24447 25777 0
-24447 -25777 0
25941 24447 0
-25941 -24447 0
25314 25783 0
-25314 -25783 0
25179 25841 0
-25179 -25841 0
24942 25792 0
-24942 -25792 0
25898 25795 0
-25898 -25795 0
25901 25798 0
-25901 -25798 0
25315 25801 0
-25315 -25801 0
25907 25804 0
-25907 -25804 0
25910 25807 0
-25910 -25807 0
25970 25810 0
-25970 -25810 0
25015 25856 0
-25015 -25856 0
25196 25816 0
-25196 -25816 0
25925 25819 0
-25925 -25819 0
25069 25822 0
-25069 -25822 0
25273 25871 0
-25273 -25871 0
25940 25828 0
-25940 -25828 0
26121 25831 0
-26121 -25831 0
25955 25834 0
-25955 -25834 0
24485 25857 0
-24485 -25857 0
25281 24485 0
-25281 -24485 0
26201 25855 0
-26201 -25855 0
24491 24696 0
-24491 -24696 0
25330 24491 0
-25330 -24491 0
24495 24933 0
-24495 -24933 0
25384 24495 0
-25384 -24495 0
26112 25909 0
-26112 -25909 0
24498 25189 0
-24498 -25189 0
24500 25398 0
-24500 -25398 0
25605 26111 0
-25605 -26111 0
24504 25478 0
-24504 -25478 0
24506 26164 0
-24506 -26164 0
24508 26173 0
-24508 -26173 0
24510 25599 0
-24510 -25599 0
24512 26267 0
-24512 -26267 0
24514 25619 0
-24514 -25619 0
24516 26284 0
-24516 -26284 0
24518 25683 0
-24518 -25683 0
24520 25687 0
-24520 -25687 0
24522 26315 0
-24522 -26315 0
24524 26327 0
-24524 -26327 0
24526 26339 0
-24526 -26339 0
24528 26349 0
-24528 -26349 0
24547 26353 0
-24547 -26353 0
24532 26357 0
-24532 -26357 0
24549 26360 0
-24549 -26360 0
24551 26364 0
-24551 -26364 0
24555 26369 0
-24555 -26369 0
24557 26374 0
-24557 -26374 0
24542 26379 0
-24542 -26379 0
24559 26382 0
-24559 -26382 0
25739 24547 0
-25739 -24547 0
25742 24549 0
-25742 -24549 0
25745 24551 0
-25745 -24551 0
24552 26386 0
-24552 -26386 0
25748 24555 0
-25748 -24555 0
25751 24557 0
-25751 -24557 0
25754 24559 0
-25754 -24559 0
24560 26392 0
-24560 -26392 0
-25853 26113 0
-25853 25859 0
25853 -26113 -25859 0
-25863 26113 0
-25863 25859 0
25863 -26113 -25859 0
-25904 25913 0
-25904 26113 0
-25904 25859 0
25904 -25913 -26113 -25859 0
-25880 25913 0
-25880 25857 0
25880 -25913 -25857 0
-25865 25820 0
-25865 25857 0
25865 -25820 -25857 0
-25965 25820 0
-25965 25857 0
25965 -25820 -25857 0
-25895 25890 0
-25895 25857 0
25895 -25890 -25857 0
-26129 26113 0
-26129 25857 0
26129 -26113 -25857 0
-25839 25790 0
-25839 26292 0
25839 -25790 -26292 0
-25844 25784 0
-25844 25791 0
25844 -25784 -25791 0
-25193 25458 0
-25193 25793 0
-25193 25859 0
25193 -25458 -25793 -25859 0
-25848 25820 0
-25848 25802 0
-25848 25857 0
25848 -25820 -25802 -25857 0
-25883 25791 0
-25883 25793 0
-25883 25802 0
-25883 26292 0
25883 -25791 -25793 -25802 -26292 0
-25908 25802 0
-25908 25857 0
25908 -25802 -25857 0
-25983 25802 0
-25983 26113 0
-25983 26292 0
25983 -25802 -26113 -26292 0
-25899 25802 0
-25899 26113 0
-25899 25859 0
25899 -25802 -26113 -25859 0
-24836 25790 0
-24836 25239 0
-24836 25793 0
-24836 25802 0
24836 -25790 -25239 -25793 -25802 0
-25847 25817 0
-25847 25913 0
-25847 26110 0
25847 -25817 -25913 -26110 0
-25850 26110 0
-25850 25857 0
25850 -26110 -25857 0
-25869 25784 0
-25869 26110 0
25869 -25784 -26110 0
-25992 25793 0
-25992 25802 0
-25992 26110 0
25992 -25793 -25802 -26110 0
-25197 25761 0
-25197 25913 0
-25197 26110 0
25197 -25761 -25913 -26110 0
-25854 25802 0
-25854 25902 0
25854 -25802 -25902 0
-25968 25790 0
-25968 25902 0
-25968 26292 0
25968 -25790 -25902 -26292 0
-26001 25802 0
-26001 25902 0
-26001 25857 0
26001 -25802 -25902 -25857 0
-25989 25902 0
-25989 26292 0
25989 -25902 -26292 0
-26023 25498 0
-26023 26113 0
-26023 25902 0
26023 -25498 -26113 -25902 0
-25872 25802 0
-25872 25902 0
25872 -25802 -25902 0
-26263 25913 0
-26263 25857 0
-26263 25762 0
26263 -25913 -25857 -25762 0
-25866 25859 0
-25866 25950 0
25866 -25859 -25950 0
-25875 25239 0
-25875 25950 0
25875 -25239 -25950 0
-24932 25793 0
-24932 26113 0
-24932 25950 0
24932 -25793 -26113 -25950 0
-25926 26110 0
-25926 25950 0
25926 -26110 -25950 0
-25962 25802 0
-25962 25950 0
25962 -25802 -25950 0
-26056 25859 0
-26056 25950 0
26056 -25859 -25950 0
-25956 26113 0
-25956 25950 0
25956 -26113 -25950 0
-25974 25859 0
-25974 25950 0
25974 -25859 -25950 0
-25922 25859 0
-25922 25950 0
25922 -25859 -25950 0
-26291 25859 0
-26291 25950 0
26291 -25859 -25950 0
-24696 25913 0
-24696 25765 0
24696 -25913 -25765 0
-25977 25765 0
-25977 26292 0
25977 -25765 -26292 0
-25881 25793 0
-25881 26017 0
25881 -25793 -26017 0
-25884 25913 0
-25884 26017 0
25884 -25913 -26017 0
-26053 25793 0
-26053 26113 0
-26053 25902 0
-26053 26017 0
26053 -25793 -26113 -25902 -26017 0
-26059 25802 0
-26059 26113 0
-26059 25950 0
-26059 26017 0
26059 -25802 -26113 -25950 -26017 0
-25935 25802 0
-25935 25950 0
-25935 26017 0
25935 -25802 -25950 -26017 0
-26089 25802 0
-26089 26113 0
-26089 25902 0
-26089 26017 0
26089 -25802 -26113 -25902 -26017 0
-25938 25781 0
-25938 25950 0
-25938 26017 0
25938 -25781 -25950 -26017 0
-26065 25802 0
-26065 25950 0
-26065 26017 0
26065 -25802 -25950 -26017 0
-25953 25458 0
-25953 25902 0
-25953 26017 0
25953 -25458 -25902 -26017 0
-25947 25902 0
-25947 26017 0
25947 -25902 -26017 0
-26098 25762 0
-26098 26017 0
26098 -25762 -26017 0
-25959 25802 0
-25959 26113 0
-25959 25950 0
-25959 26017 0
25959 -25802 -26113 -25950 -26017 0
-25944 25950 0
-25944 26017 0
25944 -25950 -26017 0
-26107 25759 0
-26107 26017 0
-26107 25762 0
26107 -25759 -26017 -25762 0
-26074 25791 0
-26074 25950 0
-26074 26017 0
26074 -25791 -25950 -26017 0
-26127 26017 0
-26127 25765 0
26127 -26017 -25765 0
-26240 25761 0
-26240 26017 0
26240 -25761 -26017 0
-26011 25768 0
-26011 25857 0
26011 -25768 -25857 0
-25886 25774 0
-25886 25950 0
25886 -25774 -25950 0
-25893 25902 0
-25893 25780 0
25893 -25902 -25780 0
-25896 25783 0
-25896 25950 0
25896 -25783 -25950 0
-25917 25786 0
-25917 25950 0
-25917 26017 0
25917 -25786 -25950 -26017 0
-26095 25792 0
-26095 25781 0
-26095 26113 0
-26095 26017 0
26095 -25792 -25781 -26113 -26017 0
-25905 25801 0
-25905 25902 0
25905 -25801 -25902 0
-25920 25857 0
-25920 25804 0
25920 -25857 -25804 0
-25914 25810 0
-25914 25857 0
25914 -25810 -25857 0
-26014 25913 0
-26014 25856 0
26014 -25913 -25856 0
-25916 25857 0
-25916 25856 0
25916 -25857 -25856 0
-25919 25816 0
-25919 25950 0
25919 -25816 -25950 0
-25923 25857 0
-25923 25816 0
25923 -25857 -25816 0
-26007 25791 0
-26007 25802 0
-26007 26292 0
-26007 25862 0
26007 -25791 -25802 -26292 -25862 0
-26312 25913 0
-26312 26017 0
-26312 25862 0
26312 -25913 -26017 -25862 0
-25932 26113 0
-25932 26292 0
-25932 25822 0
25932 -26113 -26292 -25822 0
-26293 25913 0
-26293 24824 0
26293 -25913 -24824 0
-26179 26113 0
-26179 25871 0
26179 -26113 -25871 0
-26038 25239 0
-26038 26292 0
-26038 26020 0
26038 -25239 -26292 -26020 0
-26029 26113 0
-26029 26017 0
-26029 26020 0
-26029 24836 0
26029 -26113 -26017 -26020 -24836 0
-26032 25802 0
-26032 26110 0
-26032 26020 0
26032 -25802 -26110 -26020 0
-26101 26113 0
-26101 26020 0
26101 -26113 -26020 0
-25931 25458 0
-25931 26017 0
-25931 26020 0
25931 -25458 -26017 -26020 0
-26214 25791 0
-26214 26113 0
-26214 26017 0
-26214 26020 0
26214 -25791 -26113 -26017 -26020 0
-26162 26113 0
-26162 26292 0
-26162 26020 0
26162 -26113 -26292 -26020 0
-25157 25793 0
-25157 25802 0
-25157 26020 0
25157 -25793 -25802 -26020 0
-25943 25828 0
-25943 26110 0
25943 -25828 -26110 0
-26116 25862 0
-26116 25828 0
26116 -25862 -25828 0
-25946 25831 0
-25946 26110 0
25946 -25831 -26110 0
-26004 25834 0
-26004 25902 0
26004 -25834 -25902 0
-25979 25802 0
-25979 25859 0
-25979 25453 0
25979 -25802 -25859 -25453 0
-26207 25950 0
-26207 25453 0
26207 -25950 -25453 0
-26370 25913 0
-26370 25859 0
-26370 25453 0
26370 -25913 -25859 -25453 0
-25958 25837 0
-25958 25913 0
-25958 25857 0
25958 -25837 -25913 -25857 0
-26104 25287 0
-26104 25762 0
26104 -25287 -25762 0
-25961 25913 0
-25961 25857 0
-25961 26249 0
25961 -25913 -25857 -26249 0
-25986 25802 0
-25986 26110 0
-25986 25950 0
-25986 26249 0
25986 -25802 -26110 -25950 -26249 0
-25964 25902 0
-25964 26249 0
25964 -25902 -26249 0
-25967 25913 0
-25967 26017 0
-25967 26249 0
25967 -25913 -26017 -26249 0
-25971 26113 0
-25971 26249 0
25971 -26113 -26249 0
-26061 25453 0
-26061 26249 0
26061 -25453 -26249 0
-26171 25802 0
-26171 26110 0
-26171 26020 0
-26171 26249 0
26171 -25802 -26110 -26020 -26249 0
-26204 25950 0
-26204 25453 0
-26204 26249 0
26204 -25950 -25453 -26249 0
-26168 26017 0
-26168 25862 0
-26168 26249 0
26168 -26017 -25862 -26249 0
-26135 25798 0
-26135 26249 0
26135 -25798 -26249 0
-26049 26017 0
-26049 25314 0
-26049 24932 0
26049 -26017 -25314 -24932 0
-24933 25458 0
-24933 26292 0
-24933 25840 0
24933 -25458 -26292 -25840 0
-25973 25843 0
-25973 25902 0
25973 -25843 -25902 0
-25976 26017 0
-25976 24942 0
25976 -26017 -24942 0
-25980 26113 0
-25980 25857 0
-25980 25898 0
25980 -26113 -25857 -25898 0
-26026 25817 0
-26026 25761 0
-26026 25898 0
26026 -25817 -25761 -25898 0
-25982 25817 0
-25982 26017 0
-25982 25901 0
25982 -25817 -26017 -25901 0
-26040 26292 0
-26040 25901 0
26040 -26292 -25901 0
-26082 26017 0
-26082 25901 0
26082 -26017 -25901 0
-26043 25771 0
-26043 25901 0
26043 -25771 -25901 0
-25985 25890 0
-25985 25315 0
25985 -25890 -25315 0
-25988 26017 0
-25988 25315 0
25988 -26017 -25315 0
-25991 25857 0
-25991 25315 0
25991 -25857 -25315 0
-25995 25913 0
-25995 25907 0
25995 -25913 -25907 0
-25998 25913 0
-25998 25857 0
-25998 25907 0
25998 -25913 -25857 -25907 0
-26188 25913 0
-26188 25857 0
-26188 25907 0
26188 -25913 -25857 -25907 0
-26289 25913 0
-26289 25857 0
-26289 25907 0
26289 -25913 -25857 -25907 0
-26266 25793 0
-26266 25859 0
-26266 25846 0
26266 -25793 -25859 -25846 0
-26255 25902 0
-26255 25849 0
26255 -25902 -25849 0
-25994 25802 0
-25994 26110 0
-25994 25910 0
25994 -25802 -26110 -25910 0
-25997 25802 0
-25997 26110 0
-25997 25910 0
25997 -25802 -26110 -25910 0
-26000 25901 0
-26000 25970 0
26000 -25901 -25970 0
-26003 26292 0
-26003 25970 0
26003 -26292 -25970 0
-26006 25239 0
-26006 25015 0
-26006 25315 0
26006 -25239 -25015 -25315 0
-26067 25819 0
-26067 25015 0
26067 -25819 -25015 0
-26185 25855 0
-26185 26113 0
26185 -25855 -26113 0
-26013 26017 0
-26013 25196 0
26013 -26017 -25196 0
-26034 25950 0
-26034 25196 0
26034 -25950 -25196 0
-26217 25950 0
-26217 26017 0
-26217 25196 0
26217 -25950 -26017 -25196 0
-26348 25858 0
-26348 25890 0
-26348 25913 0
-26348 25857 0
26348 -25858 -25890 -25913 -25857 0
-26193 25861 0
-26193 25802 0
-26193 25857 0
26193 -25861 -25802 -25857 0
-26016 26110 0
-26016 25069 0
26016 -26110 -25069 0
-26019 25842 0
-26019 25069 0
26019 -25842 -25069 0
-26085 26113 0
-26085 25069 0
26085 -26113 -25069 0
-26022 26110 0
-26022 25069 0
26022 -26110 -25069 0
-26025 25781 0
-26025 25793 0
-26025 25802 0
-26025 25069 0
26025 -25781 -25793 -25802 -25069 0
-26028 25913 0
-26028 26110 0
-26028 25069 0
26028 -25913 -26110 -25069 0
-26031 25820 0
-26031 25841 0
-26031 25913 0
-26031 25069 0
26031 -25820 -25841 -25913 -25069 0
-26046 26110 0
-26046 25069 0
26046 -26110 -25069 0
-26132 25802 0
-26132 25069 0
26132 -25802 -25069 0
-26035 25928 0
-26035 25802 0
26035 -25928 -25802 0
-26037 25820 0
-26037 25859 0
-26037 25273 0
26037 -25820 -25859 -25273 0
-26041 25802 0
-26041 26113 0
-26041 25273 0
26041 -25802 -26113 -25273 0
-26092 25859 0
-26092 25273 0
26092 -25859 -25273 0
-26044 25802 0
-26044 25273 0
26044 -25802 -25273 0
-26181 25902 0
-26181 25273 0
26181 -25902 -25273 0
-26146 25859 0
-26146 25273 0
26146 -25859 -25273 0
-26237 25795 0
-26237 26113 0
-26237 25273 0
26237 -25795 -26113 -25273 0
-26198 26113 0
-26198 25859 0
-26198 25273 0
26198 -26113 -25859 -25273 0
-26143 25802 0
-26143 25902 0
-26143 25273 0
26143 -25802 -25902 -25273 0
-26224 25790 0
-26224 26113 0
-26224 25273 0
26224 -25790 -26113 -25273 0
-26118 26110 0
-26118 25273 0
-26118 26249 0
-26118 25910 0
26118 -26110 -25273 -26249 -25910 0
-26252 25802 0
-26252 25902 0
-26252 25273 0
26252 -25802 -25902 -25273 0
-26278 26113 0
-26278 25859 0
-26278 25273 0
26278 -26113 -25859 -25273 0
-26260 25273 0
-26260 25810 0
26260 -25273 -25810 0
-26245 26113 0
-26245 25902 0
-26245 25273 0
26245 -26113 -25902 -25273 0
-26268 25802 0
-26268 25902 0
-26268 25273 0
26268 -25802 -25902 -25273 0
-26275 25852 0
-26275 25273 0
26275 -25852 -25273 0
-26344 25862 0
-26344 25273 0
26344 -25862 -25273 0
-26158 25867 0
-26158 25902 0
26158 -25867 -25902 0
-26124 26113 0
-26124 25870 0
26124 -26113 -25870 0
-26047 25873 0
-26047 25902 0
26047 -25873 -25902 0
-26269 25876 0
-26269 25913 0
26269 -25876 -25913 0
-26351 25913 0
-26351 25876 0
26351 -25913 -25876 0
-26380 25453 0
-26380 26249 0
-26380 25157 0
26380 -25453 -26249 -25157 0
-26050 25890 0
-26050 25761 0
-26050 26110 0
-26050 25940 0
26050 -25890 -25761 -26110 -25940 0
-26052 25761 0
-26052 25913 0
-26052 25940 0
-26052 25970 0
26052 -25761 -25913 -25940 -25970 0
-26055 25902 0
-26055 25940 0
26055 -25902 -25940 0
-26058 25817 0
-26058 25913 0
-26058 25940 0
26058 -25817 -25913 -25940 0
-26062 25458 0
-26062 25913 0
-26062 25940 0
-26062 25179 0
26062 -25458 -25913 -25940 -25179 0
-26064 25239 0
-26064 25940 0
26064 -25239 -25940 0
-26068 25902 0
-26068 25940 0
26068 -25902 -25940 0
-26076 25913 0
-26076 25940 0
26076 -25913 -25940 0
-25189 25940 0
-25189 25315 0
-25189 25841 0
-25189 25193 0
25189 -25940 -25315 -25841 -25193 0
-26174 25940 0
-26174 25196 0
-26174 25197 0
26174 -25940 -25196 -25197 0
-26071 25902 0
-26071 25940 0
26071 -25902 -25940 0
-26195 26113 0
-26195 25859 0
-26195 25940 0
26195 -26113 -25859 -25940 0
-26227 25498 0
-26227 25902 0
-26227 25940 0
26227 -25498 -25902 -25940 0
-26073 25840 0
-26073 25458 0
-26073 25940 0
26073 -25840 -25458 -25940 0
-26311 26113 0
-26311 25940 0
26311 -26113 -25940 0
-26077 25498 0
-26077 25879 0
26077 -25498 -25879 0
-26079 25784 0
-26079 26121 0
26079 -25784 -26121 0
-26155 25950 0
-26155 26121 0
26155 -25950 -26121 0
-26140 25950 0
-26140 26121 0
26140 -25950 -26121 0
-26337 26113 0
-26337 25950 0
-26337 26121 0
26337 -26113 -25950 -26121 0
-26283 25950 0
-26283 26121 0
26283 -25950 -26121 0
-26083 25784 0
-26083 25882 0
26083 -25784 -25882 0
-26086 25239 0
-26086 26020 0
-26086 25955 0
26086 -25239 -26020 -25955 0
-26088 25950 0
-26088 25955 0
26088 -25950 -25955 0
-26091 25761 0
-26091 25955 0
26091 -25761 -25955 0
-26094 25761 0
-26094 25859 0
-26094 25955 0
26094 -25761 -25859 -25955 0
-26097 25902 0
-26097 25955 0
26097 -25902 -25955 0
-26100 25822 0
-26100 25955 0
26100 -25822 -25955 0
-26103 25859 0
-26103 25955 0
26103 -25859 -25955 0
-26106 25859 0
-26106 25955 0
26106 -25859 -25955 0
-26152 25761 0
-26152 25913 0
-26152 25955 0
26152 -25761 -25913 -25955 0
-26221 25885 0
-26221 26110 0
26221 -25885 -26110 0
-26109 25888 0
-26109 25273 0
26109 -25888 -25273 0
-26122 25891 0
-26122 25950 0
26122 -25891 -25950 0
-26138 25913 0
-26138 25894 0
26138 -25913 -25894 0
-26362 25281 0
-26362 25761 0
-26362 26113 0
-26362 26017 0
26362 -25281 -25761 -26113 -26017 0
-26306 25897 0
-26306 25287 0
26306 -25897 -25287 0
-26212 25900 0
-26212 26292 0
26212 -25900 -26292 0
-26234 25761 0
-26234 26017 0
-26234 25903 0
26234 -25761 -26017 -25903 0
-26256 25906 0
-26256 25780 0
26256 -25906 -25780 0
-26352 25761 0
-26352 26017 0
-26352 25912 0
26352 -25761 -26017 -25912 0
-26115 26113 0
-26115 26201 0
26115 -26113 -26201 0
-26165 25761 0
-26165 26201 0
-26165 25315 0
26165 -25761 -26201 -25315 0
-26149 26110 0
-26149 26201 0
26149 -26110 -26201 0
-26272 26201 0
-26272 25314 0
-26272 25315 0
26272 -26201 -25314 -25315 0
-26119 25915 0
-26119 26113 0
26119 -25915 -26113 0
-26123 25913 0
-26123 25918 0
26123 -25913 -25918 0
-26126 26110 0
-26126 25921 0
26126 -26110 -25921 0
-26130 25793 0
-26130 25924 0
26130 -25793 -25924 0
-26133 25761 0
-26133 25330 0
26133 -25761 -25330 0
-26136 25927 0
-26136 25802 0
26136 -25927 -25802 0
-26298 25913 0
-26298 25930 0
26298 -25913 -25930 0
-26211 25784 0
-26211 25933 0
26211 -25784 -25933 0
-26141 25936 0
-26141 25902 0
26141 -25936 -25902 0
-26222 25939 0
-26222 25902 0
26222 -25939 -25902 0
-26144 25942 0
-26144 25913 0
-26144 25859 0
26144 -25942 -25913 -25859 0
-26243 25945 0
-26243 25761 0
-26243 25950 0
26243 -25945 -25761 -25950 0
-26147 25948 0
-26147 25902 0
26147 -25948 -25902 0
-26365 25951 0
-26365 25901 0
26365 -25951 -25901 0
-26328 25954 0
-26328 25898 0
26328 -25954 -25898 0
-26150 25957 0
-26150 25902 0
26150 -25957 -25902 0
-26153 25960 0
-26153 25793 0
-26153 26113 0
-26153 26017 0
26153 -25960 -25793 -26113 -26017 0
-26156 25963 0
-26156 26017 0
26156 -25963 -26017 0
-26231 25793 0
-26231 25857 0
-26231 25966 0
26231 -25793 -25857 -25966 0
-26159 25817 0
-26159 26017 0
-26159 25969 0
26159 -25817 -26017 -25969 0
-26160 26113 0
-26160 25384 0
26160 -26113 -25384 0
-26186 25972 0
-26186 26292 0
26186 -25972 -26292 0
-26163 25975 0
-26163 26110 0
26163 -25975 -26110 0
-26336 25978 0
-26336 25777 0
26336 -25978 -25777 0
-26166 25981 0
-26166 25793 0
-26166 25902 0
26166 -25981 -25793 -25902 0
-25398 25984 0
-25398 25793 0
-25398 25902 0
-25398 26017 0
25398 -25984 -25793 -25902 -26017 0
-26169 25784 0
-26169 25987 0
26169 -25784 -25987 0
-26191 25990 0
-26191 26249 0
26191 -25990 -26249 0
-26172 25993 0
-26172 25756 0
-26172 25857 0
26172 -25993 -25756 -25857 0
-26304 25780 0
-26304 25996 0
-26304 26017 0
26304 -25780 -25996 -26017 0
-26378 25761 0
-26378 26017 0
-26378 25999 0
26378 -25761 -26017 -25999 0
-26361 26002 0
-26361 25901 0
26361 -26002 -25901 0
-26175 26005 0
-26175 25458 0
-26175 25793 0
-26175 25950 0
26175 -26005 -25458 -25793 -25950 0
-26178 25802 0
-26178 26008 0
26178 -25802 -26008 0
-26177 26012 0
-26177 25950 0
26177 -26012 -25950 0
-26182 26015 0
-26182 25913 0
26182 -26015 -25913 0
-26184 26017 0
-26184 26018 0
-26184 26249 0
26184 -26017 -26018 -26249 0
-26189 25802 0
-26189 26110 0
-26189 26018 0
26189 -25802 -26110 -26018 0
-26325 25802 0
-26325 26017 0
-26325 26021 0
26325 -25802 -26017 -26021 0
-26340 25842 0
-26340 26024 0
-26340 25453 0
26340 -25842 -26024 -25453 0
-26371 25817 0
-26371 26027 0
26371 -25817 -26027 0
-26320 25458 0
-26320 26030 0
-26320 26292 0
26320 -25458 -26030 -26292 0
-26192 25793 0
-26192 26033 0
-26192 26110 0
26192 -25793 -26033 -26110 0
-26196 26036 0
-26196 26110 0
26196 -26036 -26110 0
-26376 26039 0
-26376 25902 0
26376 -26039 -25902 0
-26199 26042 0
-26199 25902 0
26199 -26042 -25902 0
-26309 25802 0
-26309 26292 0
-26309 26045 0
26309 -25802 -26292 -26045 0
-25478 26048 0
-25478 25913 0
-25478 25859 0
25478 -26048 -25913 -25859 0
-26377 25890 0
-26377 26051 0
26377 -25890 -26051 0
-26202 26054 0
-26202 25802 0
26202 -26054 -25802 0
-26324 26113 0
-26324 26054 0
26324 -26113 -26054 0
-26205 25498 0
-26205 26057 0
26205 -25498 -26057 0
-26208 25842 0
-26208 26060 0
26208 -25842 -26060 0
-26210 25498 0
-26210 26063 0
26210 -25498 -26063 0
-26215 26066 0
-26215 26110 0
26215 -26066 -26110 0
-26218 26069 0
-26218 25802 0
26218 -26069 -25802 0
-26220 26072 0
-26220 26113 0
26220 -26072 -26113 0
-26225 26075 0
-26225 26110 0
26225 -26075 -26110 0
-26228 26078 0
-26228 25802 0
26228 -26078 -25802 0
-26383 26081 0
-26383 25862 0
26383 -26081 -25862 0
-26322 25802 0
-26322 26084 0
26322 -25802 -26084 0
-26281 25791 0
-26281 26087 0
26281 -25791 -26087 0
-26230 26090 0
-26230 25913 0
26230 -26090 -25913 0
-26233 25817 0
-26233 25913 0
-26233 26093 0
26233 -25817 -25913 -26093 0
-26236 26096 0
-26236 25901 0
26236 -26096 -25901 0
-26356 25761 0
-26356 26099 0
-26356 25913 0
26356 -25761 -26099 -25913 0
-26239 26102 0
-26239 25857 0
26239 -26102 -25857 0
-26242 26105 0
-26242 25857 0
26242 -26105 -25857 0
-26246 26108 0
-26246 25859 0
26246 -26108 -25859 0
-26250 26111 0
-26250 25802 0
26250 -26111 -25802 0
-26253 26114 0
-26253 25913 0
26253 -26114 -25913 0
-26301 25802 0
-26301 26117 0
26301 -25802 -26117 0
-26286 25793 0
-26286 26120 0
26286 -25793 -26120 0
-26259 25913 0
-26259 26125 0
26259 -25913 -26125 0
-26262 26128 0
-26262 25859 0
26262 -26128 -25859 0
-26265 26131 0
-26265 26113 0
26265 -26131 -26113 0
-26270 25793 0
-26270 26134 0
26270 -25793 -26134 0
-26273 26139 0
-26273 25802 0
-26273 26110 0
26273 -26139 -25802 -26110 0
-26329 25761 0
-26329 26142 0
26329 -25761 -26142 0
-26276 25913 0
-26276 26145 0
26276 -25913 -26145 0
-26296 25890 0
-26296 26148 0
26296 -25890 -26148 0
-26354 25817 0
-26354 26151 0
26354 -25817 -26151 0
-26279 26154 0
-26279 26110 0
26279 -26154 -26110 0
-26282 25913 0
-26282 26157 0
26282 -25913 -26157 0
-26285 26161 0
-26285 25913 0
26285 -26161 -25913 0
-26308 26167 0
-26308 25950 0
26308 -26167 -25950 0
-25599 26170 0
-25599 25793 0
-25599 26017 0
25599 -26170 -25793 -26017 0
-26288 25802 0
-26288 25605 0
26288 -25802 -25605 0
-26333 25761 0
-26333 26180 0
26333 -25761 -26180 0
-26313 26183 0
-26313 25802 0
26313 -26183 -25802 0
-25686 26187 0
-25686 25782 0
-25686 25781 0
25686 -26187 -25782 -25781 0
-26317 26190 0
-26317 26017 0
26317 -26190 -26017 0
-25619 26194 0
-25619 25793 0
-25619 25802 0
25619 -26194 -25793 -25802 0
-26373 25761 0
-26373 26197 0
26373 -25761 -26197 0
-26390 26200 0
-26390 26110 0
26390 -26200 -26110 0
-26297 26203 0
-26297 25902 0
26297 -26203 -25902 0
-26319 26206 0
-26319 25859 0
26319 -26206 -25859 0
-26300 26209 0
-26300 26113 0
26300 -26209 -26113 0
-26335 25802 0
-26335 26213 0
26335 -25802 -26213 0
-26303 26216 0
-26303 26110 0
26303 -26216 -26110 0
-26307 25913 0
-26307 26219 0
26307 -25913 -26219 0
-26395 26223 0
-26395 25859 0
26395 -26223 -25859 0
-26314 25890 0
-26314 26226 0
26314 -25890 -26226 0
-26367 25817 0
-26367 26229 0
26367 -25817 -26229 0
-26341 26232 0
-26341 25857 0
26341 -26232 -25857 0
-26358 26235 0
-26358 25761 0
26358 -26235 -25761 0
-26388 25913 0
-26388 26238 0
26388 -25913 -26238 0
-26316 25913 0
-26316 26241 0
26316 -25913 -26241 0
-26321 25913 0
-26321 26244 0
26321 -25913 -26244 0
-26393 26251 0
-26393 25761 0
26393 -26251 -25761 0
-26330 25793 0
-26330 26254 0
26330 -25793 -26254 0
-26384 25761 0
-26384 26258 0
26384 -25761 -26258 0
-26332 26261 0
-26332 26017 0
26332 -26261 -26017 0
-25683 25793 0
-25683 26017 0
-25683 25686 0
25683 -25793 -26017 -25686 0
-25687 26264 0
-25687 26017 0
25687 -26264 -26017 0
-26342 25793 0
-26342 26271 0
26342 -25793 -26271 0
-26368 25761 0
-26368 26274 0
26368 -25761 -26274 0
-26345 25793 0
-26345 26277 0
26345 -25793 -26277 0
-26347 26287 0
-26347 26249 0
26347 -26287 -26249 0
-26350 25793 0
-26350 26290 0
26350 -25793 -26290 0
-26355 26299 0
-26355 25793 0
26355 -26299 -25793 0
-26359 26302 0
-26359 25793 0
26359 -26302 -25793 0
-26363 25793 0
-26363 26305 0
26363 -25793 -26305 0
-26366 26310 0
-26366 25793 0
26366 -26310 -25793 0
-26372 26318 0
-26372 25793 0
26372 -26318 -25793 0
-26375 26323 0
-26375 25793 0
26375 -26323 -25793 0
-26381 26331 0
-26381 25890 0
26381 -26331 -25890 0
-26385 25793 0
-26385 26334 0
26385 -25793 -26334 0
-26387 26343 0
-26387 25802 0
26387 -26343 -25802 0
-26391 26346 0
-26391 26017 0
26391 -26346 -26017 0
-26394 25793 0
-26394 26389 0
26394 -25793 -26389 0
-26407 25739 0
-26407 25755 0
26407 -25739 -25755 0
-26401 25742 0
-26401 25755 0
26401 -25742 -25755 0
-26405 25745 0
-26405 25755 0
26405 -25745 -25755 0
-26397 25748 0
-26397 25755 0
26397 -25748 -25755 0
-26399 25751 0
-26399 25755 0
26399 -25751 -25755 0
-26403 25754 0
-26403 25755 0
26403 -25754 -25755 0
25756 -25757 0
25756 -25782 0
-25756 25757 25782 0
25759 -25890 0
25759 -25761 0
-25759 25890 25761 0
25762 -26113 0
25762 -25859 0
-25762 26113 25859 0
25765 -25859 0
25765 -25857 0
-25765 25859 25857 0
25768 -25820 0
25768 -26292 0
-25768 25820 26292 0
25771 -26113 0
25771 -26292 0
-25771 26113 26292 0
25774 -25817 0
25774 -26292 0
-25774 25817 26292 0
25777 -25778 0
25777 -25781 0
-25777 25778 25781 0
25780 -25781 0
25780 -25782 0
-25780 25781 25782 0
25783 -25784 0
25783 -25791 0
-25783 25784 25791 0
25786 -25791 0
25786 -25859 0
-25786 25791 25859 0
25841 -25790 0
25841 -25791 0
-25841 25790 25791 0
25792 -25793 0
25792 -25859 0
-25792 25793 25859 0
25795 -25802 0
25795 -25859 0
-25795 25802 25859 0
25798 -25802 0
25798 -25857 0
-25798 25802 25857 0
25801 -25802 0
25801 -26110 0
-25801 25802 26110 0
25804 -26110 0
25804 -25890 0
-25804 26110 25890 0
25807 -25820 0
25807 -25902 0
-25807 25820 25902 0
25810 -25902 0
25810 -26113 0
-25810 25902 26113 0
25856 -25902 0
25856 -26292 0
-25856 25902 26292 0
25816 -25817 0
25816 -25902 0
-25816 25817 25902 0
25819 -25820 0
25819 -25950 0
-25819 25820 25950 0
25822 -25902 0
25822 -25950 0
-25822 25902 25950 0
25871 -25950 0
25871 -26292 0
-25871 25950 26292 0
25828 -25950 0
25828 -26017 0
-25828 25950 26017 0
25831 -25902 0
25831 -26017 0
-25831 25902 26017 0
25834 -26113 0
25834 -26017 0
-25834 26113 26017 0
25837 -26113 0
25837 -25839 0
-25837 26113 25839 0
25840 -25841 0
25840 -25842 0
-25840 25841 25842 0
25843 -25844 0
25843 -25857 0
-25843 25844 25857 0
25846 -25847 0
25846 -25848 0
-25846 25847 25848 0
25849 -25850 0
25849 -26292 0
-25849 25850 26292 0
25852 -25853 0
25852 -25854 0
-25852 25853 25854 0
25855 -25856 0
25855 -25857 0
-25855 25856 25857 0
25858 -25859 0
25858 -25860 0
-25858 25859 25860 0
25861 -25862 0
25861 -25863 0
-25861 25862 25863 0
25928 -25865 0
25928 -25866 0
-25928 25865 25866 0
25867 -25871 0
25867 -25869 0
-25867 25871 25869 0
25870 -25871 0
25870 -25872 0
-25870 25871 25872 0
25873 -26113 0
25873 -25875 0
-25873 26113 25875 0
25876 -26020 0
25876 -26110 0
-25876 26020 26110 0
25879 -25880 0
25879 -25881 0
-25879 25880 25881 0
25882 -25883 0
25882 -25884 0
-25882 25883 25884 0
25885 -25886 0
25885 -25887 0
-25885 25886 25887 0
25888 -26249 0
25888 -25890 0
-25888 26249 25890 0
25891 -26292 0
25891 -25893 0
-25891 26292 25893 0
25894 -25895 0
25894 -25896 0
-25894 25895 25896 0
25897 -25898 0
25897 -25899 0
-25897 25898 25899 0
25900 -25901 0
25900 -25902 0
-25900 25901 25902 0
25903 -25904 0
25903 -25905 0
-25903 25904 25905 0
25906 -25907 0
25906 -25908 0
-25906 25907 25908 0
25909 -25910 0
25909 -25950 0
-25909 25910 25950 0
25912 -25913 0
25912 -25914 0
-25912 25913 25914 0
25915 -25916 0
25915 -25917 0
-25915 25916 25917 0
25918 -25919 0
25918 -25920 0
-25918 25919 25920 0
25921 -25922 0
25921 -25923 0
-25921 25922 25923 0
25924 -25925 0
25924 -25926 0
-25924 25925 25926 0
25927 -25928 0
25927 -26113 0
-25927 25928 26113 0
25930 -25931 0
25930 -25932 0
-25930 25931 25932 0
25933 -25940 0
25933 -25935 0
-25933 25940 25935 0
25936 -25940 0
25936 -25938 0
-25936 25940 25938 0
25939 -25940 0
25939 -25941 0
-25939 25940 25941 0
25942 -25943 0
25942 -25944 0
-25942 25943 25944 0
25945 -25946 0
25945 -25947 0
-25945 25946 25947 0
25948 -25955 0
25948 -25950 0
-25948 25955 25950 0
25951 -25955 0
25951 -25953 0
-25951 25955 25953 0
25954 -25955 0
25954 -25956 0
-25954 25955 25956 0
25957 -25958 0
25957 -25959 0
-25957 25958 25959 0
25960 -25961 0
25960 -25962 0
-25960 25961 25962 0
25963 -25964 0
25963 -25965 0
-25963 25964 25965 0
25966 -25967 0
25966 -25968 0
-25966 25967 25968 0
25969 -25970 0
25969 -25971 0
-25969 25970 25971 0
25972 -25973 0
25972 -25974 0
-25972 25973 25974 0
25975 -25976 0
25975 -25977 0
-25975 25976 25977 0
25978 -25979 0
25978 -25980 0
-25978 25979 25980 0
25981 -25982 0
25981 -25983 0
-25981 25982 25983 0
25984 -25985 0
25984 -25986 0
-25984 25985 25986 0
25987 -25988 0
25987 -25989 0
-25987 25988 25989 0
25990 -25991 0
25990 -25992 0
-25990 25991 25992 0
25993 -25994 0
25993 -25995 0
-25993 25994 25995 0
25996 -25997 0
25996 -25998 0
-25996 25997 25998 0
25999 -26000 0
25999 -26001 0
-25999 26000 26001 0
26002 -26003 0
26002 -26004 0
-26002 26003 26004 0
26005 -26006 0
26005 -26007 0
-26005 26006 26007 0
26008 -26201 0
26008 -26113 0
26008 -26011 0
-26008 26201 26113 26011 0
26012 -26013 0
26012 -26014 0
-26012 26013 26014 0
26015 -26016 0
26015 -26017 0
-26015 26016 26017 0
26018 -26019 0
26018 -26020 0
-26018 26019 26020 0
26021 -26022 0
26021 -26023 0
-26021 26022 26023 0
26024 -26025 0
26024 -26026 0
-26024 26025 26026 0
26027 -26028 0
26027 -26029 0
-26027 26028 26029 0
26030 -26031 0
26030 -26032 0
-26030 26031 26032 0
26033 -26034 0
26033 -26035 0
-26033 26034 26035 0
26036 -26037 0
26036 -26038 0
-26036 26037 26038 0
26039 -26040 0
26039 -26041 0
-26039 26040 26041 0
26042 -26043 0
26042 -26044 0
-26042 26043 26044 0
26045 -26046 0
26045 -26047 0
-26045 26046 26047 0
26048 -26049 0
26048 -26050 0
-26048 26049 26050 0
26051 -26052 0
26051 -26053 0
-26051 26052 26053 0
26054 -26055 0
26054 -26056 0
-26054 26055 26056 0
26057 -26058 0
26057 -26059 0
-26057 26058 26059 0
26060 -26061 0
26060 -26062 0
-26060 26061 26062 0
26063 -26064 0
26063 -26065 0
-26063 26064 26065 0
26066 -26067 0
26066 -26068 0
-26066 26067 26068 0
26069 -26201 0
26069 -26071 0
-26069 26201 26071 0
26072 -26073 0
26072 -26074 0
-26072 26073 26074 0
26075 -26076 0
26075 -26077 0
-26075 26076 26077 0
26078 -26079 0
26078 -26113 0
-26078 26079 26113 0
26081 -26082 0
26081 -26083 0
-26081 26082 26083 0
26084 -26085 0
26084 -26086 0
-26084 26085 26086 0
26087 -26088 0
26087 -26089 0
-26087 26088 26089 0
26090 -26091 0
26090 -26092 0
-26090 26091 26092 0
26093 -26094 0
26093 -26095 0
-26093 26094 26095 0
26096 -26097 0
26096 -26098 0
-26096 26097 26098 0
26099 -26100 0
26099 -26101 0
-26099 26100 26101 0
26102 -26103 0
26102 -26104 0
-26102 26103 26104 0
26105 -26106 0
26105 -26107 0
-26105 26106 26107 0
26108 -26109 0
26108 -26110 0
-26108 26109 26110 0
26111 -26112 0
26111 -26113 0
-26111 26112 26113 0
26114 -26115 0
26114 -26116 0
-26114 26115 26116 0
26117 -26118 0
26117 -26119 0
-26117 26118 26119 0
26120 -26121 0
26120 -26122 0
26120 -26123 0
26120 -26124 0
-26120 26121 26122 26123 26124 0
26125 -26126 0
26125 -26127 0
-26125 26126 26127 0
26128 -26129 0
26128 -26130 0
-26128 26129 26130 0
26131 -26132 0
26131 -26133 0
-26131 26132 26133 0
26134 -26135 0
26134 -26136 0
26134 -26292 0
26134 -26138 0
-26134 26135 26136 26292 26138 0
26139 -26140 0
26139 -26141 0
-26139 26140 26141 0
26142 -26143 0
26142 -26144 0
-26142 26143 26144 0
26145 -26146 0
26145 -26147 0
-26145 26146 26147 0
26148 -26149 0
26148 -26150 0
-26148 26149 26150 0
26151 -26152 0
26151 -26153 0
-26151 26152 26153 0
26154 -26155 0
26154 -26156 0
-26154 26155 26156 0
26157 -26158 0
26157 -26159 0
26157 -26160 0
-26157 26158 26159 26160 0
26161 -26162 0
26161 -26163 0
-26161 26162 26163 0
26164 -26165 0
26164 -26166 0
-26164 26165 26166 0
26167 -26168 0
26167 -26169 0
-26167 26168 26169 0
26170 -26171 0
26170 -26172 0
-26170 26171 26172 0
26173 -26174 0
26173 -26175 0
-26173 26174 26175 0
26257 -26177 0
26257 -26178 0
26257 -26179 0
-26257 26177 26178 26179 0
26180 -26181 0
26180 -26182 0
-26180 26181 26182 0
26183 -26184 0
26183 -26185 0
26183 -26186 0
-26183 26184 26185 26186 0
26187 -26188 0
26187 -26189 0
-26187 26188 26189 0
26190 -26191 0
26190 -26192 0
26190 -26193 0
-26190 26191 26192 26193 0
26194 -26195 0
26194 -26196 0
-26194 26195 26196 0
26197 -26198 0
26197 -26199 0
-26197 26198 26199 0
26200 -26201 0
26200 -26202 0
-26200 26201 26202 0
26203 -26204 0
26203 -26205 0
-26203 26204 26205 0
26206 -26207 0
26206 -26208 0
-26206 26207 26208 0
26209 -26210 0
26209 -26211 0
26209 -26212 0
-26209 26210 26211 26212 0
26213 -26214 0
26213 -26215 0
-26213 26214 26215 0
26216 -26217 0
26216 -26218 0
-26216 26217 26218 0
26219 -26220 0
26219 -26221 0
26219 -26222 0
-26219 26220 26221 26222 0
26223 -26224 0
26223 -26225 0
-26223 26224 26225 0
26226 -26227 0
26226 -26228 0
-26226 26227 26228 0
26229 -26230 0
26229 -26231 0
-26229 26230 26231 0
26232 -26233 0
26232 -26234 0
-26232 26233 26234 0
26235 -26236 0
26235 -26237 0
-26235 26236 26237 0
26238 -26239 0
26238 -26240 0
-26238 26239 26240 0
26241 -26242 0
26241 -26243 0
-26241 26242 26243 0
26244 -26245 0
26244 -26246 0
-26244 26245 26246 0
26294 -26248 0
26294 -26249 0
26294 -26250 0
-26294 26248 26249 26250 0
26251 -26252 0
26251 -26253 0
-26251 26252 26253 0
26254 -26255 0
26254 -26256 0
26254 -26257 0
-26254 26255 26256 26257 0
26258 -26259 0
26258 -26260 0
-26258 26259 26260 0
26261 -26262 0
26261 -26263 0
-26261 26262 26263 0
26264 -26265 0
26264 -26266 0
-26264 26265 26266 0
26267 -26268 0
26267 -26269 0
26267 -26270 0
-26267 26268 26269 26270 0
26271 -26272 0
26271 -26273 0
-26271 26272 26273 0
26274 -26275 0
26274 -26276 0
-26274 26275 26276 0
26277 -26278 0
26277 -26279 0
-26277 26278 26279 0
26326 -26281 0
26326 -26282 0
26326 -26283 0
-26326 26281 26282 26283 0
26284 -26285 0
26284 -26286 0
-26284 26285 26286 0
26287 -26288 0
26287 -26289 0
-26287 26288 26289 0
26290 -26291 0
26290 -26292 0
26290 -26293 0
26290 -26294 0
-26290 26291 26292 26293 26294 0
26338 -26296 0
26338 -26297 0
26338 -26298 0
-26338 26296 26297 26298 0
26299 -26300 0
26299 -26301 0
-26299 26300 26301 0
26302 -26303 0
26302 -26304 0
-26302 26303 26304 0
26305 -26306 0
26305 -26307 0
26305 -26308 0
26305 -26309 0
-26305 26306 26307 26308 26309 0
26310 -26311 0
26310 -26312 0
26310 -26313 0
26310 -26314 0
-26310 26311 26312 26313 26314 0
26315 -26316 0
26315 -26317 0
-26315 26316 26317 0
26318 -26319 0
26318 -26320 0
26318 -26321 0
26318 -26322 0
-26318 26319 26320 26321 26322 0
26323 -26324 0
26323 -26325 0
26323 -26326 0
-26323 26324 26325 26326 0
26327 -26328 0
26327 -26329 0
26327 -26330 0
-26327 26328 26329 26330 0
26331 -26332 0
26331 -26333 0
-26331 26332 26333 0
26334 -26335 0
26334 -26336 0
26334 -26337 0
26334 -26338 0
-26334 26335 26336 26337 26338 0
26339 -26340 0
26339 -26341 0
26339 -26342 0
-26339 26340 26341 26342 0
26343 -26344 0
26343 -26345 0
-26343 26344 26345 0
26346 -26347 0
26346 -26348 0
-26346 26347 26348 0
26349 -26350 0
26349 -26351 0
26349 -26352 0
-26349 26350 26351 26352 0
26353 -26354 0
26353 -26355 0
26353 -26356 0
-26353 26354 26355 26356 0
26357 -26358 0
26357 -26359 0
-26357 26358 26359 0
26360 -26361 0
26360 -26362 0
26360 -26363 0
-26360 26361 26362 26363 0
26364 -26365 0
26364 -26366 0
26364 -26367 0
26364 -26368 0
-26364 26365 26366 26367 26368 0
26369 -26370 0
26369 -26371 0
26369 -26372 0
26369 -26373 0
-26369 26370 26371 26372 26373 0
26374 -26375 0
26374 -26376 0
26374 -26377 0
26374 -26378 0
-26374 26375 26376 26377 26378 0
26379 -26380 0
26379 -26381 0
-26379 26380 26381 0
26382 -26383 0
26382 -26384 0
26382 -26385 0
-26382 26383 26384 26385 0
26386 -26387 0
26386 -26388 0
-26386 26387 26388 0
26389 -26390 0
26389 -26391 0
-26389 26390 26391 0
26392 -26393 0
26392 -26394 0
26392 -26395 0
-26392 26393 26394 26395 0
-26397 28306 0
26397 -28306 0
-26399 27871 0
26399 -27871 0
-26401 27873 0
26401 -27873 0
-26403 28127 0
26403 -28127 0
-26405 27927 0
26405 -27927 0
-26407 27775 0
26407 -27775 0
27856 27834 0
-27856 -27834 0
27512 27804 0
-27512 -27804 0
27831 27904 0
-27831 -27904 0
27798 27472 0
-27798 -27472 0
27792 27796 0
-27792 -27796 0
27795 27771 0
-27795 -27771 0
27805 27253 0
-27805 -27253 0
27807 27775 0
-27807 -27775 0
27816 27927 0
-27816 -27927 0
28124 28127 0
-28124 -28127 0
27916 27873 0
-27916 -27873 0
27964 27871 0
-27964 -27871 0
28031 28306 0
-28031 -28306 0
28262 27770 0
-28262 -27770 0
26439 28127 0
-26439 -28127 0
27874 26439 0
-27874 -26439 0
27876 27776 0
-27876 -27776 0
26445 27904 0
-26445 -27904 0
26838 26445 0
-26838 -26445 0
28034 27779 0
-28034 -27779 0
26451 27916 0
-26451 -27916 0
27901 26451 0
-27901 -26451 0
27467 27785 0
-27467 -27785 0
27301 27788 0
-27301 -27788 0
28263 27791 0
-28263 -27791 0
26461 27791 0
-26461 -27791 0
27955 26461 0
-27955 -26461 0
27328 27797 0
-27328 -27797 0
27193 27855 0
-27193 -27855 0
26956 27806 0
-26956 -27806 0
27912 27809 0
-27912 -27809 0
27915 27812 0
-27915 -27812 0
27329 27815 0
-27329 -27815 0
27921 27818 0
-27921 -27818 0
27924 27821 0
-27924 -27821 0
27984 27824 0
-27984 -27824 0
27029 27870 0
-27029 -27870 0
27210 27830 0
-27210 -27830 0
27939 27833 0
-27939 -27833 0
27083 27836 0
-27083 -27836 0
27287 27885 0
-27287 -27885 0
27954 27842 0
-27954 -27842 0
28135 27845 0
-28135 -27845 0
27969 27848 0
-27969 -27848 0
26499 27871 0
-26499 -27871 0
27295 26499 0
-27295 -26499 0
28215 27869 0
-28215 -27869 0
26505 26710 0
-26505 -26710 0
27344 26505 0
-27344 -26505 0
26509 26947 0
-26509 -26947 0
27398 26509 0
-27398 -26509 0
28126 27923 0
-28126 -27923 0
26512 27203 0
-26512 -27203 0
26514 27412 0
-26514 -27412 0
27619 28125 0
-27619 -28125 0
26518 27492 0
-26518 -27492 0
26520 28178 0
-26520 -28178 0
26522 28187 0
-26522 -28187 0
26524 27613 0
-26524 -27613 0
26526 28281 0
-26526 -28281 0
26528 27633 0
-26528 -27633 0
26530 28298 0
-26530 -28298 0
26532 27697 0
-26532 -27697 0
26534 27701 0
-26534 -27701 0
26536 28329 0
-26536 -28329 0
26538 28341 0
-26538 -28341 0
26540 28353 0
-26540 -28353 0
26542 28363 0
-26542 -28363 0
26561 28367 0
-26561 -28367 0
26546 28371 0
-26546 -28371 0
26563 28374 0
-26563 -28374 0
26565 28378 0
-26565 -28378 0
26569 28383 0
-26569 -28383 0
26571 28388 0
-26571 -28388 0
26556 28393 0
-26556 -28393 0
26573 28396 0
-26573 -28396 0
27753 26561 0
-27753 -26561 0
27756 26563 0
-27756 -26563 0
27759 26565 0
-27759 -26565 0
26566 28400 0
-26566 -28400 0
27762 26569 0
-27762 -26569 0
27765 26571 0
-27765 -26571 0
27768 26573 0
-27768 -26573 0
26574 28406 0
-26574 -28406 0
-27867 28127 0
-27867 27873 0
27867 -28127 -27873 0
-27877 28127 0
-27877 27873 0
27877 -28127 -27873 0
-27918 27927 0
-27918 28127 0
-27918 27873 0
27918 -27927 -28127 -27873 0
-27894 27927 0
-27894 27871 0
27894 -27927 -27871 0
-27879 27834 0
-27879 27871 0
27879 -27834 -27871 0
-27979 27834 0
-27979 27871 0
27979 -27834 -27871 0
-27909 27904 0
-27909 27871 0
27909 -27904 -27871 0
-28143 28127 0
-28143 27871 0
28143 -28127 -27871 0
-27853 27804 0
-27853 28306 0
27853 -27804 -28306 0
-27858 27798 0
-27858 27805 0
27858 -27798 -27805 0
-27207 27472 0
-27207 27807 0
-27207 27873 0
27207 -27472 -27807 -27873 0
-27862 27834 0
-27862 27816 0
-27862 27871 0
27862 -27834 -27816 -27871 0
-27897 27805 0
-27897 27807 0
-27897 27816 0
-27897 28306 0
27897 -27805 -27807 -27816 -28306 0
-27922 27816 0
-27922 27871 0
27922 -27816 -27871 0
-27997 27816 0
-27997 28127 0
-27997 28306 0
27997 -27816 -28127 -28306 0
-27913 27816 0
-27913 28127 0
-27913 27873 0
27913 -27816 -28127 -27873 0
-26850 27804 0
-26850 27253 0
-26850 27807 0
-26850 27816 0
26850 -27804 -27253 -27807 -27816 0
-27861 27831 0
-27861 27927 0
-27861 28124 0
27861 -27831 -27927 -28124 0
-27864 28124 0
-27864 27871 0
27864 -28124 -27871 0
-27883 27798 0
-27883 28124 0
27883 -27798 -28124 0
-28006 27807 0
-28006 27816 0
-28006 28124 0
28006 -27807 -27816 -28124 0
-27211 27775 0
-27211 27927 0
-27211 28124 0
27211 -27775 -27927 -28124 0
-27868 27816 0
-27868 27916 0
27868 -27816 -27916 0
-27982 27804 0
-27982 27916 0
-27982 28306 0
27982 -27804 -27916 -28306 0
-28015 27816 0
-28015 27916 0
-28015 27871 0
28015 -27816 -27916 -27871 0
-28003 27916 0
-28003 28306 0
28003 -27916 -28306 0
-28037 27512 0
-28037 28127 0
-28037 27916 0
28037 -27512 -28127 -27916 0
-27886 27816 0
-27886 27916 0
27886 -27816 -27916 0
-28277 27927 0
-28277 27871 0
-28277 27776 0
28277 -27927 -27871 -27776 0
-27880 27873 0
-27880 27964 0
27880 -27873 -27964 0
-27889 27253 0
-27889 27964 0
27889 -27253 -27964 0
-26946 27807 0
-26946 28127 0
-26946 27964 0
26946 -27807 -28127 -27964 0
-27940 28124 0
-27940 27964 0
27940 -28124 -27964 0
-27976 27816 0
-27976 27964 0
27976 -27816 -27964 0
-28070 27873 0
-28070 27964 0
28070 -27873 -27964 0
-27970 28127 0
-27970 27964 0
27970 -28127 -27964 0
-27988 27873 0
-27988 27964 0
27988 -27873 -27964 0
-27936 27873 0
-27936 27964 0
27936 -27873 -27964 0
-28305 27873 0
-28305 27964 0
28305 -27873 -27964 0
-26710 27927 0
-26710 27779 0
26710 -27927 -27779 0
-27991 27779 0
-27991 28306 0
27991 -27779 -28306 0
-27895 27807 0
-27895 28031 0
27895 -27807 -28031 0
-27898 27927 0
-27898 28031 0
27898 -27927 -28031 0
-28067 27807 0
-28067 28127 0
-28067 27916 0
-28067 28031 0
28067 -27807 -28127 -27916 -28031 0
-28073 27816 0
-28073 28127 0
-28073 27964 0
-28073 28031 0
28073 -27816 -28127 -27964 -28031 0
-27949 27816 0
-27949 27964 0
-27949 28031 0
27949 -27816 -27964 -28031 0
-28103 27816 0
-28103 28127 0
-28103 27916 0
-28103 28031 0
28103 -27816 -28127 -27916 -28031 0
-27952 27795 0
-27952 27964 0
-27952 28031 0
27952 -27795 -27964 -28031 0
-28079 27816 0
-28079 27964 0
-28079 28031 0
28079 -27816 -27964 -28031 0
-27967 27472 0
-27967 27916 0
-27967 28031 0
27967 -27472 -27916 -28031 0
-27961 27916 0
-27961 28031 0
27961 -27916 -28031 0
-28112 27776 0
-28112 28031 0
28112 -27776 -28031 0
-27973 27816 0
-27973 28127 0
-27973 27964 0
-27973 28031 0
27973 -27816 -28127 -27964 -28031 0
-27958 27964 0
-27958 28031 0
27958 -27964 -28031 0
-28121 27773 0
-28121 28031 0
-28121 27776 0
28121 -27773 -28031 -27776 0
-28088 27805 0
-28088 27964 0
-28088 28031 0
28088 -27805 -27964 -28031 0
-28141 28031 0
-28141 27779 0
28141 -28031 -27779 0
-28254 27775 0
-28254 28031 0
28254 -27775 -28031 0
-28025 27782 0
-28025 27871 0
28025 -27782 -27871 0
-27900 27788 0
-27900 27964 0
27900 -27788 -27964 0
-27907 27916 0
-27907 27794 0
27907 -27916 -27794 0
-27910 27797 0
-27910 27964 0
27910 -27797 -27964 0
-27931 27800 0
-27931 27964 0
-27931 28031 0
27931 -27800 -27964 -28031 0
-28109 27806 0
-28109 27795 0
-28109 28127 0
-28109 28031 0
28109 -27806 -27795 -28127 -28031 0
-27919 27815 0
-27919 27916 0
27919 -27815 -27916 0
-27934 27871 0
-27934 27818 0
27934 -27871 -27818 0
-27928 27824 0
-27928 27871 0
27928 -27824 -27871 0
-28028 27927 0
-28028 27870 0
28028 -27927 -27870 0
-27930 27871 0
-27930 27870 0
27930 -27871 -27870 0
-27933 27830 0
-27933 27964 0
27933 -27830 -27964 0
-27937 27871 0
-27937 27830 0
27937 -27871 -27830 0
-28021 27805 0
-28021 27816 0
-28021 28306 0
-28021 27876 0
28021 -27805 -27816 -28306 -27876 0
-28326 27927 0
-28326 28031 0
-28326 27876 0
28326 -27927 -28031 -27876 0
-27946 28127 0
-27946 28306 0
-27946 27836 0
27946 -28127 -28306 -27836 0
-28307 27927 0
-28307 26838 0
28307 -27927 -26838 0
-28193 28127 0
-28193 27885 0
28193 -28127 -27885 0
-28052 27253 0
-28052 28306 0
-28052 28034 0
28052 -27253 -28306 -28034 0
-28043 28127 0
-28043 28031 0
-28043 28034 0
-28043 26850 0
28043 -28127 -28031 -28034 -26850 0
-28046 27816 0
-28046 28124 0
-28046 28034 0
28046 -27816 -28124 -28034 0
-28115 28127 0
-28115 28034 0
28115 -28127 -28034 0
-27945 27472 0
-27945 28031 0
-27945 28034 0
27945 -27472 -28031 -28034 0
-28228 27805 0
-28228 28127 0
-28228 28031 0
-28228 28034 0
28228 -27805 -28127 -28031 -28034 0
-28176 28127 0
-28176 28306 0
-28176 28034 0
28176 -28127 -28306 -28034 0
-27171 27807 0
-27171 27816 0
-27171 28034 0
27171 -27807 -27816 -28034 0
-27957 27842 0
-27957 28124 0
27957 -27842 -28124 0
-28130 27876 0
-28130 27842 0
28130 -27876 -27842 0
-27960 27845 0
-27960 28124 0
27960 -27845 -28124 0
-28018 27848 0
-28018 27916 0
28018 -27848 -27916 0
-27993 27816 0
-27993 27873 0
-27993 27467 0
27993 -27816 -27873 -27467 0
-28221 27964 0
-28221 27467 0
28221 -27964 -27467 0
-28384 27927 0
-28384 27873 0
-28384 27467 0
28384 -27927 -27873 -27467 0
-27972 27851 0
-27972 27927 0
-27972 27871 0
27972 -27851 -27927 -27871 0
-28118 27301 0
-28118 27776 0
28118 -27301 -27776 0
-27975 27927 0
-27975 27871 0
-27975 28263 0
27975 -27927 -27871 -28263 0
-28000 27816 0
-28000 28124 0
-28000 27964 0
-28000 28263 0
28000 -27816 -28124 -27964 -28263 0
-27978 27916 0
-27978 28263 0
27978 -27916 -28263 0
-27981 27927 0
-27981 28031 0
-27981 28263 0
27981 -27927 -28031 -28263 0
-27985 28127 0
-27985 28263 0
27985 -28127 -28263 0
-28075 27467 0
-28075 28263 0
28075 -27467 -28263 0
-28185 27816 0
-28185 28124 0
-28185 28034 0
-28185 28263 0
28185 -27816 -28124 -28034 -28263 0
-28218 27964 0
-28218 27467 0
-28218 28263 0
28218 -27964 -27467 -28263 0
-28182 28031 0
-28182 27876 0
-28182 28263 0
28182 -28031 -27876 -28263 0
-28149 27812 0
-28149 28263 0
28149 -27812 -28263 0
-28063 28031 0
-28063 27328 0
-28063 26946 0
28063 -28031 -27328 -26946 0
-26947 27472 0
-26947 28306 0
-26947 27854 0
26947 -27472 -28306 -27854 0
-27987 27857 0
-27987 27916 0
27987 -27857 -27916 0
-27990 28031 0
-27990 26956 0
27990 -28031 -26956 0
-27994 28127 0
-27994 27871 0
-27994 27912 0
27994 -28127 -27871 -27912 0
-28040 27831 0
-28040 27775 0
-28040 27912 0
28040 -27831 -27775 -27912 0
-27996 27831 0
-27996 28031 0
-27996 27915 0
27996 -27831 -28031 -27915 0
-28054 28306 0
-28054 27915 0
28054 -28306 -27915 0
-28096 28031 0
-28096 27915 0
28096 -28031 -27915 0
-28057 27785 0
-28057 27915 0
28057 -27785 -27915 0
-27999 27904 0
-27999 27329 0
27999 -27904 -27329 0
-28002 28031 0
-28002 27329 0
28002 -28031 -27329 0
-28005 27871 0
-28005 27329 0
28005 -27871 -27329 0
-28009 27927 0
-28009 27921 0
28009 -27927 -27921 0
-28012 27927 0
-28012 27871 0
-28012 27921 0
28012 -27927 -27871 -27921 0
-28202 27927 0
-28202 27871 0
-28202 27921 0
28202 -27927 -27871 -27921 0
-28303 27927 0
-28303 27871 0
-28303 27921 0
28303 -27927 -27871 -27921 0
-28280 27807 0
-28280 27873 0
-28280 27860 0
28280 -27807 -27873 -27860 0
-28269 27916 0
-28269 27863 0
28269 -27916 -27863 0
-28008 27816 0
-28008 28124 0
-28008 27924 0
28008 -27816 -28124 -27924 0
-28011 27816 0
-28011 28124 0
-28011 27924 0
28011 -27816 -28124 -27924 0
-28014 27915 0
-28014 27984 0
28014 -27915 -27984 0
-28017 28306 0
-28017 27984 0
28017 -28306 -27984 0
-28020 27253 0
-28020 27029 0
-28020 27329 0
28020 -27253 -27029 -27329 0
-28081 27833 0
-28081 27029 0
28081 -27833 -27029 0
-28199 27869 0
-28199 28127 0
28199 -27869 -28127 0
-28027 28031 0
-28027 27210 0
28027 -28031 -27210 0
-28048 27964 0
-28048 27210 0
28048 -27964 -27210 0
-28231 27964 0
-28231 28031 0
-28231 27210 0
28231 -27964 -28031 -27210 0
-28362 27872 0
-28362 27904 0
-28362 27927 0
-28362 27871 0
28362 -27872 -27904 -27927 -27871 0
-28207 27875 0
-28207 27816 0
-28207 27871 0
28207 -27875 -27816 -27871 0
-28030 28124 0
-28030 27083 0
28030 -28124 -27083 0
-28033 27856 0
-28033 27083 0
28033 -27856 -27083 0
-28099 28127 0
-28099 27083 0
28099 -28127 -27083 0
-28036 28124 0
-28036 27083 0
28036 -28124 -27083 0
-28039 27795 0
-28039 27807 0
-28039 27816 0
-28039 27083 0
28039 -27795 -27807 -27816 -27083 0
-28042 27927 0
-28042 28124 0
-28042 27083 0
28042 -27927 -28124 -27083 0
-28045 27834 0
-28045 27855 0
-28045 27927 0
-28045 27083 0
28045 -27834 -27855 -27927 -27083 0
-28060 28124 0
-28060 27083 0
28060 -28124 -27083 0
-28146 27816 0
-28146 27083 0
28146 -27816 -27083 0
-28049 27942 0
-28049 27816 0
28049 -27942 -27816 0
-28051 27834 0
-28051 27873 0
-28051 27287 0
28051 -27834 -27873 -27287 0
-28055 27816 0
-28055 28127 0
-28055 27287 0
28055 -27816 -28127 -27287 0
-28106 27873 0
-28106 27287 0
28106 -27873 -27287 0
-28058 27816 0
-28058 27287 0
28058 -27816 -27287 0
-28195 27916 0
-28195 27287 0
28195 -27916 -27287 0
-28160 27873 0
-28160 27287 0
28160 -27873 -27287 0
-28251 27809 0
-28251 28127 0
-28251 27287 0
28251 -27809 -28127 -27287 0
-28212 28127 0
-28212 27873 0
-28212 27287 0
28212 -28127 -27873 -27287 0
-28157 27816 0
-28157 27916 0
-28157 27287 0
28157 -27816 -27916 -27287 0
-28238 27804 0
-28238 28127 0
-28238 27287 0
28238 -27804 -28127 -27287 0
-28132 28124 0
-28132 27287 0
-28132 28263 0
-28132 27924 0
28132 -28124 -27287 -28263 -27924 0
-28266 27816 0
-28266 27916 0
-28266 27287 0
28266 -27816 -27916 -27287 0
-28292 28127 0
-28292 27873 0
-28292 27287 0
28292 -28127 -27873 -27287 0
-28274 27287 0
-28274 27824 0
28274 -27287 -27824 0
-28259 28127 0
-28259 27916 0
-28259 27287 0
28259 -28127 -27916 -27287 0
-28282 27816 0
-28282 27916 0
-28282 27287 0
28282 -27816 -27916 -27287 0
-28289 27866 0
-28289 27287 0
28289 -27866 -27287 0
-28358 27876 0
-28358 27287 0
28358 -27876 -27287 0
-28172 27881 0
-28172 27916 0
28172 -27881 -27916 0
-28138 28127 0
-28138 27884 0
28138 -28127 -27884 0
-28061 27887 0
-28061 27916 0
28061 -27887 -27916 0
-28283 27890 0
-28283 27927 0
28283 -27890 -27927 0
-28365 27927 0
-28365 27890 0
28365 -27927 -27890 0
-28394 27467 0
-28394 28263 0
-28394 27171 0
28394 -27467 -28263 -27171 0
-28064 27904 0
-28064 27775 0
-28064 28124 0
-28064 27954 0
28064 -27904 -27775 -28124 -27954 0
-28066 27775 0
-28066 27927 0
-28066 27954 0
-28066 27984 0
28066 -27775 -27927 -27954 -27984 0
-28069 27916 0
-28069 27954 0
28069 -27916 -27954 0
-28072 27831 0
-28072 27927 0
-28072 27954 0
28072 -27831 -27927 -27954 0
-28076 27472 0
-28076 27927 0
-28076 27954 0
-28076 27193 0
28076 -27472 -27927 -27954 -27193 0
-28078 27253 0
-28078 27954 0
28078 -27253 -27954 0
-28082 27916 0
-28082 27954 0
28082 -27916 -27954 0
-28090 27927 0
-28090 27954 0
28090 -27927 -27954 0
-27203 27954 0
-27203 27329 0
-27203 27855 0
-27203 27207 0
27203 -27954 -27329 -27855 -27207 0
-28188 27954 0
-28188 27210 0
-28188 27211 0
28188 -27954 -27210 -27211 0
-28085 27916 0
-28085 27954 0
28085 -27916 -27954 0
-28209 28127 0
-28209 27873 0
-28209 27954 0
28209 -28127 -27873 -27954 0
-28241 27512 0
-28241 27916 0
-28241 27954 0
28241 -27512 -27916 -27954 0
-28087 27854 0
-28087 27472 0
-28087 27954 0
28087 -27854 -27472 -27954 0
-28325 28127 0
-28325 27954 0
28325 -28127 -27954 0
-28091 27512 0
-28091 27893 0
28091 -27512 -27893 0
-28093 27798 0
-28093 28135 0
28093 -27798 -28135 0
-28169 27964 0
-28169 28135 0
28169 -27964 -28135 0
-28154 27964 0
-28154 28135 0
28154 -27964 -28135 0
-28351 28127 0
-28351 27964 0
-28351 28135 0
28351 -28127 -27964 -28135 0
-28297 27964 0
-28297 28135 0
28297 -27964 -28135 0
-28097 27798 0
-28097 27896 0
28097 -27798 -27896 0
-28100 27253 0
-28100 28034 0
-28100 27969 0
28100 -27253 -28034 -27969 0
-28102 27964 0
-28102 27969 0
28102 -27964 -27969 0
-28105 27775 0
-28105 27969 0
28105 -27775 -27969 0
-28108 27775 0
-28108 27873 0
-28108 27969 0
28108 -27775 -27873 -27969 0
-28111 27916 0
-28111 27969 0
28111 -27916 -27969 0
-28114 27836 0
-28114 27969 0
28114 -27836 -27969 0
-28117 27873 0
-28117 27969 0
28117 -27873 -27969 0
-28120 27873 0
-28120 27969 0
28120 -27873 -27969 0
-28166 27775 0
-28166 27927 0
-28166 27969 0
28166 -27775 -27927 -27969 0
-28235 27899 0
-28235 28124 0
28235 -27899 -28124 0
-28123 27902 0
-28123 27287 0
28123 -27902 -27287 0
-28136 27905 0
-28136 27964 0
28136 -27905 -27964 0
-28152 27927 0
-28152 27908 0
28152 -27927 -27908 0
-28376 27295 0
-28376 27775 0
-28376 28127 0
-28376 28031 0
28376 -27295 -27775 -28127 -28031 0
-28320 27911 0
-28320 27301 0
28320 -27911 -27301 0
-28226 27914 0
-28226 28306 0
28226 -27914 -28306 0
-28248 27775 0
-28248 28031 0
-28248 27917 0
28248 -27775 -28031 -27917 0
-28270 27920 0
-28270 27794 0
28270 -27920 -27794 0
-28366 27775 0
-28366 28031 0
-28366 27926 0
28366 -27775 -28031 -27926 0
-28129 28127 0
-28129 28215 0
28129 -28127 -28215 0
-28179 27775 0
-28179 28215 0
-28179 27329 0
28179 -27775 -28215 -27329 0
-28163 28124 0
-28163 28215 0
28163 -28124 -28215 0
-28286 28215 0
-28286 27328 0
-28286 27329 0
28286 -28215 -27328 -27329 0
-28133 27929 0
-28133 28127 0
28133 -27929 -28127 0
-28137 27927 0
-28137 27932 0
28137 -27927 -27932 0
-28140 28124 0
-28140 27935 0
28140 -28124 -27935 0
-28144 27807 0
-28144 27938 0
28144 -27807 -27938 0
-28147 27775 0
-28147 27344 0
28147 -27775 -27344 0
-28150 27941 0
-28150 27816 0
28150 -27941 -27816 0
-28312 27927 0
-28312 27944 0
28312 -27927 -27944 0
-28225 27798 0
-28225 27947 0
28225 -27798 -27947 0
-28155 27950 0
-28155 27916 0
28155 -27950 -27916 0
-28236 27953 0
-28236 27916 0
28236 -27953 -27916 0
-28158 27956 0
-28158 27927 0
-28158 27873 0
28158 -27956 -27927 -27873 0
-28257 27959 0
-28257 27775 0
-28257 27964 0
28257 -27959 -27775 -27964 0
-28161 27962 0
-28161 27916 0
28161 -27962 -27916 0
-28379 27965 0
-28379 27915 0
28379 -27965 -27915 0
-28342 27968 0
-28342 27912 0
28342 -27968 -27912 0
-28164 27971 0
-28164 27916 0
28164 -27971 -27916 0
-28167 27974 0
-28167 27807 0
-28167 28127 0
-28167 28031 0
28167 -27974 -27807 -28127 -28031 0
-28170 27977 0
-28170 28031 0
28170 -27977 -28031 0
-28245 27807 0
-28245 27871 0
-28245 27980 0
28245 -27807 -27871 -27980 0
-28173 27831 0
-28173 28031 0
-28173 27983 0
28173 -27831 -28031 -27983 0
-28174 28127 0
-28174 27398 0
28174 -28127 -27398 0
-28200 27986 0
-28200 28306 0
28200 -27986 -28306 0
-28177 27989 0
-28177 28124 0
28177 -27989 -28124 0
-28350 27992 0
-28350 27791 0
28350 -27992 -27791 0
-28180 27995 0
-28180 27807 0
-28180 27916 0
28180 -27995 -27807 -27916 0
-27412 27998 0
-27412 27807 0
-27412 27916 0
-27412 28031 0
27412 -27998 -27807 -27916 -28031 0
-28183 27798 0
-28183 28001 0
28183 -27798 -28001 0
-28205 28004 0
-28205 28263 0
28205 -28004 -28263 0
-28186 28007 0
-28186 27770 0
-28186 27871 0
28186 -28007 -27770 -27871 0
-28318 27794 0
-28318 28010 0
-28318 28031 0
28318 -27794 -28010 -28031 0
-28392 27775 0
-28392 28031 0
-28392 28013 0
28392 -27775 -28031 -28013 0
-28375 28016 0
-28375 27915 0
28375 -28016 -27915 0
-28189 28019 0
-28189 27472 0
-28189 27807 0
-28189 27964 0
28189 -28019 -27472 -27807 -27964 0
-28192 27816 0
-28192 28022 0
28192 -27816 -28022 0
-28191 28026 0
-28191 27964 0
28191 -28026 -27964 0
-28196 28029 0
-28196 27927 0
28196 -28029 -27927 0
-28198 28031 0
-28198 28032 0
-28198 28263 0
28198 -28031 -28032 -28263 0
-28203 27816 0
-28203 28124 0
-28203 28032 0
28203 -27816 -28124 -28032 0
-28339 27816 0
-28339 28031 0
-28339 28035 0
28339 -27816 -28031 -28035 0
-28354 27856 0
-28354 28038 0
-28354 27467 0
28354 -27856 -28038 -27467 0
-28385 27831 0
-28385 28041 0
28385 -27831 -28041 0
-28334 27472 0
-28334 28044 0
-28334 28306 0
28334 -27472 -28044 -28306 0
-28206 27807 0
-28206 28047 0
-28206 28124 0
28206 -27807 -28047 -28124 0
-28210 28050 0
-28210 28124 0
28210 -28050 -28124 0
-28390 28053 0
-28390 27916 0
28390 -28053 -27916 0
-28213 28056 0
-28213 27916 0
28213 -28056 -27916 0
-28323 27816 0
-28323 28306 0
-28323 28059 0
28323 -27816 -28306 -28059 0
-27492 28062 0
-27492 27927 0
-27492 27873 0
27492 -28062 -27927 -27873 0
-28391 27904 0
-28391 28065 0
28391 -27904 -28065 0
-28216 28068 0
-28216 27816 0
28216 -28068 -27816 0
-28338 28127 0
-28338 28068 0
28338 -28127 -28068 0
-28219 27512 0
-28219 28071 0
28219 -27512 -28071 0
-28222 27856 0
-28222 28074 0
28222 -27856 -28074 0
-28224 27512 0
-28224 28077 0
28224 -27512 -28077 0
-28229 28080 0
-28229 28124 0
28229 -28080 -28124 0
-28232 28083 0
-28232 27816 0
28232 -28083 -27816 0
-28234 28086 0
-28234 28127 0
28234 -28086 -28127 0
-28239 28089 0
-28239 28124 0
28239 -28089 -28124 0
-28242 28092 0
-28242 27816 0
28242 -28092 -27816 0
-28397 28095 0
-28397 27876 0
28397 -28095 -27876 0
-28336 27816 0
-28336 28098 0
28336 -27816 -28098 0
-28295 27805 0
-28295 28101 0
28295 -27805 -28101 0
-28244 28104 0
-28244 27927 0
28244 -28104 -27927 0
-28247 27831 0
-28247 27927 0
-28247 28107 0
28247 -27831 -27927 -28107 0
-28250 28110 0
-28250 27915 0
28250 -28110 -27915 0
-28370 27775 0
-28370 28113 0
-28370 27927 0
28370 -27775 -28113 -27927 0
-28253 28116 0
-28253 27871 0
28253 -28116 -27871 0
-28256 28119 0
-28256 27871 0
28256 -28119 -27871 0
-28260 28122 0
-28260 27873 0
28260 -28122 -27873 0
-28264 28125 0
-28264 27816 0
28264 -28125 -27816 0
-28267 28128 0
-28267 27927 0
28267 -28128 -27927 0
-28315 27816 0
-28315 28131 0
28315 -27816 -28131 0
-28300 27807 0
-28300 28134 0
28300 -27807 -28134 0
-28273 27927 0
-28273 28139 0
28273 -27927 -28139 0
-28276 28142 0
-28276 27873 0
28276 -28142 -27873 0
-28279 28145 0
-28279 28127 0
28279 -28145 -28127 0
-28284 27807 0
-28284 28148 0
28284 -27807 -28148 0
-28287 28153 0
-28287 27816 0
-28287 28124 0
28287 -28153 -27816 -28124 0
-28343 27775 0
-28343 28156 0
28343 -27775 -28156 0
-28290 27927 0
-28290 28159 0
28290 -27927 -28159 0
-28310 27904 0
-28310 28162 0
28310 -27904 -28162 0
-28368 27831 0
-28368 28165 0
28368 -27831 -28165 0
-28293 28168 0
-28293 28124 0
28293 -28168 -28124 0
-28296 27927 0
-28296 28171 0
28296 -27927 -28171 0
-28299 28175 0
-28299 27927 0
28299 -28175 -27927 0
-28322 28181 0
-28322 27964 0
28322 -28181 -27964 0
-27613 28184 0
-27613 27807 0
-27613 28031 0
27613 -28184 -27807 -28031 0
-28302 27816 0
-28302 27619 0
28302 -27816 -27619 0
-28347 27775 0
-28347 28194 0
28347 -27775 -28194 0
-28327 28197 0
-28327 27816 0
28327 -28197 -27816 0
-27700 28201 0
-27700 27796 0
-27700 27795 0
27700 -28201 -27796 -27795 0
-28331 28204 0
-28331 28031 0
28331 -28204 -28031 0
-27633 28208 0
-27633 27807 0
-27633 27816 0
27633 -28208 -27807 -27816 0
-28387 27775 0
-28387 28211 0
28387 -27775 -28211 0
-28404 28214 0
-28404 28124 0
28404 -28214 -28124 0
-28311 28217 0
-28311 27916 0
28311 -28217 -27916 0
-28333 28220 0
-28333 27873 0
28333 -28220 -27873 0
-28314 28223 0
-28314 28127 0
28314 -28223 -28127 0
-28349 27816 0
-28349 28227 0
28349 -27816 -28227 0
-28317 28230 0
-28317 28124 0
28317 -28230 -28124 0
-28321 27927 0
-28321 28233 0
28321 -27927 -28233 0
-28409 28237 0
-28409 27873 0
28409 -28237 -27873 0
-28328 27904 0
-28328 28240 0
28328 -27904 -28240 0
-28381 27831 0
-28381 28243 0
28381 -27831 -28243 0
-28355 28246 0
-28355 27871 0
28355 -28246 -27871 0
-28372 28249 0
-28372 27775 0
28372 -28249 -27775 0
-28402 27927 0
-28402 28252 0
28402 -27927 -28252 0
-28330 27927 0
-28330 28255 0
28330 -27927 -28255 0
-28335 27927 0
-28335 28258 0
28335 -27927 -28258 0
-28407 28265 0
-28407 27775 0
28407 -28265 -27775 0
-28344 27807 0
-28344 28268 0
28344 -27807 -28268 0
-28398 27775 0
-28398 28272 0
28398 -27775 -28272 0
-28346 28275 0
-28346 28031 0
28346 -28275 -28031 0
-27697 27807 0
-27697 28031 0
-27697 27700 0
27697 -27807 -28031 -27700 0
-27701 28278 0
-27701 28031 0
27701 -28278 -28031 0
-28356 27807 0
-28356 28285 0
28356 -27807 -28285 0
-28382 27775 0
-28382 28288 0
28382 -27775 -28288 0
-28359 27807 0
-28359 28291 0
28359 -27807 -28291 0
-28361 28301 0
-28361 28263 0
28361 -28301 -28263 0
-28364 27807 0
-28364 28304 0
28364 -27807 -28304 0
-28369 28313 0
-28369 27807 0
28369 -28313 -27807 0
-28373 28316 0
-28373 27807 0
28373 -28316 -27807 0
-28377 27807 0
-28377 28319 0
28377 -27807 -28319 0
-28380 28324 0
-28380 27807 0
28380 -28324 -27807 0
-28386 28332 0
-28386 27807 0
28386 -28332 -27807 0
-28389 28337 0
-28389 27807 0
28389 -28337 -27807 0
-28395 28345 0
-28395 27904 0
28395 -28345 -27904 0
-28399 27807 0
-28399 28348 0
28399 -27807 -28348 0
-28401 28357 0
-28401 27816 0
28401 -28357 -27816 0
-28405 28360 0
-28405 28031 0
28405 -28360 -28031 0
-28408 27807 0
-28408 28403 0
28408 -27807 -28403 0
-28421 27753 0
-28421 27769 0
28421 -27753 -27769 0
-28415 27756 0
-28415 27769 0
28415 -27756 -27769 0
-28419 27759 0
-28419 27769 0
28419 -27759 -27769 0
-28411 27762 0
-28411 27769 0
28411 -27762 -27769 0
-28413 27765 0
-28413 27769 0
28413 -27765 -27769 0
-28417 27768 0
-28417 27769 0
28417 -27768 -27769 0
27770 -27771 0
27770 -27796 0
-27770 27771 27796 0
27773 -27904 0
27773 -27775 0
-27773 27904 27775 0
27776 -28127 0
27776 -27873 0
-27776 28127 27873 0
27779 -27873 0
27779 -27871 0
-27779 27873 27871 0
27782 -27834 0
27782 -28306 0
-27782 27834 28306 0
27785 -28127 0
27785 -28306 0
-27785 28127 28306 0
27788 -27831 0
27788 -28306 0
-27788 27831 28306 0
27791 -27792 0
27791 -27795 0
-27791 27792 27795 0
27794 -27795 0
27794 -27796 0
-27794 27795 27796 0
27797 -27798 0
27797 -27805 0
-27797 27798 27805 0
27800 -27805 0
27800 -27873 0
-27800 27805 27873 0
27855 -27804 0
27855 -27805 0
-27855 27804 27805 0
27806 -27807 0
27806 -27873 0
-27806 27807 27873 0
27809 -27816 0
27809 -27873 0
-27809 27816 27873 0
27812 -27816 0
27812 -27871 0
-27812 27816 27871 0
27815 -27816 0
27815 -28124 0
-27815 27816 28124 0
27818 -28124 0
27818 -27904 0
-27818 28124 27904 0
27821 -27834 0
27821 -27916 0
-27821 27834 27916 0
27824 -27916 0
27824 -28127 0
-27824 27916 28127 0
27870 -27916 0
27870 -28306 0
-27870 27916 28306 0
27830 -27831 0
27830 -27916 0
-27830 27831 27916 0
27833 -27834 0
27833 -27964 0
-27833 27834 27964 0
27836 -27916 0
27836 -27964 0
-27836 27916 27964 0
27885 -27964 0
27885 -28306 0
-27885 27964 28306 0
27842 -27964 0
27842 -28031 0
-27842 27964 28031 0
27845 -27916 0
27845 -28031 0
-27845 27916 28031 0
27848 -28127 0
27848 -28031 0
-27848 28127 28031 0
27851 -28127 0
27851 -27853 0
-27851 28127 27853 0
27854 -27855 0
27854 -27856 0
-27854 27855 27856 0
27857 -27858 0
27857 -27871 0
-27857 27858 27871 0
27860 -27861 0
27860 -27862 0
-27860 27861 27862 0
27863 -27864 0
27863 -28306 0
-27863 27864 28306 0
27866 -27867 0
27866 -27868 0
-27866 27867 27868 0
27869 -27870 0
27869 -27871 0
-27869 27870 27871 0
27872 -27873 0
27872 -27874 0
-27872 27873 27874 0
27875 -27876 0
27875 -27877 0
-27875 27876 27877 0
27942 -27879 0
27942 -27880 0
-27942 27879 27880 0
27881 -27885 0
27881 -27883 0
-27881 27885 27883 0
27884 -27885 0
27884 -27886 0
-27884 27885 27886 0
27887 -28127 0
27887 -27889 0
-27887 28127 27889 0
27890 -28034 0
27890 -28124 0
-27890 28034 28124 0
27893 -27894 0
27893 -27895 0
-27893 27894 27895 0
27896 -27897 0
27896 -27898 0
-27896 27897 27898 0
27899 -27900 0
27899 -27901 0
-27899 27900 27901 0
27902 -28263 0
27902 -27904 0
-27902 28263 27904 0
27905 -28306 0
27905 -27907 0
-27905 28306 27907 0
27908 -27909 0
27908 -27910 0
-27908 27909 27910 0
27911 -27912 0
27911 -27913 0
-27911 27912 27913 0
27914 -27915 0
27914 -27916 0
-27914 27915 27916 0
27917 -27918 0
27917 -27919 0
-27917 27918 27919 0
27920 -27921 0
27920 -27922 0
-27920 27921 27922 0
27923 -27924 0
27923 -27964 0
-27923 27924 27964 0
27926 -27927 0
27926 -27928 0
-27926 27927 27928 0
27929 -27930 0
27929 -27931 0
-27929 27930 27931 0
27932 -27933 0
27932 -27934 0
-27932 27933 27934 0
27935 -27936 0
27935 -27937 0
-27935 27936 27937 0
27938 -27939 0
27938 -27940 0
-27938 27939 27940 0
27941 -27942 0
27941 -28127 0
-27941 27942 28127 0
27944 -27945 0
27944 -27946 0
-27944 27945 27946 0
27947 -27954 0
27947 -27949 0
-27947 27954 27949 0
27950 -27954 0
27950 -27952 0
-27950 27954 27952 0
27953 -27954 0
27953 -27955 0
-27953 27954 27955 0
27956 -27957 0
27956 -27958 0
-27956 27957 27958 0
27959 -27960 0
27959 -27961 0
-27959 27960 27961 0
27962 -27969 0
27962 -27964 0
-27962 27969 27964 0
27965 -27969 0
27965 -27967 0
-27965 27969 27967 0
27968 -27969 0
27968 -27970 0
-27968 27969 27970 0
27971 -27972 0
27971 -27973 0
-27971 27972 27973 0
27974 -27975 0
27974 -27976 0
-27974 27975 27976 0
27977 -27978 0
27977 -27979 0
-27977 27978 27979 0
27980 -27981 0
27980 -27982 0
-27980 27981 27982 0
27983 -27984 0
27983 -27985 0
-27983 27984 27985 0
27986 -27987 0
27986 -27988 0
-27986 27987 27988 0
27989 -27990 0
27989 -27991 0
-27989 27990 27991 0
27992 -27993 0
27992 -27994 0
-27992 27993 27994 0
27995 -27996 0
27995 -27997 0
-27995 27996 27997 0
27998 -27999 0
27998 -28000 0
-27998 27999 28000 0
28001 -28002 0
28001 -28003 0
-28001 28002 28003 0
28004 -28005 0
28004 -28006 0
-28004 28005 28006 0
28007 -28008 0
28007 -28009 0
-28007 28008 28009 0
28010 -28011 0
28010 -28012 0
-28010 28011 28012 0
28013 -28014 0
28013 -28015 0
-28013 28014 28015 0
28016 -28017 0
28016 -28018 0
-28016 28017 28018 0
28019 -28020 0
28019 -28021 0
-28019 28020 28021 0
28022 -28215 0
28022 -28127 0
28022 -28025 0
-28022 28215 28127 28025 0
28026 -28027 0
28026 -28028 0
-28026 28027 28028 0
28029 -28030 0
28029 -28031 0
-28029 28030 28031 0
28032 -28033 0
28032 -28034 0
-28032 28033 28034 0
28035 -28036 0
28035 -28037 0
-28035 28036 28037 0
28038 -28039 0
28038 -28040 0
-28038 28039 28040 0
28041 -28042 0
28041 -28043 0
-28041 28042 28043 0
28044 -28045 0
28044 -28046 0
-28044 28045 28046 0
28047 -28048 0
28047 -28049 0
-28047 28048 28049 0
28050 -28051 0
28050 -28052 0
-28050 28051 28052 0
28053 -28054 0
28053 -28055 0
-28053 28054 28055 0
28056 -28057 0
28056 -28058 0
-28056 28057 28058 0
28059 -28060 0
28059 -28061 0
-28059 28060 28061 0
28062 -28063 0
28062 -28064 0
-28062 28063 28064 0
28065 -28066 0
28065 -28067 0
-28065 28066 28067 0
28068 -28069 0
28068 -28070 0
-28068 28069 28070 0
28071 -28072 0
28071 -28073 0
-28071 28072 28073 0
28074 -28075 0
28074 -28076 0
-28074 28075 28076 0
28077 -28078 0
28077 -28079 0
-28077 28078 28079 0
28080 -28081 0
28080 -28082 0
-28080 28081 28082 0
28083 -28215 0
28083 -28085 0
-28083 28215 28085 0
28086 -28087 0
28086 -28088 0
-28086 28087 28088 0
28089 -28090 0
28089 -28091 0
-28089 28090 28091 0
28092 -28093 0
28092 -28127 0
-28092 28093 28127 0
28095 -28096 0
28095 -28097 0
-28095 28096 28097 0
28098 -28099 0
28098 -28100 0
-28098 28099 28100 0
28101 -28102 0
28101 -28103 0
-28101 28102 28103 0
28104 -28105 0
28104 -28106 0
-28104 28105 28106 0
28107 -28108 0
28107 -28109 0
-28107 28108 28109 0
28110 -28111 0
28110 -28112 0
-28110 28111 28112 0
28113 -28114 0
28113 -28115 0
-28113 28114 28115 0
28116 -28117 0
28116 -28118 0
-28116 28117 28118 0
28119 -28120 0
28119 -28121 0
-28119 28120 28121 0
28122 -28123 0
28122 -28124 0
-28122 28123 28124 0
28125 -28126 0
28125 -28127 0
-28125 28126 28127 0
28128 -28129 0
28128 -28130 0
-28128 28129 28130 0
28131 -28132 0
28131 -28133 0
-28131 28132 28133 0
28134 -28135 0
28134 -28136 0
28134 -28137 0
28134 -28138 0
-28134 28135 28136 28137 28138 0
28139 -28140 0
28139 -28141 0
-28139 28140 28141 0
28142 -28143 0
28142 -28144 0
-28142 28143 28144 0
28145 -28146 0
28145 -28147 0
-28145 28146 28147 0
28148 -28149 0
28148 -28150 0
28148 -28306 0
28148 -28152 0
-28148 28149 28150 28306 28152 0
28153 -28154 0
28153 -28155 0
-28153 28154 28155 0
28156 -28157 0
28156 -28158 0
-28156 28157 28158 0
28159 -28160 0
28159 -28161 0
-28159 28160 28161 0
28162 -28163 0
28162 -28164 0
-28162 28163 28164 0
28165 -28166 0
28165 -28167 0
-28165 28166 28167 0
28168 -28169 0
28168 -28170 0
-28168 28169 28170 0
28171 -28172 0
28171 -28173 0
28171 -28174 0
-28171 28172 28173 28174 0
28175 -28176 0
28175 -28177 0
-28175 28176 28177 0
28178 -28179 0
28178 -28180 0
-28178 28179 28180 0
28181 -28182 0
28181 -28183 0
-28181 28182 28183 0
28184 -28185 0
28184 -28186 0
-28184 28185 28186 0
28187 -28188 0
28187 -28189 0
-28187 28188 28189 0
28271 -28191 0
28271 -28192 0
28271 -28193 0
-28271 28191 28192 28193 0
28194 -28195 0
28194 -28196 0
-28194 28195 28196 0
28197 -28198 0
28197 -28199 0
28197 -28200 0
-28197 28198 28199 28200 0
28201 -28202 0
28201 -28203 0
-28201 28202 28203 0
28204 -28205 0
28204 -28206 0
28204 -28207 0
-28204 28205 28206 28207 0
28208 -28209 0
28208 -28210 0
-28208 28209 28210 0
28211 -28212 0
28211 -28213 0
-28211 28212 28213 0
28214 -28215 0
28214 -28216 0
-28214 28215 28216 0
28217 -28218 0
28217 -28219 0
-28217 28218 28219 0
28220 -28221 0
28220 -28222 0
-28220 28221 28222 0
28223 -28224 0
28223 -28225 0
28223 -28226 0
-28223 28224 28225 28226 0
28227 -28228 0
28227 -28229 0
-28227 28228 28229 0
28230 -28231 0
28230 -28232 0
-28230 28231 28232 0
28233 -28234 0
28233 -28235 0
28233 -28236 0
-28233 28234 28235 28236 0
28237 -28238 0
28237 -28239 0
-28237 28238 28239 0
28240 -28241 0
28240 -28242 0
-28240 28241 28242 0
28243 -28244 0
28243 -28245 0
-28243 28244 28245 0
28246 -28247 0
28246 -28248 0
-28246 28247 28248 0
28249 -28250 0
28249 -28251 0
-28249 28250 28251 0
28252 -28253 0
28252 -28254 0
-28252 28253 28254 0
28255 -28256 0
28255 -28257 0
-28255 28256 28257 0
28258 -28259 0
28258 -28260 0
-28258 28259 28260 0
28308 -28262 0
28308 -28263 0
28308 -28264 0
-28308 28262 28263 28264 0
28265 -28266 0
28265 -28267 0
-28265 28266 28267 0
28268 -28269 0
28268 -28270 0
28268 -28271 0
-28268 28269 28270 28271 0
28272 -28273 0
28272 -28274 0
-28272 28273 28274 0
28275 -28276 0
28275 -28277 0
-28275 28276 28277 0
28278 -28279 0
28278 -28280 0
-28278 28279 28280 0
28281 -28282 0
28281 -28283 0
28281 -28284 0
-28281 28282 28283 28284 0
28285 -28286 0
28285 -28287 0
-28285 28286 28287 0
28288 -28289 0
28288 -28290 0
-28288 28289 28290 0
28291 -28292 0
28291 -28293 0
-28291 28292 28293 0
28340 -28295 0
28340 -28296 0
28340 -28297 0
-28340 28295 28296 28297 0
28298 -28299 0
28298 -28300 0
-28298 28299 28300 0
28301 -28302 0
28301 -28303 0
-28301 28302 28303 0
28304 -28305 0
28304 -28306 0
28304 -28307 0
28304 -28308 0
-28304 28305 28306 28307 28308 0
28352 -28310 0
28352 -28311 0
28352 -28312 0
-28352 28310 28311 28312 0
28313 -28314 0
28313 -28315 0
-28313 28314 28315 0
28316 -28317 0
28316 -28318 0
-28316 28317 28318 0
28319 -28320 0
28319 -28321 0
28319 -28322 0
28319 -28323 0
-28319 28320 28321 28322 28323 0
28324 -28325 0
28324 -28326 0
28324 -28327 0
28324 -28328 0
-28324 28325 28326 28327 28328 0
28329 -28330 0
28329 -28331 0
-28329 28330 28331 0
28332 -28333 0
28332 -28334 0
28332 -28335 0
28332 -28336 0
-28332 28333 28334 28335 28336 0
28337 -28338 0
28337 -28339 0
28337 -28340 0
-28337 28338 28339 28340 0
28341 -28342 0
28341 -28343 0
28341 -28344 0
-28341 28342 28343 28344 0
28345 -28346 0
28345 -28347 0
-28345 28346 28347 0
28348 -28349 0
28348 -28350 0
28348 -28351 0
28348 -28352 0
-28348 28349 28350 28351 28352 0
28353 -28354 0
28353 -28355 0
28353 -28356 0
-28353 28354 28355 28356 0
28357 -28358 0
28357 -28359 0
-28357 28358 28359 0
28360 -28361 0
28360 -28362 0
-28360 28361 28362 0
28363 -28364 0
28363 -28365 0
28363 -28366 0
-28363 28364 28365 28366 0
28367 -28368 0
28367 -28369 0
28367 -28370 0
-28367 28368 28369 28370 0
28371 -28372 0
28371 -28373 0
-28371 28372 28373 0
28374 -28375 0
28374 -28376 0
28374 -28377 0
-28374 28375 28376 28377 0
28378 -28379 0
28378 -28380 0
28378 -28381 0
28378 -28382 0
-28378 28379 28380 28381 28382 0
28383 -28384 0
28383 -28385 0
28383 -28386 0
28383 -28387 0
-28383 28384 28385 28386 28387 0
28388 -28389 0
28388 -28390 0
28388 -28391 0
28388 -28392 0
-28388 28389 28390 28391 28392 0
28393 -28394 0
28393 -28395 0
-28393 28394 28395 0
28396 -28397 0
28396 -28398 0
28396 -28399 0
-28396 28397 28398 28399 0
28400 -28401 0
28400 -28402 0
-28400 28401 28402 0
28403 -28404 0
28403 -28405 0
-28403 28404 28405 0
28406 -28407 0
28406 -28408 0
28406 -28409 0
-28406 28407 28408 28409 0
-28411 30320 0
28411 -30320 0
-28413 29885 0
28413 -29885 0
-28415 29887 0
28415 -29887 0
-28417 30141 0
28417 -30141 0
-28419 29941 0
28419 -29941 0
-28421 29789 0
28421 -29789 0
29870 29848 0
-29870 -29848 0
29526 29818 0
-29526 -29818 0
29845 29918 0
-29845 -29918 0
29812 29486 0
-29812 -29486 0
29806 29810 0
-29806 -29810 0
29809 29785 0
-29809 -29785 0
29819 29267 0
-29819 -29267 0
29821 29789 0
-29821 -29789 0
29830 29941 0
-29830 -29941 0
30138 30141 0
-30138 -30141 0
29930 29887 0
-29930 -29887 0
29978 29885 0
-29978 -29885 0
30045 30320 0
-30045 -30320 0
30276 29784 0
-30276 -29784 0
28453 30141 0
-28453 -30141 0
29888 28453 0
-29888 -28453 0
29890 29790 0
-29890 -29790 0
28459 29918 0
-28459 -29918 0
28852 28459 0
-28852 -28459 0
30048 29793 0
-30048 -29793 0
28465 29930 0
-28465 -29930 0
29915 28465 0
-29915 -28465 0
29481 29799 0
-29481 -29799 0
29315 29802 0
-29315 -29802 0
30277 29805 0
-30277 -29805 0
28475 29805 0
-28475 -29805 0
29969 28475 0
-29969 -28475 0
29342 29811 0
-29342 -29811 0
29207 29869 0
-29207 -29869 0
28970 29820 0
-28970 -29820 0
29926 29823 0
-29926 -29823 0
29929 29826 0
-29929 -29826 0
29343 29829 0
-29343 -29829 0
29935 29832 0
-29935 -29832 0
29938 29835 0
-29938 -29835 0
29998 29838 0
-29998 -29838 0
29043 29884 0
-29043 -29884 0
29224 29844 0
-29224 -29844 0
29953 29847 0
-29953 -29847 0
29097 29850 0
-29097 -29850 0
29301 29899 0
-29301 -29899 0
29968 29856 0
-29968 -29856 0
30149 29859 0
-30149 -29859 0
29983 29862 0
-29983 -29862 0
28513 29885 0
-28513 -29885 0
29309 28513 0
-29309 -28513 0
30229 29883 0
-30229 -29883 0
28519 28724 0
-28519 -28724 0
29358 28519 0
-29358 -28519 0
28523 28961 0
-28523 -28961 0
29412 28523 0
-29412 -28523 0
30140 29937 0
-30140 -29937 0
28526 29217 0
-28526 -29217 0
28528 29426 0
-28528 -29426 0
29633 30139 0
-29633 -30139 0
28532 29506 0
-28532 -29506 0
28534 30192 0
-28534 -30192 0
28536 30201 0
-28536 -30201 0
28538 29627 0
-28538 -29627 0
28540 30295 0
-28540 -30295 0
28542 29647 0
-28542 -29647 0
28544 30312 0
-28544 -30312 0
28546 29711 0
-28546 -29711 0
28548 29715 0
-28548 -29715 0
28550 30343 0
-28550 -30343 0
28552 30355 0
-28552 -30355 0
28554 30367 0
-28554 -30367 0
28556 30377 0
-28556 -30377 0
28575 30381 0
-28575 -30381 0
28560 30385 0
-28560 -30385 0
28577 30388 0
-28577 -30388 0
28579 30392 0
-28579 -30392 0
28583 30397 0
-28583 -30397 0
28585 30402 0
-28585 -30402 0
28570 30407 0
-28570 -30407 0
28587 30410 0
-28587 -30410 0
29767 28575 0
-29767 -28575 0
29770 28577 0
-29770 -28577 0
29773 28579 0
-29773 -28579 0
28580 30414 0
-28580 -30414 0
29776 28583 0
-29776 -28583 0
29779 28585 0
-29779 -28585 0
29782 28587 0
-29782 -28587 0
28588 30420 0
-28588 -30420 0
-29881 30141 0
-29881 29887 0
29881 -30141 -29887 0
-29891 30141 0
-29891 29887 0
29891 -30141 -29887 0
-29932 29941 0
-29932 30141 0
-29932 29887 0
29932 -29941 -30141 -29887 0
-29908 29941 0
-29908 29885 0
29908 -29941 -29885 0
-29893 29848 0
-29893 29885 0
29893 -29848 -29885 0
-29993 29848 0
-29993 29885 0
29993 -29848 -29885 0
-29923 29918 0
-29923 29885 0
29923 -29918 -29885 0
-30157 30141 0
-30157 29885 0
30157 -30141 -29885 0
-29867 29818 0
-29867 30320 0
29867 -29818 -30320 0
-29872 29812 0
-29872 29819 0
29872 -29812 -29819 0
-29221 29486 0
-29221 29821 0
-29221 29887 0
29221 -29486 -29821 -29887 0
-29876 29848 0
-29876 29830 0
-29876 29885 0
29876 -29848 -29830 -29885 0
-29911 29819 0
-29911 29821 0
-29911 29830 0
-29911 30320 0
29911 -29819 -29821 -29830 -30320 0
-29936 29830 0
-29936 29885 0
29936 -29830 -29885 0
-30011 29830 0
-30011 30141 0
-30011 30320 0
30011 -29830 -30141 -30320 0
-29927 29830 0
-29927 30141 0
-29927 29887 0
29927 -29830 -30141 -29887 0
-28864 29818 0
-28864 29267 0
-28864 29821 0
-28864 29830 0
28864 -29818 -29267 -29821 -29830 0
-29875 29845 0
-29875 29941 0
-29875 30138 0
29875 -29845 -29941 -30138 0
-29878 30138 0
-29878 29885 0
29878 -30138 -29885 0
-29897 29812 0
-29897 30138 0
29897 -29812 -30138 0
-30020 29821 0
-30020 29830 0
-30020 30138 0
30020 -29821 -29830 -30138 0
-29225 29789 0
-29225 29941 0
-29225 30138 0
29225 -29789 -29941 -30138 0
-29882 29830 0
-29882 29930 0
29882 -29830 -29930 0
-29996 29818 0
-29996 29930 0
-29996 30320 0
29996 -29818 -29930 -30320 0
-30029 29830 0
-30029 29930 0
-30029 29885 0
30029 -29830 -29930 -29885 0
-30017 29930 0
-30017 30320 0
30017 -29930 -30320 0
-30051 29526 0
-30051 30141 0
-30051 29930 0
30051 -29526 -30141 -29930 0
-29900 29830 0
-29900 29930 0
29900 -29830 -29930 0
-30291 29941 0
-30291 29885 0
-30291 29790 0
30291 -29941 -29885 -29790 0
-29894 29887 0
-29894 29978 0
29894 -29887 -29978 0
-29903 29267 0
-29903 29978 0
29903 -29267 -29978 0
-28960 29821 0
-28960 30141 0
-28960 29978 0
28960 -29821 -30141 -29978 0
-29954 30138 0
-29954 29978 0
29954 -30138 -29978 0
-29990 29830 0
-29990 29978 0
29990 -29830 -29978 0
-30084 29887 0
-30084 29978 0
30084 -29887 -29978 0
-29984 30141 0
-29984 29978 0
29984 -30141 -29978 0
-30002 29887 0
-30002 29978 0
30002 -29887 -29978 0
-29950 29887 0
-29950 29978 0
29950 -29887 -29978 0
-30319 29887 0
-30319 29978 0
30319 -29887 -29978 0
-28724 29941 0
-28724 29793 0
28724 -29941 -29793 0
-30005 29793 0
-30005 30320 0
30005 -29793 -30320 0
-29909 29821 0
-29909 30045 0
29909 -29821 -30045 0
-29912 29941 0
-29912 30045 0
29912 -29941 -30045 0
-30081 29821 0
-30081 30141 0
-30081 29930 0
-30081 30045 0
30081 -29821 -30141 -29930 -30045 0
-30087 29830 0
-30087 30141 0
-30087 29978 0
-30087 30045 0
30087 -29830 -30141 -29978 -30045 0
-29963 29830 0
-29963 29978 0
-29963 30045 0
29963 -29830 -29978 -30045 0
-30117 29830 0
-30117 30141 0
-30117 29930 0
-30117 30045 0
30117 -29830 -30141 -29930 -30045 0
-29966 29809 0
-29966 29978 0
-29966 30045 0
29966 -29809 -29978 -30045 0
-30093 29830 0
-30093 29978 0
-30093 30045 0
30093 -29830 -29978 -30045 0
-29981 29486 0
-29981 29930 0
-29981 30045 0
29981 -29486 -29930 -30045 0
-29975 29930 0
-29975 30045 0
29975 -29930 -30045 0
-30126 29790 0
-30126 30045 0
30126 -29790 -30045 0
-29987 29830 0
-29987 30141 0
-29987 29978 0
-29987 30045 0
29987 -29830 -30141 -29978 -30045 0
-29972 29978 0
-29972 30045 0
29972 -29978 -30045 0
-30135 29787 0
-30135 30045 0
-30135 29790 0
30135 -29787 -30045 -29790 0
-30102 29819 0
-30102 29978 0
-30102 30045 0
30102 -29819 -29978 -30045 0
-30155 30045 0
-30155 29793 0
30155 -30045 -29793 0
-30268 29789 0
-30268 30045 0
30268 -29789 -30045 0
-30039 29796 0
-30039 29885 0
30039 -29796 -29885 0
-29914 29802 0
-29914 29978 0
29914 -29802 -29978 0
-29921 29930 0
-29921 29808 0
29921 -29930 -29808 0
-29924 29811 0
-29924 29978 0
29924 -29811 -29978 0
-29945 29814 0
-29945 29978 0
-29945 30045 0
29945 -29814 -29978 -30045 0
-30123 29820 0
-30123 29809 0
-30123 30141 0
-30123 30045 0
30123 -29820 -29809 -30141 -30045 0
-29933 29829 0
-29933 29930 0
29933 -29829 -29930 0
-29948 29885 0
-29948 29832 0
29948 -29885 -29832 0
-29942 29838 0
-29942 29885 0
29942 -29838 -29885 0
-30042 29941 0
-30042 29884 0
30042 -29941 -29884 0
-29944 29885 0
-29944 29884 0
29944 -29885 -29884 0
-29947 29844 0
-29947 29978 0
29947 -29844 -29978 0
-29951 29885 0
-29951 29844 0
29951 -29885 -29844 0
-30035 29819 0
-30035 29830 0
-30035 30320 0
-30035 29890 0
30035 -29819 -29830 -30320 -29890 0
-30340 29941 0
-30340 30045 0
-30340 29890 0
30340 -29941 -30045 -29890 0
-29960 30141 0
-29960 30320 0
-29960 29850 0
29960 -30141 -30320 -29850 0
-30321 29941 0
-30321 28852 0
30321 -29941 -28852 0
-30207 30141 0
-30207 29899 0
30207 -30141 -29899 0
-30066 29267 0
-30066 30320 0
-30066 30048 0
30066 -29267 -30320 -30048 0
-30057 30141 0
-30057 30045 0
-30057 30048 0
-30057 28864 0
30057 -30141 -30045 -30048 -28864 0
-30060 29830 0
-30060 30138 0
-30060 30048 0
30060 -29830 -30138 -30048 0
-30129 30141 0
-30129 30048 0
30129 -30141 -30048 0
-29959 29486 0
-29959 30045 0
-29959 30048 0
29959 -29486 -30045 -30048 0
-30242 29819 0
-30242 30141 0
-30242 30045 0
-30242 30048 0
30242 -29819 -30141 -30045 -30048 0
-30190 30141 0
-30190 30320 0
-30190 30048 0
30190 -30141 -30320 -30048 0
-29185 29821 0
-29185 29830 0
-29185 30048 0
29185 -29821 -29830 -30048 0
-29971 29856 0
-29971 30138 0
29971 -29856 -30138 0
-30144 29890 0
-30144 29856 0
30144 -29890 -29856 0
-29974 29859 0
-29974 30138 0
29974 -29859 -30138 0
-30032 29862 0
-30032 29930 0
30032 -29862 -29930 0
-30007 29830 0
-30007 29887 0
-30007 29481 0
30007 -29830 -29887 -29481 0
-30235 29978 0
-30235 29481 0
30235 -29978 -29481 0
-30398 29941 0
-30398 29887 0
-30398 29481 0
30398 -29941 -29887 -29481 0
-29986 29865 0
-29986 29941 0
-29986 29885 0
29986 -29865 -29941 -29885 0
-30132 29315 0
-30132 29790 0
30132 -29315 -29790 0
-29989 29941 0
-29989 29885 0
-29989 30277 0
29989 -29941 -29885 -30277 0
-30014 29830 0
-30014 30138 0
-30014 29978 0
-30014 30277 0
30014 -29830 -30138 -29978 -30277 0
-29992 29930 0
-29992 30277 0
29992 -29930 -30277 0
-29995 29941 0
-29995 30045 0
-29995 30277 0
29995 -29941 -30045 -30277 0
-29999 30141 0
-29999 30277 0
29999 -30141 -30277 0
-30089 29481 0
-30089 30277 0
30089 -29481 -30277 0
-30199 29830 0
-30199 30138 0
-30199 30048 0
-30199 30277 0
30199 -29830 -30138 -30048 -30277 0
-30232 29978 0
-30232 29481 0
-30232 30277 0
30232 -29978 -29481 -30277 0
-30196 30045 0
-30196 29890 0
-30196 30277 0
30196 -30045 -29890 -30277 0
-30163 29826 0
-30163 30277 0
30163 -29826 -30277 0
-30077 30045 0
-30077 29342 0
-30077 28960 0
30077 -30045 -29342 -28960 0
-28961 29486 0
-28961 30320 0
-28961 29868 0
28961 -29486 -30320 -29868 0
-30001 29871 0
-30001 29930 0
30001 -29871 -29930 0
-30004 30045 0
-30004 28970 0
30004 -30045 -28970 0
-30008 30141 0
-30008 29885 0
-30008 29926 0
30008 -30141 -29885 -29926 0
-30054 29845 0
-30054 29789 0
-30054 29926 0
30054 -29845 -29789 -29926 0
-30010 29845 0
-30010 30045 0
-30010 29929 0
30010 -29845 -30045 -29929 0
-30068 30320 0
-30068 29929 0
30068 -30320 -29929 0
-30110 30045 0
-30110 29929 0
30110 -30045 -29929 0
-30071 29799 0
-30071 29929 0
30071 -29799 -29929 0
-30013 29918 0
-30013 29343 0
30013 -29918 -29343 0
-30016 30045 0
-30016 29343 0
30016 -30045 -29343 0
-30019 29885 0
-30019 29343 0
30019 -29885 -29343 0
-30023 29941 0
-30023 29935 0
30023 -29941 -29935 0
-30026 29941 0
-30026 29885 0
-30026 29935 0
30026 -29941 -29885 -29935 0
-30216 29941 0
-30216 29885 0
-30216 29935 0
30216 -29941 -29885 -29935 0
-30317 29941 0
-30317 29885 0
-30317 29935 0
30317 -29941 -29885 -29935 0
-30294 29821 0
-30294 29887 0
-30294 29874 0
30294 -29821 -29887 -29874 0
-30283 29930 0
-30283 29877 0
30283 -29930 -29877 0
-30022 29830 0
-30022 30138 0
-30022 29938 0
30022 -29830 -30138 -29938 0
-30025 29830 0
-30025 30138 0
-30025 29938 0
30025 -29830 -30138 -29938 0
-30028 29929 0
-30028 29998 0
30028 -29929 -29998 0
-30031 30320 0
-30031 29998 0
30031 -30320 -29998 0
-30034 29267 0
-30034 29043 0
-30034 29343 0
30034 -29267 -29043 -29343 0
-30095 29847 0
-30095 29043 0
30095 -29847 -29043 0
-30213 29883 0
-30213 30141 0
30213 -29883 -30141 0
-30041 30045 0
-30041 29224 0
30041 -30045 -29224 0
-30062 29978 0
-30062 29224 0
30062 -29978 -29224 0
-30245 29978 0
-30245 30045 0
-30245 29224 0
30245 -29978 -30045 -29224 0
-30376 29886 0
-30376 29918 0
-30376 29941 0
-30376 29885 0
30376 -29886 -29918 -29941 -29885 0
-30221 29889 0
-30221 29830 0
-30221 29885 0
30221 -29889 -29830 -29885 0
-30044 30138 0
-30044 29097 0
30044 -30138 -29097 0
-30047 29870 0
-30047 29097 0
30047 -29870 -29097 0
-30113 30141 0
-30113 29097 0
30113 -30141 -29097 0
-30050 30138 0
-30050 29097 0
30050 -30138 -29097 0
-30053 29809 0
-30053 29821 0
-30053 29830 0
-30053 29097 0
30053 -29809 -29821 -29830 -29097 0
-30056 29941 0
-30056 30138 0
-30056 29097 0
30056 -29941 -30138 -29097 0
-30059 29848 0
-30059 29869 0
-30059 29941 0
-30059 29097 0
30059 -29848 -29869 -29941 -29097 0
-30074 30138 0
-30074 29097 0
30074 -30138 -29097 0
-30160 29830 0
-30160 29097 0
30160 -29830 -29097 0
-30063 29956 0
-30063 29830 0
30063 -29956 -29830 0
-30065 29848 0
-30065 29887 0
-30065 29301 0
30065 -29848 -29887 -29301 0
-30069 29830 0
-30069 30141 0
-30069 29301 0
30069 -29830 -30141 -29301 0
-30120 29887 0
-30120 29301 0
30120 -29887 -29301 0
-30072 29830 0
-30072 29301 0
30072 -29830 -29301 0
-30209 29930 0
-30209 29301 0
30209 -29930 -29301 0
-30174 29887 0
-30174 29301 0
30174 -29887 -29301 0
-30265 29823 0
-30265 30141 0
-30265 29301 0
30265 -29823 -30141 -29301 0
-30226 30141 0
-30226 29887 0
-30226 29301 0
30226 -30141 -29887 -29301 0
-30171 29830 0
-30171 29930 0
-30171 29301 0
30171 -29830 -29930 -29301 0
-30252 29818 0
-30252 30141 0
-30252 29301 0
30252 -29818 -30141 -29301 0
-30146 30138 0
-30146 29301 0
-30146 30277 0
-30146 29938 0
30146 -30138 -29301 -30277 -29938 0
-30280 29830 0
-30280 29930 0
-30280 29301 0
30280 -29830 -29930 -29301 0
-30306 30141 0
-30306 29887 0
-30306 29301 0
30306 -30141 -29887 -29301 0
-30288 29301 0
-30288 29838 0
30288 -29301 -29838 0
-30273 30141 0
-30273 29930 0
-30273 29301 0
30273 -30141 -29930 -29301 0
-30296 29830 0
-30296 29930 0
-30296 29301 0
30296 -29830 -29930 -29301 0
-30303 29880 0
-30303 29301 0
30303 -29880 -29301 0
-30372 29890 0
-30372 29301 0
30372 -29890 -29301 0
-30186 29895 0
-30186 29930 0
30186 -29895 -29930 0
-30152 30141 0
-30152 29898 0
30152 -30141 -29898 0
-30075 29901 0
-30075 29930 0
30075 -29901 -29930 0
-30297 29904 0
-30297 29941 0
30297 -29904 -29941 0
-30379 29941 0
-30379 29904 0
30379 -29941 -29904 0
-30408 29481 0
-30408 30277 0
-30408 29185 0
30408 -29481 -30277 -29185 0
-30078 29918 0
-30078 29789 0
-30078 30138 0
-30078 29968 0
30078 -29918 -29789 -30138 -29968 0
-30080 29789 0
-30080 29941 0
-30080 29968 0
-30080 29998 0
30080 -29789 -29941 -29968 -29998 0
-30083 29930 0
-30083 29968 0
30083 -29930 -29968 0
-30086 29845 0
-30086 29941 0
-30086 29968 0
30086 -29845 -29941 -29968 0
-30090 29486 0
-30090 29941 0
-30090 29968 0
-30090 29207 0
30090 -29486 -29941 -29968 -29207 0
-30092 29267 0
-30092 29968 0
30092 -29267 -29968 0
-30096 29930 0
-30096 29968 0
30096 -29930 -29968 0
-30104 29941 0
-30104 29968 0
30104 -29941 -29968 0
-29217 29968 0
-29217 29343 0
-29217 29869 0
-29217 29221 0
29217 -29968 -29343 -29869 -29221 0
-30202 29968 0
-30202 29224 0
-30202 29225 0
30202 -29968 -29224 -29225 0
-30099 29930 0
-30099 29968 0
30099 -29930 -29968 0
-30223 30141 0
-30223 29887 0
-30223 29968 0
30223 -30141 -29887 -29968 0
-30255 29526 0
-30255 29930 0
-30255 29968 0
30255 -29526 -29930 -29968 0
-30101 29868 0
-30101 29486 0
-30101 29968 0
30101 -29868 -29486 -29968 0
-30339 30141 0
-30339 29968 0
30339 -30141 -29968 0
-30105 29526 0
-30105 29907 0
30105 -29526 -29907 0
-30107 29812 0
-30107 30149 0
30107 -29812 -30149 0
-30183 29978 0
-30183 30149 0
30183 -29978 -30149 0
-30168 29978 0
-30168 30149 0
30168 -29978 -30149 0
-30365 30141 0
-30365 29978 0
-30365 30149 0
30365 -30141 -29978 -30149 0
-30311 29978 0
-30311 30149 0
30311 -29978 -30149 0
-30111 29812 0
-30111 29910 0
30111 -29812 -29910 0
-30114 29267 0
-30114 30048 0
-30114 29983 0
30114 -29267 -30048 -29983 0
-30116 29978 0
-30116 29983 0
30116 -29978 -29983 0
-30119 29789 0
-30119 29983 0
30119 -29789 -29983 0
-30122 29789 0
-30122 29887 0
-30122 29983 0
30122 -29789 -29887 -29983 0
-30125 29930 0
-30125 29983 0
30125 -29930 -29983 0
-30128 29850 0
-30128 29983 0
30128 -29850 -29983 0
-30131 29887 0
-30131 29983 0
30131 -29887 -29983 0
-30134 29887 0
-30134 29983 0
30134 -29887 -29983 0
-30180 29789 0
-30180 29941 0
-30180 29983 0
30180 -29789 -29941 -29983 0
-30249 29913 0
-30249 30138 0
30249 -29913 -30138 0
-30137 29916 0
-30137 29301 0
30137 -29916 -29301 0
-30150 29919 0
-30150 29978 0
30150 -29919 -29978 0
-30166 29941 0
-30166 29922 0
30166 -29941 -29922 0
-30390 29309 0
-30390 29789 0
-30390 30141 0
-30390 30045 0
30390 -29309 -29789 -30141 -30045 0
-30334 29925 0
-30334 29315 0
30334 -29925 -29315 0
-30240 29928 0
-30240 30320 0
30240 -29928 -30320 0
-30262 29789 0
-30262 30045 0
-30262 29931 0
30262 -29789 -30045 -29931 0
-30284 29934 0
-30284 29808 0
30284 -29934 -29808 0
-30380 29789 0
-30380 30045 0
-30380 29940 0
30380 -29789 -30045 -29940 0
-30143 30141 0
-30143 30229 0
30143 -30141 -30229 0
-30193 29789 0
-30193 30229 0
-30193 29343 0
30193 -29789 -30229 -29343 0
-30177 30138 0
-30177 30229 0
30177 -30138 -30229 0
-30300 30229 0
-30300 29342 0
-30300 29343 0
30300 -30229 -29342 -29343 0
-30147 29943 0
-30147 30141 0
30147 -29943 -30141 0
-30151 29941 0
-30151 29946 0
30151 -29941 -29946 0
-30154 30138 0
-30154 29949 0
30154 -30138 -29949 0
-30158 29821 0
-30158 29952 0
30158 -29821 -29952 0
-30161 29789 0
-30161 29358 0
30161 -29789 -29358 0
-30164 29955 0
-30164 29830 0
30164 -29955 -29830 0
-30326 29941 0
-30326 29958 0
30326 -29941 -29958 0
-30239 29812 0
-30239 29961 0
30239 -29812 -29961 0
-30169 29964 0
-30169 29930 0
30169 -29964 -29930 0
-30250 29967 0
-30250 29930 0
30250 -29967 -29930 0
-30172 29970 0
-30172 29941 0
-30172 29887 0
30172 -29970 -29941 -29887 0
-30271 29973 0
-30271 29789 0
-30271 29978 0
30271 -29973 -29789 -29978 0
-30175 29976 0
-30175 29930 0
30175 -29976 -29930 0
-30393 29979 0
-30393 29929 0
30393 -29979 -29929 0
-30356 29982 0
-30356 29926 0
30356 -29982 -29926 0
-30178 29985 0
-30178 29930 0
30178 -29985 -29930 0
-30181 29988 0
-30181 29821 0
-30181 30141 0
-30181 30045 0
30181 -29988 -29821 -30141 -30045 0
-30184 29991 0
-30184 30045 0
30184 -29991 -30045 0
-30259 29821 0
-30259 29885 0
-30259 29994 0
30259 -29821 -29885 -29994 0
-30187 29845 0
-30187 30045 0
-30187 29997 0
30187 -29845 -30045 -29997 0
-30188 30141 0
-30188 29412 0
30188 -30141 -29412 0
-30214 30000 0
-30214 30320 0
30214 -30000 -30320 0
-30191 30003 0
-30191 30138 0
30191 -30003 -30138 0
-30364 30006 0
-30364 29805 0
30364 -30006 -29805 0
-30194 30009 0
-30194 29821 0
-30194 29930 0
30194 -30009 -29821 -29930 0
-29426 30012 0
-29426 29821 0
-29426 29930 0
-29426 30045 0
29426 -30012 -29821 -29930 -30045 0
-30197 29812 0
-30197 30015 0
30197 -29812 -30015 0
-30219 30018 0
-30219 30277 0
30219 -30018 -30277 0
-30200 30021 0
-30200 29784 0
-30200 29885 0
30200 -30021 -29784 -29885 0
-30332 29808 0
-30332 30024 0
-30332 30045 0
30332 -29808 -30024 -30045 0
-30406 29789 0
-30406 30045 0
-30406 30027 0
30406 -29789 -30045 -30027 0
-30389 30030 0
-30389 29929 0
30389 -30030 -29929 0
-30203 30033 0
-30203 29486 0
-30203 29821 0
-30203 29978 0
30203 -30033 -29486 -29821 -29978 0
-30206 29830 0
-30206 30036 0
30206 -29830 -30036 0
-30205 30040 0
-30205 29978 0
30205 -30040 -29978 0
-30210 30043 0
-30210 29941 0
30210 -30043 -29941 0
-30212 30045 0
-30212 30046 0
-30212 30277 0
30212 -30045 -30046 -30277 0
-30217 29830 0
-30217 30138 0
-30217 30046 0
30217 -29830 -30138 -30046 0
-30353 29830 0
-30353 30045 0
-30353 30049 0
30353 -29830 -30045 -30049 0
-30368 29870 0
-30368 30052 0
-30368 29481 0
30368 -29870 -30052 -29481 0
-30399 29845 0
-30399 30055 0
30399 -29845 -30055 0
-30348 29486 0
-30348 30058 0
-30348 30320 0
30348 -29486 -30058 -30320 0
-30220 29821 0
-30220 30061 0
-30220 30138 0
30220 -29821 -30061 -30138 0
-30224 30064 0
-30224 30138 0
30224 -30064 -30138 0
-30404 30067 0
-30404 29930 0
30404 -30067 -29930 0
-30227 30070 0
-30227 29930 0
30227 -30070 -29930 0
-30337 29830 0
-30337 30320 0
-30337 30073 0
30337 -29830 -30320 -30073 0
-29506 30076 0
-29506 29941 0
-29506 29887 0
29506 -30076 -29941 -29887 0
-30405 29918 0
-30405 30079 0
30405 -29918 -30079 0
-30230 30082 0
-30230 29830 0
30230 -30082 -29830 0
-30352 30141 0
-30352 30082 0
30352 -30141 -30082 0
-30233 29526 0
-30233 30085 0
30233 -29526 -30085 0
-30236 29870 0
-30236 30088 0
30236 -29870 -30088 0
-30238 29526 0
-30238 30091 0
30238 -29526 -30091 0
-30243 30094 0
-30243 30138 0
30243 -30094 -30138 0
-30246 30097 0
-30246 29830 0
30246 -30097 -29830 0
-30248 30100 0
-30248 30141 0
30248 -30100 -30141 0
-30253 30103 0
-30253 30138 0
30253 -30103 -30138 0
-30256 30106 0
-30256 29830 0
30256 -30106 -29830 0
-30411 30109 0
-30411 29890 0
30411 -30109 -29890 0
-30350 29830 0
-30350 30112 0
30350 -29830 -30112 0
-30309 29819 0
-30309 30115 0
30309 -29819 -30115 0
-30258 30118 0
-30258 29941 0
30258 -30118 -29941 0
-30261 29845 0
-30261 29941 0
-30261 30121 0
30261 -29845 -29941 -30121 0
-30264 30124 0
-30264 29929 0
30264 -30124 -29929 0
-30384 29789 0
-30384 30127 0
-30384 29941 0
30384 -29789 -30127 -29941 0
-30267 30130 0
-30267 29885 0
30267 -30130 -29885 0
-30270 30133 0
-30270 29885 0
30270 -30133 -29885 0
-30274 30136 0
-30274 29887 0
30274 -30136 -29887 0
-30278 30139 0
-30278 29830 0
30278 -30139 -29830 0
-30281 30142 0
-30281 29941 0
30281 -30142 -29941 0
-30329 29830 0
-30329 30145 0
30329 -29830 -30145 0
-30314 29821 0
-30314 30148 0
30314 -29821 -30148 0
-30287 29941 0
-30287 30153 0
30287 -29941 -30153 0
-30290 30156 0
-30290 29887 0
30290 -30156 -29887 0
-30293 30159 0
-30293 30141 0
30293 -30159 -30141 0
-30298 29821 0
-30298 30162 0
30298 -29821 -30162 0
-30301 30167 0
-30301 29830 0
-30301 30138 0
30301 -30167 -29830 -30138 0
-30357 29789 0
-30357 30170 0
30357 -29789 -30170 0
-30304 29941 0
-30304 30173 0
30304 -29941 -30173 0
-30324 29918 0
-30324 30176 0
30324 -29918 -30176 0
-30382 29845 0
-30382 30179 0
30382 -29845 -30179 0
-30307 30182 0
-30307 30138 0
30307 -30182 -30138 0
-30310 29941 0
-30310 30185 0
30310 -29941 -30185 0
-30313 30189 0
-30313 29941 0
30313 -30189 -29941 0
-30336 30195 0
-30336 29978 0
30336 -30195 -29978 0
-29627 30198 0
-29627 29821 0
-29627 30045 0
29627 -30198 -29821 -30045 0
-30316 29830 0
-30316 29633 0
30316 -29830 -29633 0
-30361 29789 0
-30361 30208 0
30361 -29789 -30208 0
-30341 30211 0
-30341 29830 0
30341 -30211 -29830 0
-29714 30215 0
-29714 29810 0
-29714 29809 0
29714 -30215 -29810 -29809 0
-30345 30218 0
-30345 30045 0
30345 -30218 -30045 0
-29647 30222 0
-29647 29821 0
-29647 29830 0
29647 -30222 -29821 -29830 0
-30401 29789 0
-30401 30225 0
30401 -29789 -30225 0
-30418 30228 0
-30418 30138 0
30418 -30228 -30138 0
-30325 30231 0
-30325 29930 0
30325 -30231 -29930 0
-30347 30234 0
-30347 29887 0
30347 -30234 -29887 0
-30328 30237 0
-30328 30141 0
30328 -30237 -30141 0
-30363 29830 0
-30363 30241 0
30363 -29830 -30241 0
-30331 30244 0
-30331 30138 0
30331 -30244 -30138 0
-30335 29941 0
-30335 30247 0
30335 -29941 -30247 0
-30423 30251 0
-30423 29887 0
30423 -30251 -29887 0
-30342 29918 0
-30342 30254 0
30342 -29918 -30254 0
-30395 29845 0
-30395 30257 0
30395 -29845 -30257 0
-30369 30260 0
-30369 29885 0
30369 -30260 -29885 0
-30386 30263 0
-30386 29789 0
30386 -30263 -29789 0
-30416 29941 0
-30416 30266 0
30416 -29941 -30266 0
-30344 29941 0
-30344 30269 0
30344 -29941 -30269 0
-30349 29941 0
-30349 30272 0
30349 -29941 -30272 0
-30421 30279 0
-30421 29789 0
30421 -30279 -29789 0
-30358 29821 0
-30358 30282 0
30358 -29821 -30282 0
-30412 29789 0
-30412 30286 0
30412 -29789 -30286 0
-30360 30289 0
-30360 30045 0
30360 -30289 -30045 0
-29711 29821 0
-29711 30045 0
-29711 29714 0
29711 -29821 -30045 -29714 0
-29715 30292 0
-29715 30045 0
29715 -30292 -30045 0
-30370 29821 0
-30370 30299 0
30370 -29821 -30299 0
-30396 29789 0
-30396 30302 0
30396 -29789 -30302 0
-30373 29821 0
-30373 30305 0
30373 -29821 -30305 0
-30375 30315 0
-30375 30277 0
30375 -30315 -30277 0
-30378 29821 0
-30378 30318 0
30378 -29821 -30318 0
-30383 30327 0
-30383 29821 0
30383 -30327 -29821 0
-30387 30330 0
-30387 29821 0
30387 -30330 -29821 0
-30391 29821 0
-30391 30333 0
30391 -29821 -30333 0
-30394 30338 0
-30394 29821 0
30394 -30338 -29821 0
-30400 30346 0
-30400 29821 0
30400 -30346 -29821 0
-30403 30351 0
-30403 29821 0
30403 -30351 -29821 0
-30409 30359 0
-30409 29918 0
30409 -30359 -29918 0
-30413 29821 0
-30413 30362 0
30413 -29821 -30362 0
-30415 30371 0
-30415 29830 0
30415 -30371 -29830 0
-30419 30374 0
-30419 30045 0
30419 -30374 -30045 0
-30422 29821 0
-30422 30417 0
30422 -29821 -30417 0
-30435 29767 0
-30435 29783 0
30435 -29767 -29783 0
-30429 29770 0
-30429 29783 0
30429 -29770 -29783 0
-30433 29773 0
-30433 29783 0
30433 -29773 -29783 0
-30425 29776 0
-30425 29783 0
30425 -29776 -29783 0
-30427 29779 0
-30427 29783 0
30427 -29779 -29783 0
-30431 29782 0
-30431 29783 0
30431 -29782 -29783 0
29784 -29785 0
29784 -29810 0
-29784 29785 29810 0
29787 -29918 0
29787 -29789 0
-29787 29918 29789 0
29790 -30141 0
29790 -29887 0
-29790 30141 29887 0
29793 -29887 0
29793 -29885 0
-29793 29887 29885 0
29796 -29848 0
29796 -30320 0
-29796 29848 30320 0
29799 -30141 0
29799 -30320 0
-29799 30141 30320 0
29802 -29845 0
29802 -30320 0
-29802 29845 30320 0
29805 -29806 0
29805 -29809 0
-29805 29806 29809 0
29808 -29809 0
29808 -29810 0
-29808 29809 29810 0
29811 -29812 0
29811 -29819 0
-29811 29812 29819 0
29814 -29819 0
29814 -29887 0
-29814 29819 29887 0
29869 -29818 0
29869 -29819 0
-29869 29818 29819 0
29820 -29821 0
29820 -29887 0
-29820 29821 29887 0
29823 -29830 0
29823 -29887 0
-29823 29830 29887 0
29826 -29830 0
29826 -29885 0
-29826 29830 29885 0
29829 -29830 0
29829 -30138 0
-29829 29830 30138 0
29832 -30138 0
29832 -29918 0
-29832 30138 29918 0
29835 -29848 0
29835 -29930 0
-29835 29848 29930 0
29838 -29930 0
29838 -30141 0
-29838 29930 30141 0
29884 -29930 0
29884 -30320 0
-29884 29930 30320 0
29844 -29845 0
29844 -29930 0
-29844 29845 29930 0
29847 -29848 0
29847 -29978 0
-29847 29848 29978 0
29850 -29930 0
29850 -29978 0
-29850 29930 29978 0
29899 -29978 0
29899 -30320 0
-29899 29978 30320 0
29856 -29978 0
29856 -30045 0
-29856 29978 30045 0
29859 -29930 0
29859 -30045 0
-29859 29930 30045 0
29862 -30141 0
29862 -30045 0
-29862 30141 30045 0
29865 -30141 0
29865 -29867 0
-29865 30141 29867 0
29868 -29869 0
29868 -29870 0
-29868 29869 29870 0
29871 -29872 0
29871 -29885 0
-29871 29872 29885 0
29874 -29875 0
29874 -29876 0
-29874 29875 29876 0
29877 -29878 0
29877 -30320 0
-29877 29878 30320 0
29880 -29881 0
29880 -29882 0
-29880 29881 29882 0
29883 -29884 0
29883 -29885 0
-29883 29884 29885 0
29886 -29887 0
29886 -29888 0
-29886 29887 29888 0
29889 -29890 0
29889 -29891 0
-29889 29890 29891 0
29956 -29893 0
29956 -29894 0
-29956 29893 29894 0
29895 -29899 0
29895 -29897 0
-29895 29899 29897 0
29898 -29899 0
29898 -29900 0
-29898 29899 29900 0
29901 -30141 0
29901 -29903 0
-29901 30141 29903 0
29904 -30048 0
29904 -30138 0
-29904 30048 30138 0
29907 -29908 0
29907 -29909 0
-29907 29908 29909 0
29910 -29911 0
29910 -29912 0
-29910 29911 29912 0
29913 -29914 0
29913 -29915 0
-29913 29914 29915 0
29916 -30277 0
29916 -29918 0
-29916 30277 29918 0
29919 -30320 0
29919 -29921 0
-29919 30320 29921 0
29922 -29923 0
29922 -29924 0
-29922 29923 29924 0
29925 -29926 0
29925 -29927 0
-29925 29926 29927 0
29928 -29929 0
29928 -29930 0
-29928 29929 29930 0
29931 -29932 0
29931 -29933 0
-29931 29932 29933 0
29934 -29935 0
29934 -29936 0
-29934 29935 29936 0
29937 -29938 0
29937 -29978 0
-29937 29938 29978 0
29940 -29941 0
29940 -29942 0
-29940 29941 29942 0
29943 -29944 0
29943 -29945 0
-29943 29944 29945 0
29946 -29947 0
29946 -29948 0
-29946 29947 29948 0
29949 -29950 0
29949 -29951 0
-29949 29950 29951 0
29952 -29953 0
29952 -29954 0
-29952 29953 29954 0
29955 -29956 0
29955 -30141 0
-29955 29956 30141 0
29958 -29959 0
29958 -29960 0
-29958 29959 29960 0
29961 -29968 0
29961 -29963 0
-29961 29968 29963 0
29964 -29968 0
29964 -29966 0
-29964 29968 29966 0
29967 -29968 0
29967 -29969 0
-29967 29968 29969 0
29970 -29971 0
29970 -29972 0
-29970 29971 29972 0
29973 -29974 0
29973 -29975 0
-29973 29974 29975 0
29976 -29983 0
29976 -29978 0
-29976 29983 29978 0
29979 -29983 0
29979 -29981 0
-29979 29983 29981 0
29982 -29983 0
29982 -29984 0
-29982 29983 29984 0
29985 -29986 0
29985 -29987 0
-29985 29986 29987 0
29988 -29989 0
29988 -29990 0
-29988 29989 29990 0
29991 -29992 0
29991 -29993 0
-29991 29992 29993 0
29994 -29995 0
29994 -29996 0
-29994 29995 29996 0
29997 -29998 0
29997 -29999 0
-29997 29998 29999 0
30000 -30001 0
30000 -30002 0
-30000 30001 30002 0
30003 -30004 0
30003 -30005 0
-30003 30004 30005 0
30006 -30007 0
30006 -30008 0
-30006 30007 30008 0
30009 -30010 0
30009 -30011 0
-30009 30010 30011 0
30012 -30013 0
30012 -30014 0
-30012 30013 30014 0
30015 -30016 0
30015 -30017 0
-30015 30016 30017 0
30018 -30019 0
30018 -30020 0
-30018 30019 30020 0
30021 -30022 0
30021 -30023 0
-30021 30022 30023 0
30024 -30025 0
30024 -30026 0
-30024 30025 30026 0
30027 -30028 0
30027 -30029 0
-30027 30028 30029 0
30030 -30031 0
30030 -30032 0
-30030 30031 30032 0
30033 -30034 0
30033 -30035 0
-30033 30034 30035 0
30036 -30229 0
30036 -30141 0
30036 -30039 0
-30036 30229 30141 30039 0
30040 -30041 0
30040 -30042 0
-30040 30041 30042 0
30043 -30044 0
30043 -30045 0
-30043 30044 30045 0
30046 -30047 0
30046 -30048 0
-30046 30047 30048 0
30049 -30050 0
30049 -30051 0
-30049 30050 30051 0
30052 -30053 0
30052 -30054 0
-30052 30053 30054 0
30055 -30056 0
30055 -30057 0
-30055 30056 30057 0
30058 -30059 0
30058 -30060 0
-30058 30059 30060 0
30061 -30062 0
30061 -30063 0
-30061 30062 30063 0
30064 -30065 0
30064 -30066 0
-30064 30065 30066 0
30067 -30068 0
30067 -30069 0
-30067 30068 30069 0
30070 -30071 0
30070 -30072 0
-30070 30071 30072 0
30073 -30074 0
30073 -30075 0
-30073 30074 30075 0
30076 -30077 0
30076 -30078 0
-30076 30077 30078 0
30079 -30080 0
30079 -30081 0
-30079 30080 30081 0
30082 -30083 0
30082 -30084 0
-30082 30083 30084 0
30085 -30086 0
30085 -30087 0
-30085 30086 30087 0
30088 -30089 0
30088 -30090 0
-30088 30089 30090 0
30091 -30092 0
30091 -30093 0
-30091 30092 30093 0
30094 -30095 0
30094 -30096 0
-30094 30095 30096 0
30097 -30229 0
30097 -30099 0
-30097 30229 30099 0
30100 -30101 0
30100 -30102 0
-30100 30101 30102 0
30103 -30104 0
30103 -30105 0
-30103 30104 30105 0
30106 -30107 0
30106 -30141 0
-30106 30107 30141 0
30109 -30110 0
30109 -30111 0
-30109 30110 30111 0
30112 -30113 0
30112 -30114 0
-30112 30113 30114 0
30115 -30116 0
30115 -30117 0
-30115 30116 30117 0
30118 -30119 0
30118 -30120 0
-30118 30119 30120 0
30121 -30122 0
30121 -30123 0
-30121 30122 30123 0
30124 -30125 0
30124 -30126 0
-30124 30125 30126 0
30127 -30128 0
30127 -30129 0
-30127 30128 30129 0
30130 -30131 0
30130 -30132 0
-30130 30131 30132 0
30133 -30134 0
30133 -30135 0
-30133 30134 30135 0
30136 -30137 0
30136 -30138 0
-30136 30137 30138 0
30139 -30140 0
30139 -30141 0
-30139 30140 30141 0
30142 -30143 0
30142 -30144 0
-30142 30143 30144 0
30145 -30146 0
30145 -30147 0
-30145 30146 30147 0
30148 -30149 0
30148 -30150 0
30148 -30151 0
30148 -30152 0
-30148 30149 30150 30151 30152 0
30153 -30154 0
30153 -30155 0
-30153 30154 30155 0
30156 -30157 0
30156 -30158 0
-30156 30157 30158 0
30159 -30160 0
30159 -30161 0
-30159 30160 30161 0
30162 -30163 0
30162 -30164 0
30162 -30320 0
30162 -30166 0
-30162 30163 30164 30320 30166 0
30167 -30168 0
30167 -30169 0
-30167 30168 30169 0
30170 -30171 0
30170 -30172 0
-30170 30171 30172 0
30173 -30174 0
30173 -30175 0
-30173 30174 30175 0
30176 -30177 0
30176 -30178 0
-30176 30177 30178 0
30179 -30180 0
30179 -30181 0
-30179 30180 30181 0
30182 -30183 0
30182 -30184 0
-30182 30183 30184 0
30185 -30186 0
30185 -30187 0
30185 -30188 0
-30185 30186 30187 30188 0
30189 -30190 0
30189 -30191 0
-30189 30190 30191 0
30192 -30193 0
30192 -30194 0
-30192 30193 30194 0
30195 -30196 0
30195 -30197 0
-30195 30196 30197 0
30198 -30199 0
30198 -30200 0
-30198 30199 30200 0
30201 -30202 0
30201 -30203 0
-30201 30202 30203 0
30285 -30205 0
30285 -30206 0
30285 -30207 0
-30285 30205 30206 30207 0
30208 -30209 0
30208 -30210 0
-30208 30209 30210 0
30211 -30212 0
30211 -30213 0
30211 -30214 0
-30211 30212 30213 30214 0
30215 -30216 0
30215 -30217 0
-30215 30216 30217 0
30218 -30219 0
30218 -30220 0
30218 -30221 0
-30218 30219 30220 30221 0
30222 -30223 0
30222 -30224 0
-30222 30223 30224 0
30225 -30226 0
30225 -30227 0
-30225 30226 30227 0
30228 -30229 0
30228 -30230 0
-30228 30229 30230 0
30231 -30232 0
30231 -30233 0
-30231 30232 30233 0
30234 -30235 0
30234 -30236 0
-30234 30235 30236 0
30237 -30238 0
30237 -30239 0
30237 -30240 0
-30237 30238 30239 30240 0
30241 -30242 0
30241 -30243 0
-30241 30242 30243 0
30244 -30245 0
30244 -30246 0
-30244 30245 30246 0
30247 -30248 0
30247 -30249 0
30247 -30250 0
-30247 30248 30249 30250 0
30251 -30252 0
30251 -30253 0
-30251 30252 30253 0
30254 -30255 0
30254 -30256 0
-30254 30255 30256 0
30257 -30258 0
30257 -30259 0
-30257 30258 30259 0
30260 -30261 0
30260 -30262 0
-30260 30261 30262 0
30263 -30264 0
30263 -30265 0
-30263 30264 30265 0
30266 -30267 0
30266 -30268 0
-30266 30267 30268 0
30269 -30270 0
30269 -30271 0
-30269 30270 30271 0
30272 -30273 0
30272 -30274 0
-30272 30273 30274 0
30322 -30276 0
30322 -30277 0
30322 -30278 0
-30322 30276 30277 30278 0
30279 -30280 0
30279 -30281 0
-30279 30280 30281 0
30282 -30283 0
30282 -30284 0
30282 -30285 0
-30282 30283 30284 30285 0
30286 -30287 0
30286 -30288 0
-30286 30287 30288 0
30289 -30290 0
30289 -30291 0
-30289 30290 30291 0
30292 -30293 0
30292 -30294 0
-30292 30293 30294 0
30295 -30296 0
30295 -30297 0
30295 -30298 0
-30295 30296 30297 30298 0
30299 -30300 0
30299 -30301 0
-30299 30300 30301 0
30302 -30303 0
30302 -30304 0
-30302 30303 30304 0
30305 -30306 0
30305 -30307 0
-30305 30306 30307 0
30354 -30309 0
30354 -30310 0
30354 -30311 0
-30354 30309 30310 30311 0
30312 -30313 0
30312 -30314 0
-30312 30313 30314 0
30315 -30316 0
30315 -30317 0
-30315 30316 30317 0
30318 -30319 0
30318 -30320 0
30318 -30321 0
30318 -30322 0
-30318 30319 30320 30321 30322 0
30366 -30324 0
30366 -30325 0
30366 -30326 0
-30366 30324 30325 30326 0
30327 -30328 0
30327 -30329 0
-30327 30328 30329 0
30330 -30331 0
30330 -30332 0
-30330 30331 30332 0
30333 -30334 0
30333 -30335 0
30333 -30336 0
30333 -30337 0
-30333 30334 30335 30336 30337 0
30338 -30339 0
30338 -30340 0
30338 -30341 0
30338 -30342 0
-30338 30339 30340 30341 30342 0
30343 -30344 0
30343 -30345 0
-30343 30344 30345 0
30346 -30347 0
30346 -30348 0
30346 -30349 0
30346 -30350 0
-30346 30347 30348 30349 30350 0
30351 -30352 0
30351 -30353 0
30351 -30354 0
-30351 30352 30353 30354 0
30355 -30356 0
30355 -30357 0
30355 -30358 0
-30355 30356 30357 30358 0
30359 -30360 0
30359 -30361 0
-30359 30360 30361 0
30362 -30363 0
30362 -30364 0
30362 -30365 0
30362 -30366 0
-30362 30363 30364 30365 30366 0
30367 -30368 0
30367 -30369 0
30367 -30370 0
-30367 30368 30369 30370 0
30371 -30372 0
30371 -30373 0
-30371 30372 30373 0
30374 -30375 0
30374 -30376 0
-30374 30375 30376 0
30377 -30378 0
30377 -30379 0
30377 -30380 0
-30377 30378 30379 30380 0
30381 -30382 0
30381 -30383 0
30381 -30384 0
-30381 30382 30383 30384 0
30385 -30386 0
30385 -30387 0
-30385 30386 30387 0
30388 -30389 0
30388 -30390 0
30388 -30391 0
-30388 30389 30390 30391 0
30392 -30393 0
30392 -30394 0
30392 -30395 0
30392 -30396 0
-30392 30393 30394 30395 30396 0
30397 -30398 0
30397 -30399 0
30397 -30400 0
30397 -30401 0
-30397 30398 30399 30400 30401 0
30402 -30403 0
30402 -30404 0
30402 -30405 0
30402 -30406 0
-30402 30403 30404 30405 30406 0
30407 -30408 0
30407 -30409 0
-30407 30408 30409 0
30410 -30411 0
30410 -30412 0
30410 -30413 0
-30410 30411 30412 30413 0
30414 -30415 0
30414 -30416 0
-30414 30415 30416 0
30417 -30418 0
30417 -30419 0
-30417 30418 30419 0
30420 -30421 0
30420 -30422 0
30420 -30423 0
-30420 30421 30422 30423 0
-30425 32334 0
30425 -32334 0
-30427 31899 0
30427 -31899 0
-30429 31901 0
30429 -31901 0
-30431 32155 0
30431 -32155 0
-30433 31955 0
30433 -31955 0
-30435 31803 0
30435 -31803 0
31884 31862 0
-31884 -31862 0
31540 31832 0
-31540 -31832 0
31859 31932 0
-31859 -31932 0
31826 31500 0
-31826 -31500 0
31820 31824 0
-31820 -31824 0
31823 31799 0
-31823 -31799 0
31833 31281 0
-31833 -31281 0
31835 31803 0
-31835 -31803 0
31844 31955 0
-31844 -31955 0
32152 32155 0
-32152 -32155 0
31944 31901 0
-31944 -31901 0
31992 31899 0
-31992 -31899 0
32059 32334 0
-32059 -32334 0
32290 31798 0
-32290 -31798 0
30467 32155 0
-30467 -32155 0
31902 30467 0
-31902 -30467 0
31904 31804 0
-31904 -31804 0
30473 31932 0
-30473 -31932 0
30866 30473 0
-30866 -30473 0
32062 31807 0
-32062 -31807 0
30479 31944 0
-30479 -31944 0
31929 30479 0
-31929 -30479 0
31495 31813 0
-31495 -31813 0
31329 31816 0
-31329 -31816 0
32291 31819 0
-32291 -31819 0
30489 31819 0
-30489 -31819 0
31983 30489 0
-31983 -30489 0
31356 31825 0
-31356 -31825 0
31221 31883 0
-31221 -31883 0
30984 31834 0
-30984 -31834 0
31940 31837 0
-31940 -31837 0
31943 31840 0
-31943 -31840 0
31357 31843 0
-31357 -31843 0
31949 31846 0
-31949 -31846 0
31952 31849 0
-31952 -31849 0
32012 31852 0
-32012 -31852 0
31057 31898 0
-31057 -31898 0
31238 31858 0
-31238 -31858 0
31967 31861 0
-31967 -31861 0
31111 31864 0
-31111 -31864 0
31315 31913 0
-31315 -31913 0
31982 31870 0
-31982 -31870 0
32163 31873 0
-32163 -31873 0
31997 31876 0
-31997 -31876 0
30527 31899 0
-30527 -31899 0
31323 30527 0
-31323 -30527 0
32243 31897 0
-32243 -31897 0
30533 30738 0
-30533 -30738 0
31372 30533 0
-31372 -30533 0
30537 30975 0
-30537 -30975 0
31426 30537 0
-31426 -30537 0
32154 31951 0
-32154 -31951 0
30540 31231 0
-30540 -31231 0
30542 31440 0
-30542 -31440 0
31647 32153 0
-31647 -32153 0
30546 31520 0
-30546 -31520 0
30548 32206 0
-30548 -32206 0
30550 32215 0
-30550 -32215 0
30552 31641 0
-30552 -31641 0
30554 32309 0
-30554 -32309 0
30556 31661 0
-30556 -31661 0
30558 32326 0
-30558 -32326 0
30560 31725 0
-30560 -31725 0
30562 31729 0
-30562 -31729 0
30564 32357 0
-30564 -32357 0
30566 32369 0
-30566 -32369 0
30568 32381 0
-30568 -32381 0
30570 32391 0
-30570 -32391 0
30589 32395 0
-30589 -32395 0
30574 32399 0
-30574 -32399 0
30591 32402 0
-30591 -32402 0
30593 32406 0
-30593 -32406 0
30597 32411 0
-30597 -32411 0
30599 32416 0
-30599 -32416 0
30584 32421 0
-30584 -32421 0
30601 32424 0
-30601 -32424 0
31781 30589 0
-31781 -30589 0
31784 30591 0
-31784 -30591 0
31787 30593 0
-31787 -30593 0
30594 32428 0
-30594 -32428 0
31790 30597 0
-31790 -30597 0
31793 30599 0
-31793 -30599 0
31796 30601 0
-31796 -30601 0
30602 32434 0
-30602 -32434 0
-31895 32155 0
-31895 31901 0
31895 -32155 -31901 0
-31905 32155 0
-31905 31901 0
31905 -32155 -31901 0
-31946 31955 0
-31946 32155 0
-31946 31901 0
31946 -31955 -32155 -31901 0
-31922 31955 0
-31922 31899 0
31922 -31955 -31899 0
-31907 31862 0
-31907 31899 0
31907 -31862 -31899 0
-32007 31862 0
-32007 31899 0
32007 -31862 -31899 0
-31937 31932 0
-31937 31899 0
31937 -31932 -31899 0
-32171 32155 0
-32171 31899 0
32171 -32155 -31899 0
-31881 31832 0
-31881 32334 0
31881 -31832 -32334 0
-31886 31826 0
-31886 31833 0
31886 -31826 -31833 0
-31235 31500 0
-31235 31835 0
-31235 31901 0
31235 -31500 -31835 -31901 0
-31890 31862 0
-31890 31844 0
-31890 31899 0
31890 -31862 -31844 -31899 0
-31925 31833 0
-31925 31835 0
-31925 31844 0
-31925 32334 0
31925 -31833 -31835 -31844 -32334 0
-31950 31844 0
-31950 31899 0
31950 -31844 -31899 0
-32025 31844 0
-32025 32155 0
-32025 32334 0
32025 -31844 -32155 -32334 0
-31941 31844 0
-31941 32155 0
-31941 31901 0
31941 -31844 -32155 -31901 0
-30878 31832 0
-30878 31281 0
-30878 31835 0
-30878 31844 0
30878 -31832 -31281 -31835 -31844 0
-31889 31859 0
-31889 31955 0
-31889 32152 0
31889 -31859 -31955 -32152 0
-31892 32152 0
-31892 31899 0
31892 -32152 -31899 0
-31911 31826 0
-31911 32152 0
31911 -31826 -32152 0
-32034 31835 0
-32034 31844 0
-32034 32152 0
32034 -31835 -31844 -32152 0
-31239 31803 0
-31239 31955 0
-31239 32152 0
31239 -31803 -31955 -32152 0
-31896 31844 0
-31896 31944 0
31896 -31844 -31944 0
-32010 31832 0
-32010 31944 0
-32010 32334 0
32010 -31832 -31944 -32334 0
-32043 31844 0
-32043 31944 0
-32043 31899 0
32043 -31844 -31944 -31899 0
-32031 31944 0
-32031 32334 0
32031 -31944 -32334 0
-32065 31540 0
-32065 32155 0
-32065 31944 0
32065 -31540 -32155 -31944 0
-31914 31844 0
-31914 31944 0
31914 -31844 -31944 0
-32305 31955 0
-32305 31899 0
-32305 31804 0
32305 -31955 -31899 -31804 0
-31908 31901 0
-31908 31992 0
31908 -31901 -31992 0
-31917 31281 0
-31917 31992 0
31917 -31281 -31992 0
-30974 31835 0
-30974 32155 0
-30974 31992 0
30974 -31835 -32155 -31992 0
-31968 32152 0
-31968 31992 0
31968 -32152 -31992 0
-32004 31844 0
-32004 31992 0
32004 -31844 -31992 0
-32098 31901 0
-32098 31992 0
32098 -31901 -31992 0
-31998 32155 0
-31998 31992 0
31998 -32155 -31992 0
-32016 31901 0
-32016 31992 0
32016 -31901 -31992 0
-31964 31901 0
-31964 31992 0
31964 -31901 -31992 0
-32333 31901 0
-32333 31992 0
32333 -31901 -31992 0
-30738 31955 0
-30738 31807 0
30738 -31955 -31807 0
-32019 31807 0
-32019 32334 0
32019 -31807 -32334 0
-31923 31835 0
-31923 32059 0
31923 -31835 -32059 0
-31926 31955 0
-31926 32059 0
31926 -31955 -32059 0
-32095 31835 0
-32095 32155 0
-32095 31944 0
-32095 32059 0
32095 -31835 -32155 -31944 -32059 0
-32101 31844 0
-32101 32155 0
-32101 31992 0
-32101 32059 0
32101 -31844 -32155 -31992 -32059 0
-31977 31844 0
-31977 31992 0
-31977 32059 0
31977 -31844 -31992 -32059 0
-32131 31844 0
-32131 32155 0
-32131 31944 0
-32131 32059 0
32131 -31844 -32155 -31944 -32059 0
-31980 31823 0
-31980 31992 0
-31980 32059 0
31980 -31823 -31992 -32059 0
-32107 31844 0
-32107 31992 0
-32107 32059 0
32107 -31844 -31992 -32059 0
-31995 31500 0
-31995 31944 0
-31995 32059 0
31995 -31500 -31944 -32059 0
-31989 31944 0
-31989 32059 0
31989 -31944 -32059 0
-32140 31804 0
-32140 32059 0
32140 -31804 -32059 0
-32001 31844 0
-32001 32155 0
-32001 31992 0
-32001 32059 0
32001 -31844 -32155 -31992 -32059 0
-31986 31992 0
-31986 32059 0
31986 -31992 -32059 0
-32149 31801 0
-32149 32059 0
-32149 31804 0
32149 -31801 -32059 -31804 0
-32116 31833 0
-32116 31992 0
-32116 32059 0
32116 -31833 -31992 -32059 0
-32169 32059 0
-32169 31807 0
32169 -32059 -31807 0
-32282 31803 0
-32282 32059 0
32282 -31803 -32059 0
-32053 31810 0
-32053 31899 0
32053 -31810 -31899 0
-31928 31816 0
-31928 31992 0
31928 -31816 -31992 0
-31935 31944 0
-31935 31822 0
31935 -31944 -31822 0
-31938 31825 0
-31938 31992 0
31938 -31825 -31992 0
-31959 31828 0
-31959 31992 0
-31959 32059 0
31959 -31828 -31992 -32059 0
-32137 31834 0
-32137 31823 0
-32137 32155 0
-32137 32059 0
32137 -31834 -31823 -32155 -32059 0
-31947 31843 0
-31947 31944 0
31947 -31843 -31944 0
-31962 31899 0
-31962 31846 0
31962 -31899 -31846 0
-31956 31852 0
-31956 31899 0
31956 -31852 -31899 0
-32056 31955 0
-32056 31898 0
32056 -31955 -31898 0
-31958 31899 0
-31958 31898 0
31958 -31899 -31898 0
-31961 31858 0
-31961 31992 0
31961 -31858 -31992 0
-31965 31899 0
-31965 31858 0
31965 -31899 -31858 0
-32049 31833 0
-32049 31844 0
-32049 32334 0
-32049 31904 0
32049 -31833 -31844 -32334 -31904 0
-32354 31955 0
-32354 32059 0
-32354 31904 0
32354 -31955 -32059 -31904 0
-31974 32155 0
-31974 32334 0
-31974 31864 0
31974 -32155 -32334 -31864 0
-32335 31955 0
-32335 30866 0
32335 -31955 -30866 0
-32221 32155 0
-32221 31913 0
32221 -32155 -31913 0
-32080 31281 0
-32080 32334 0
-32080 32062 0
32080 -31281 -32334 -32062 0
-32071 32155 0
-32071 32059 0
-32071 32062 0
-32071 30878 0
32071 -32155 -32059 -32062 -30878 0
-32074 31844 0
-32074 32152 0
-32074 32062 0
32074 -31844 -32152 -32062 0
-32143 32155 0
-32143 32062 0
32143 -32155 -32062 0
-31973 31500 0
-31973 32059 0
-31973 32062 0
31973 -31500 -32059 -32062 0
-32256 31833 0
-32256 32155 0
-32256 32059 0
-32256 32062 0
32256 -31833 -32155 -32059 -32062 0
-32204 32155 0
-32204 32334 0
-32204 32062 0
32204 -32155 -32334 -32062 0
-31199 31835 0
-31199 31844 0
-31199 32062 0
31199 -31835 -31844 -32062 0
-31985 31870 0
-31985 32152 0
31985 -31870 -32152 0
-32158 31904 0
-32158 31870 0
32158 -31904 -31870 0
-31988 31873 0
-31988 32152 0
31988 -31873 -32152 0
-32046 31876 0
-32046 31944 0
32046 -31876 -31944 0
-32021 31844 0
-32021 31901 0
-32021 31495 0
32021 -31844 -31901 -31495 0
-32249 31992 0
-32249 31495 0
32249 -31992 -31495 0
-32412 31955 0
-32412 31901 0
-32412 31495 0
32412 -31955 -31901 -31495 0
-32000 31879 0
-32000 31955 0
-32000 31899 0
32000 -31879 -31955 -31899 0
-32146 31329 0
-32146 31804 0
32146 -31329 -31804 0
-32003 31955 0
-32003 31899 0
-32003 32291 0
32003 -31955 -31899 -32291 0
-32028 31844 0
-32028 32152 0
-32028 31992 0
-32028 32291 0
32028 -31844 -32152 -31992 -32291 0
-32006 31944 0
-32006 32291 0
32006 -31944 -32291 0
-32009 31955 0
-32009 32059 0
-32009 32291 0
32009 -31955 -32059 -32291 0
-32013 32155 0
-32013 32291 0
32013 -32155 -32291 0
-32103 31495 0
-32103 32291 0
32103 -31495 -32291 0
-32213 31844 0
-32213 32152 0
-32213 32062 0
-32213 32291 0
32213 -31844 -32152 -32062 -32291 0
-32246 31992 0
-32246 31495 0
-32246 32291 0
32246 -31992 -31495 -32291 0
-32210 32059 0
-32210 31904 0
-32210 32291 0
32210 -32059 -31904 -32291 0
-32177 31840 0
-32177 32291 0
32177 -31840 -32291 0
-32091 32059 0
-32091 31356 0
-32091 30974 0
32091 -32059 -31356 -30974 0
-30975 31500 0
-30975 32334 0
-30975 31882 0
30975 -31500 -32334 -31882 0
-32015 31885 0
-32015 31944 0
32015 -31885 -31944 0
-32018 32059 0
-32018 30984 0
32018 -32059 -30984 0
-32022 32155 0
-32022 31899 0
-32022 31940 0
32022 -32155 -31899 -31940 0
-32068 31859 0
-32068 31803 0
-32068 31940 0
32068 -31859 -31803 -31940 0
-32024 31859 0
-32024 32059 0
-32024 31943 0
32024 -31859 -32059 -31943 0
-32082 32334 0
-32082 31943 0
32082 -32334 -31943 0
-32124 32059 0
-32124 31943 0
32124 -32059 -31943 0
-32085 31813 0
-32085 31943 0
32085 -31813 -31943 0
-32027 31932 0
-32027 31357 0
32027 -31932 -31357 0
-32030 32059 0
-32030 31357 0
32030 -32059 -31357 0
-32033 31899 0
-32033 31357 0
32033 -31899 -31357 0
-32037 31955 0
-32037 31949 0
32037 -31955 -31949 0
-32040 31955 0
-32040 31899 0
-32040 31949 0
32040 -31955 -31899 -31949 0
-32230 31955 0
-32230 31899 0
-32230 31949 0
32230 -31955 -31899 -31949 0
-32331 31955 0
-32331 31899 0
-32331 31949 0
32331 -31955 -31899 -31949 0
-32308 31835 0
-32308 31901 0
-32308 31888 0
32308 -31835 -31901 -31888 0
-32297 31944 0
-32297 31891 0
32297 -31944 -31891 0
-32036 31844 0
-32036 32152 0
-32036 31952 0
32036 -31844 -32152 -31952 0
-32039 31844 0
-32039 32152 0
-32039 31952 0
32039 -31844 -32152 -31952 0
-32042 31943 0
-32042 32012 0
32042 -31943 -32012 0
-32045 32334 0
-32045 32012 0
32045 -32334 -32012 0
-32048 31281 0
-32048 31057 0
-32048 31357 0
32048 -31281 -31057 -31357 0
-32109 31861 0
-32109 31057 0
32109 -31861 -31057 0
-32227 31897 0
-32227 32155 0
32227 -31897 -32155 0
-32055 32059 0
-32055 31238 0
32055 -32059 -31238 0
-32076 31992 0
-32076 31238 0
32076 -31992 -31238 0
-32259 31992 0
-32259 32059 0
-32259 31238 0
32259 -31992 -32059 -31238 0
-32390 31900 0
-32390 31932 0
-32390 31955 0
-32390 31899 0
32390 -31900 -31932 -31955 -31899 0
-32235 31903 0
-32235 31844 0
-32235 31899 0
32235 -31903 -31844 -31899 0
-32058 32152 0
-32058 31111 0
32058 -32152 -31111 0
-32061 31884 0
-32061 31111 0
32061 -31884 -31111 0
-32127 32155 0
-32127 31111 0
32127 -32155 -31111 0
-32064 32152 0
-32064 31111 0
32064 -32152 -31111 0
-32067 31823 0
-32067 31835 0
-32067 31844 0
-32067 31111 0
32067 -31823 -31835 -31844 -31111 0
-32070 31955 0
-32070 32152 0
-32070 31111 0
32070 -31955 -32152 -31111 0
-32073 31862 0
-32073 31883 0
-32073 31955 0
-32073 31111 0
32073 -31862 -31883 -31955 -31111 0
-32088 32152 0
-32088 31111 0
32088 -32152 -31111 0
-32174 31844 0
-32174 31111 0
32174 -31844 -31111 0
-32077 31970 0
-32077 31844 0
32077 -31970 -31844 0
-32079 31862 0
-32079 31901 0
-32079 31315 0
32079 -31862 -31901 -31315 0
-32083 31844 0
-32083 32155 0
-32083 31315 0
32083 -31844 -32155 -31315 0
-32134 31901 0
-32134 31315 0
32134 -31901 -31315 0
-32086 31844 0
-32086 31315 0
32086 -31844 -31315 0
-32223 31944 0
-32223 31315 0
32223 -31944 -31315 0
-32188 31901 0
-32188 31315 0
32188 -31901 -31315 0
-32279 31837 0
-32279 32155 0
-32279 31315 0
32279 -31837 -32155 -31315 0
-32240 32155 0
-32240 31901 0
-32240 31315 0
32240 -32155 -31901 -31315 0
-32185 31844 0
-32185 31944 0
-32185 31315 0
32185 -31844 -31944 -31315 0
-32266 31832 0
-32266 32155 0
-32266 31315 0
32266 -31832 -32155 -31315 0
-32160 32152 0
-32160 31315 0
-32160 32291 0
-32160 31952 0
32160 -32152 -31315 -32291 -31952 0
-32294 31844 0
-32294 31944 0
-32294 31315 0
32294 -31844 -31944 -31315 0
-32320 32155 0
-32320 31901 0
-32320 31315 0
32320 -32155 -31901 -31315 0
-32302 31315 0
-32302 31852 0
32302 -31315 -31852 0
-32287 32155 0
-32287 31944 0
-32287 31315 0
32287 -32155 -31944 -31315 0
-32310 31844 0
-32310 31944 0
-32310 31315 0
32310 -31844 -31944 -31315 0
-32317 31894 0
-32317 31315 0
32317 -31894 -31315 0
-32386 31904 0
-32386 31315 0
32386 -31904 -31315 0
-32200 31909 0
-32200 31944 0
32200 -31909 -31944 0
-32166 32155 0
-32166 31912 0
32166 -32155 -31912 0
-32089 31915 0
-32089 31944 0
32089 -31915 -31944 0
-32311 31918 0
-32311 31955 0
32311 -31918 -31955 0
-32393 31955 0
-32393 31918 0
32393 -31955 -31918 0
-32422 31495 0
-32422 32291 0
-32422 31199 0
32422 -31495 -32291 -31199 0
-32092 31932 0
-32092 31803 0
-32092 32152 0
-32092 31982 0
32092 -31932 -31803 -32152 -31982 0
-32094 31803 0
-32094 31955 0
-32094 31982 0
-32094 32012 0
32094 -31803 -31955 -31982 -32012 0
-32097 31944 0
-32097 31982 0
32097 -31944 -31982 0
-32100 31859 0
-32100 31955 0
-32100 31982 0
32100 -31859 -31955 -31982 0
-32104 31500 0
-32104 31955 0
-32104 31982 0
-32104 31221 0
32104 -31500 -31955 -31982 -31221 0
-32106 31281 0
-32106 31982 0
32106 -31281 -31982 0
-32110 31944 0
-32110 31982 0
32110 -31944 -31982 0
-32118 31955 0
-32118 31982 0
32118 -31955 -31982 0
-31231 31982 0
-31231 31357 0
-31231 31883 0
-31231 31235 0
31231 -31982 -31357 -31883 -31235 0
-32216 31982 0
-32216 31238 0
-32216 31239 0
32216 -31982 -31238 -31239 0
-32113 31944 0
-32113 31982 0
32113 -31944 -31982 0
-32237 32155 0
-32237 31901 0
-32237 31982 0
32237 -32155 -31901 -31982 0
-32269 31540 0
-32269 31944 0
-32269 31982 0
32269 -31540 -31944 -31982 0
-32115 31882 0
-32115 31500 0
-32115 31982 0
32115 -31882 -31500 -31982 0
-32353 32155 0
-32353 31982 0
32353 -32155 -31982 0
-32119 31540 0
-32119 31921 0
32119 -31540 -31921 0
-32121 31826 0
-32121 32163 0
32121 -31826 -32163 0
-32197 31992 0
-32197 32163 0
32197 -31992 -32163 0
-32182 31992 0
-32182 32163 0
32182 -31992 -32163 0
-32379 32155 0
-32379 31992 0
-32379 32163 0
32379 -32155 -31992 -32163 0
-32325 31992 0
-32325 32163 0
32325 -31992 -32163 0
-32125 31826 0
-32125 31924 0
32125 -31826 -31924 0
-32128 31281 0
-32128 32062 0
-32128 31997 0
32128 -31281 -32062 -31997 0
-32130 31992 0
-32130 31997 0
32130 -31992 -31997 0
-32133 31803 0
-32133 31997 0
32133 -31803 -31997 0
-32136 31803 0
-32136 31901 0
-32136 31997 0
32136 -31803 -31901 -31997 0
-32139 31944 0
-32139 31997 0
32139 -31944 -31997 0
-32142 31864 0
-32142 31997 0
32142 -31864 -31997 0
-32145 31901 0
-32145 31997 0
32145 -31901 -31997 0
-32148 31901 0
-32148 31997 0
32148 -31901 -31997 0
-32194 31803 0
-32194 31955 0
-32194 31997 0
32194 -31803 -31955 -31997 0
-32263 31927 0
-32263 32152 0
32263 -31927 -32152 0
-32151 31930 0
-32151 31315 0
32151 -31930 -31315 0
-32164 31933 0
-32164 31992 0
32164 -31933 -31992 0
-32180 31955 0
-32180 31936 0
32180 -31955 -31936 0
-32404 31323 0
-32404 31803 0
-32404 32155 0
-32404 32059 0
32404 -31323 -31803 -32155 -32059 0
-32348 31939 0
-32348 31329 0
32348 -31939 -31329 0
-32254 31942 0
-32254 32334 0
32254 -31942 -32334 0
-32276 31803 0
-32276 32059 0
-32276 31945 0
32276 -31803 -32059 -31945 0
-32298 31948 0
-32298 31822 0
32298 -31948 -31822 0
-32394 31803 0
-32394 32059 0
-32394 31954 0
32394 -31803 -32059 -31954 0
-32157 32155 0
-32157 32243 0
32157 -32155 -32243 0
-32207 31803 0
-32207 32243 0
-32207 31357 0
32207 -31803 -32243 -31357 0
-32191 32152 0
-32191 32243 0
32191 -32152 -32243 0
-32314 32243 0
-32314 31356 0
-32314 31357 0
32314 -32243 -31356 -31357 0
-32161 31957 0
-32161 32155 0
32161 -31957 -32155 0
-32165 31955 0
-32165 31960 0
32165 -31955 -31960 0
-32168 32152 0
-32168 31963 0
32168 -32152 -31963 0
-32172 31835 0
-32172 31966 0
32172 -31835 -31966 0
-32175 31803 0
-32175 31372 0
32175 -31803 -31372 0
-32178 31969 0
-32178 31844 0
32178 -31969 -31844 0
-32340 31955 0
-32340 31972 0
32340 -31955 -31972 0
-32253 31826 0
-32253 31975 0
32253 -31826 -31975 0
-32183 31978 0
-32183 31944 0
32183 -31978 -31944 0
-32264 31981 0
-32264 31944 0
32264 -31981 -31944 0
-32186 31984 0
-32186 31955 0
-32186 31901 0
32186 -31984 -31955 -31901 0
-32285 31987 0
-32285 31803 0
-32285 31992 0
32285 -31987 -31803 -31992 0
-32189 31990 0
-32189 31944 0
32189 -31990 -31944 0
-32407 31993 0
-32407 31943 0
32407 -31993 -31943 0
-32370 31996 0
-32370 31940 0
32370 -31996 -31940 0
-32192 31999 0
-32192 31944 0
32192 -31999 -31944 0
-32195 32002 0
-32195 31835 0
-32195 32155 0
-32195 32059 0
32195 -32002 -31835 -32155 -32059 0
-32198 32005 0
-32198 32059 0
32198 -32005 -32059 0
-32273 31835 0
-32273 31899 0
-32273 32008 0
32273 -31835 -31899 -32008 0
-32201 31859 0
-32201 32059 0
-32201 32011 0
32201 -31859 -32059 -32011 0
-32202 32155 0
-32202 31426 0
32202 -32155 -31426 0
-32228 32014 0
-32228 32334 0
32228 -32014 -32334 0
-32205 32017 0
-32205 32152 0
32205 -32017 -32152 0
-32378 32020 0
-32378 31819 0
32378 -32020 -31819 0
-32208 32023 0
-32208 31835 0
-32208 31944 0
32208 -32023 -31835 -31944 0
-31440 32026 0
-31440 31835 0
-31440 31944 0
-31440 32059 0
31440 -32026 -31835 -31944 -32059 0
-32211 31826 0
-32211 32029 0
32211 -31826 -32029 0
-32233 32032 0
-32233 32291 0
32233 -32032 -32291 0
-32214 32035 0
-32214 31798 0
-32214 31899 0
32214 -32035 -31798 -31899 0
-32346 31822 0
-32346 32038 0
-32346 32059 0
32346 -31822 -32038 -32059 0
-32420 31803 0
-32420 32059 0
-32420 32041 0
32420 -31803 -32059 -32041 0
-32403 32044 0
-32403 31943 0
32403 -32044 -31943 0
-32217 32047 0
-32217 31500 0
-32217 31835 0
-32217 31992 0
32217 -32047 -31500 -31835 -31992 0
-32220 31844 0
-32220 32050 0
32220 -31844 -32050 0
-32219 32054 0
-32219 31992 0
32219 -32054 -31992 0
-32224 32057 0
-32224 31955 0
32224 -32057 -31955 0
-32226 32059 0
-32226 32060 0
-32226 32291 0
32226 -32059 -32060 -32291 0
-32231 31844 0
-32231 32152 0
-32231 32060 0
32231 -31844 -32152 -32060 0
-32367 31844 0
-32367 32059 0
-32367 32063 0
32367 -31844 -32059 -32063 0
-32382 31884 0
-32382 32066 0
-32382 31495 0
32382 -31884 -32066 -31495 0
-32413 31859 0
-32413 32069 0
32413 -31859 -32069 0
-32362 31500 0
-32362 32072 0
-32362 32334 0
32362 -31500 -32072 -32334 0
-32234 31835 0
-32234 32075 0
-32234 32152 0
32234 -31835 -32075 -32152 0
-32238 32078 0
-32238 32152 0
32238 -32078 -32152 0
-32418 32081 0
-32418 31944 0
32418 -32081 -31944 0
-32241 32084 0
-32241 31944 0
32241 -32084 -31944 0
-32351 31844 0
-32351 32334 0
-32351 32087 0
32351 -31844 -32334 -32087 0
-31520 32090 0
-31520 31955 0
-31520 31901 0
31520 -32090 -31955 -31901 0
-32419 31932 0
-32419 32093 0
32419 -31932 -32093 0
-32244 32096 0
-32244 31844 0
32244 -32096 -31844 0
-32366 32155 0
-32366 32096 0
32366 -32155 -32096 0
-32247 31540 0
-32247 32099 0
32247 -31540 -32099 0
-32250 31884 0
-32250 32102 0
32250 -31884 -32102 0
-32252 31540 0
-32252 32105 0
32252 -31540 -32105 0
-32257 32108 0
-32257 32152 0
32257 -32108 -32152 0
-32260 32111 0
-32260 31844 0
32260 -32111 -31844 0
-32262 32114 0
-32262 32155 0
32262 -32114 -32155 0
-32267 32117 0
-32267 32152 0
32267 -32117 -32152 0
-32270 32120 0
-32270 31844 0
32270 -32120 -31844 0
-32425 32123 0
-32425 31904 0
32425 -32123 -31904 0
-32364 31844 0
-32364 32126 0
32364 -31844 -32126 0
-32323 31833 0
-32323 32129 0
32323 -31833 -32129 0
-32272 32132 0
-32272 31955 0
32272 -32132 -31955 0
-32275 31859 0
-32275 31955 0
-32275 32135 0
32275 -31859 -31955 -32135 0
-32278 32138 0
-32278 31943 0
32278 -32138 -31943 0
-32398 31803 0
-32398 32141 0
-32398 31955 0
32398 -31803 -32141 -31955 0
-32281 32144 0
-32281 31899 0
32281 -32144 -31899 0
-32284 32147 0
-32284 31899 0
32284 -32147 -31899 0
-32288 32150 0
-32288 31901 0
32288 -32150 -31901 0
-32292 32153 0
-32292 31844 0
32292 -32153 -31844 0
-32295 32156 0
-32295 31955 0
32295 -32156 -31955 0
-32343 31844 0
-32343 32159 0
32343 -31844 -32159 0
-32328 31835 0
-32328 32162 0
32328 -31835 -32162 0
-32301 31955 0
-32301 32167 0
32301 -31955 -32167 0
-32304 32170 0
-32304 31901 0
32304 -32170 -31901 0
-32307 32173 0
-32307 32155 0
32307 -32173 -32155 0
-32312 31835 0
-32312 32176 0
32312 -31835 -32176 0
-32315 32181 0
-32315 31844 0
-32315 32152 0
32315 -32181 -31844 -32152 0
-32371 31803 0
-32371 32184 0
32371 -31803 -32184 0
-32318 31955 0
-32318 32187 0
32318 -31955 -32187 0
-32338 31932 0
-32338 32190 0
32338 -31932 -32190 0
-32396 31859 0
-32396 32193 0
32396 -31859 -32193 0
-32321 32196 0
-32321 32152 0
32321 -32196 -32152 0
-32324 31955 0
-32324 32199 0
32324 -31955 -32199 0
-32327 32203 0
-32327 31955 0
32327 -32203 -31955 0
-32350 32209 0
-32350 31992 0
32350 -32209 -31992 0
-31641 32212 0
-31641 31835 0
-31641 32059 0
31641 -32212 -31835 -32059 0
-32330 31844 0
-32330 31647 0
32330 -31844 -31647 0
-32375 31803 0
-32375 32222 0
32375 -31803 -32222 0
-32355 32225 0
-32355 31844 0
32355 -32225 -31844 0
-31728 32229 0
-31728 31824 0
-31728 31823 0
31728 -32229 -31824 -31823 0
-32359 32232 0
-32359 32059 0
32359 -32232 -32059 0
-31661 32236 0
-31661 31835 0
-31661 31844 0
31661 -32236 -31835 -31844 0
-32415 31803 0
-32415 32239 0
32415 -31803 -32239 0
-32432 32242 0
-32432 32152 0
32432 -32242 -32152 0
-32339 32245 0
-32339 31944 0
32339 -32245 -31944 0
-32361 32248 0
-32361 31901 0
32361 -32248 -31901 0
-32342 32251 0
-32342 32155 0
32342 -32251 -32155 0
-32377 31844 0
-32377 32255 0
32377 -31844 -32255 0
-32345 32258 0
-32345 32152 0
32345 -32258 -32152 0
-32349 31955 0
-32349 32261 0
32349 -31955 -32261 0
-32437 32265 0
-32437 31901 0
32437 -32265 -31901 0
-32356 31932 0
-32356 32268 0
32356 -31932 -32268 0
-32409 31859 0
-32409 32271 0
32409 -31859 -32271 0
-32383 32274 0
-32383 31899 0
32383 -32274 -31899 0
-32400 32277 0
-32400 31803 0
32400 -32277 -31803 0
-32430 31955 0
-32430 32280 0
32430 -31955 -32280 0
-32358 31955 0
-32358 32283 0
32358 -31955 -32283 0
-32363 31955 0
-32363 32286 0
32363 -31955 -32286 0
-32435 32293 0
-32435 31803 0
32435 -32293 -31803 0
-32372 31835 0
-32372 32296 0
32372 -31835 -32296 0
-32426 31803 0
-32426 32300 0
32426 -31803 -32300 0
-32374 32303 0
-32374 32059 0
32374 -32303 -32059 0
-31725 31835 0
-31725 32059 0
-31725 31728 0
31725 -31835 -32059 -31728 0
-31729 32306 0
-31729 32059 0
31729 -32306 -32059 0
-32384 31835 0
-32384 32313 0
32384 -31835 -32313 0
-32410 31803 0
-32410 32316 0
32410 -31803 -32316 0
-32387 31835 0
-32387 32319 0
32387 -31835 -32319 0
-32389 32329 0
-32389 32291 0
32389 -32329 -32291 0
-32392 31835 0
-32392 32332 0
32392 -31835 -32332 0
-32397 32341 0
-32397 31835 0
32397 -32341 -31835 0
-32401 32344 0
-32401 31835 0
32401 -32344 -31835 0
-32405 31835 0
-32405 32347 0
32405 -31835 -32347 0
-32408 32352 0
-32408 31835 0
32408 -32352 -31835 0
-32414 32360 0
-32414 31835 0
32414 -32360 -31835 0
-32417 32365 0
-32417 31835 0
32417 -32365 -31835 0
-32423 32373 0
-32423 31932 0
32423 -32373 -31932 0
-32427 31835 0
-32427 32376 0
32427 -31835 -32376 0
-32429 32385 0
-32429 31844 0
32429 -32385 -31844 0
-32433 32388 0
-32433 32059 0
32433 -32388 -32059 0
-32436 31835 0
-32436 32431 0
32436 -31835 -32431 0
-32449 31781 0
-32449 31797 0
32449 -31781 -31797 0
-32443 31784 0
-32443 31797 0
32443 -31784 -31797 0
-32447 31787 0
-32447 31797 0
32447 -31787 -31797 0
-32439 31790 0
-32439 31797 0
32439 -31790 -31797 0
-32441 31793 0
-32441 31797 0
32441 -31793 -31797 0
-32445 31796 0
-32445 31797 0
32445 -31796 -31797 0
31798 -31799 0
31798 -31824 0
-31798 31799 31824 0
31801 -31932 0
31801 -31803 0
-31801 31932 31803 0
31804 -32155 0
31804 -31901 0
-31804 32155 31901 0
31807 -31901 0
31807 -31899 0
-31807 31901 31899 0
31810 -31862 0
31810 -32334 0
-31810 31862 32334 0
31813 -32155 0
31813 -32334 0
-31813 32155 32334 0
31816 -31859 0
31816 -32334 0
-31816 31859 32334 0
31819 -31820 0
31819 -31823 0
-31819 31820 31823 0
31822 -31823 0
31822 -31824 0
-31822 31823 31824 0
31825 -31826 0
31825 -31833 0
-31825 31826 31833 0
31828 -31833 0
31828 -31901 0
-31828 31833 31901 0
31883 -31832 0
31883 -31833 0
-31883 31832 31833 0
31834 -31835 0
31834 -31901 0
-31834 31835 31901 0
31837 -31844 0
31837 -31901 0
-31837 31844 31901 0
31840 -31844 0
31840 -31899 0
-31840 31844 31899 0
31843 -31844 0
31843 -32152 0
-31843 31844 32152 0
31846 -32152 0
31846 -31932 0
-31846 32152 31932 0
31849 -31862 0
31849 -31944 0
-31849 31862 31944 0
31852 -31944 0
31852 -32155 0
-31852 31944 32155 0
31898 -31944 0
31898 -32334 0
-31898 31944 32334 0
31858 -31859 0
31858 -31944 0
-31858 31859 31944 0
31861 -31862 0
31861 -31992 0
-31861 31862 31992 0
31864 -31944 0
31864 -31992 0
-31864 31944 31992 0
31913 -31992 0
31913 -32334 0
-31913 31992 32334 0
31870 -31992 0
31870 -32059 0
-31870 31992 32059 0
31873 -31944 0
31873 -32059 0
-31873 31944 32059 0
31876 -32155 0
31876 -32059 0
-31876 32155 32059 0
31879 -32155 0
31879 -31881 0
-31879 32155 31881 0
31882 -31883 0
31882 -31884 0
-31882 31883 31884 0
31885 -31886 0
31885 -31899 0
-31885 31886 31899 0
31888 -31889 0
31888 -31890 0
-31888 31889 31890 0
31891 -31892 0
31891 -32334 0
-31891 31892 32334 0
31894 -31895 0
31894 -31896 0
-31894 31895 31896 0
31897 -31898 0
31897 -31899 0
-31897 31898 31899 0
31900 -31901 0
31900 -31902 0
-31900 31901 31902 0
31903 -31904 0
31903 -31905 0
-31903 31904 31905 0
31970 -31907 0
31970 -31908 0
-31970 31907 31908 0
31909 -31913 0
31909 -31911 0
-31909 31913 31911 0
31912 -31913 0
31912 -31914 0
-31912 31913 31914 0
31915 -32155 0
31915 -31917 0
-31915 32155 31917 0
31918 -32062 0
31918 -32152 0
-31918 32062 32152 0
31921 -31922 0
31921 -31923 0
-31921 31922 31923 0
31924 -31925 0
31924 -31926 0
-31924 31925 31926 0
31927 -31928 0
31927 -31929 0
-31927 31928 31929 0
31930 -32291 0
31930 -31932 0
-31930 32291 31932 0
31933 -32334 0
31933 -31935 0
-31933 32334 31935 0
31936 -31937 0
31936 -31938 0
-31936 31937 31938 0
31939 -31940 0
31939 -31941 0
-31939 31940 31941 0
31942 -31943 0
31942 -31944 0
-31942 31943 31944 0
31945 -31946 0
31945 -31947 0
-31945 31946 31947 0
31948 -31949 0
31948 -31950 0
-31948 31949 31950 0
31951 -31952 0
31951 -31992 0
-31951 31952 31992 0
31954 -31955 0
31954 -31956 0
-31954 31955 31956 0
31957 -31958 0
31957 -31959 0
-31957 31958 31959 0
31960 -31961 0
31960 -31962 0
-31960 31961 31962 0
31963 -31964 0
31963 -31965 0
-31963 31964 31965 0
31966 -31967 0
31966 -31968 0
-31966 31967 31968 0
31969 -31970 0
31969 -32155 0
-31969 31970 32155 0
31972 -31973 0
31972 -31974 0
-31972 31973 31974 0
31975 -31982 0
31975 -31977 0
-31975 31982 31977 0
31978 -31982 0
31978 -31980 0
-31978 31982 31980 0
31981 -31982 0
31981 -31983 0
-31981 31982 31983 0
31984 -31985 0
31984 -31986 0
-31984 31985 31986 0
31987 -31988 0
31987 -31989 0
-31987 31988 31989 0
31990 -31997 0
31990 -31992 0
-31990 31997 31992 0
31993 -31997 0
31993 -31995 0
-31993 31997 31995 0
31996 -31997 0
31996 -31998 0
-31996 31997 31998 0
31999 -32000 0
31999 -32001 0
-31999 32000 32001 0
32002 -32003 0
32002 -32004 0
-32002 32003 32004 0
32005 -32006 0
32005 -32007 0
-32005 32006 32007 0
32008 -32009 0
32008 -32010 0
-32008 32009 32010 0
32011 -32012 0
32011 -32013 0
-32011 32012 32013 0
32014 -32015 0
32014 -32016 0
-32014 32015 32016 0
32017 -32018 0
32017 -32019 0
-32017 32018 32019 0
32020 -32021 0
32020 -32022 0
-32020 32021 32022 0
32023 -32024 0
32023 -32025 0
-32023 32024 32025 0
32026 -32027 0
32026 -32028 0
-32026 32027 32028 0
32029 -32030 0
32029 -32031 0
-32029 32030 32031 0
32032 -32033 0
32032 -32034 0
-32032 32033 32034 0
32035 -32036 0
32035 -32037 0
-32035 32036 32037 0
32038 -32039 0
32038 -32040 0
-32038 32039 32040 0
32041 -32042 0
32041 -32043 0
-32041 32042 32043 0
32044 -32045 0
32044 -32046 0
-32044 32045 32046 0
32047 -32048 0
32047 -32049 0
-32047 32048 32049 0
32050 -32243 0
32050 -32155 0
32050 -32053 0
-32050 32243 32155 32053 0
32054 -32055 0
32054 -32056 0
-32054 32055 32056 0
32057 -32058 0
32057 -32059 0
-32057 32058 32059 0
32060 -32061 0
32060 -32062 0
-32060 32061 32062 0
32063 -32064 0
32063 -32065 0
-32063 32064 32065 0
32066 -32067 0
32066 -32068 0
-32066 32067 32068 0
32069 -32070 0
32069 -32071 0
-32069 32070 32071 0
32072 -32073 0
32072 -32074 0
-32072 32073 32074 0
32075 -32076 0
32075 -32077 0
-32075 32076 32077 0
32078 -32079 0
32078 -32080 0
-32078 32079 32080 0
32081 -32082 0
32081 -32083 0
-32081 32082 32083 0
32084 -32085 0
32084 -32086 0
-32084 32085 32086 0
32087 -32088 0
32087 -32089 0
-32087 32088 32089 0
32090 -32091 0
32090 -32092 0
-32090 32091 32092 0
32093 -32094 0
32093 -32095 0
-32093 32094 32095 0
32096 -32097 0
32096 -32098 0
-32096 32097 32098 0
32099 -32100 0
32099 -32101 0
-32099 32100 32101 0
32102 -32103 0
32102 -32104 0
-32102 32103 32104 0
32105 -32106 0
32105 -32107 0
-32105 32106 32107 0
32108 -32109 0
32108 -32110 0
-32108 32109 32110 0
32111 -32243 0
32111 -32113 0
-32111 32243 32113 0
32114 -32115 0
32114 -32116 0
-32114 32115 32116 0
32117 -32118 0
32117 -32119 0
-32117 32118 32119 0
32120 -32121 0
32120 -32155 0
-32120 32121 32155 0
32123 -32124 0
32123 -32125 0
-32123 32124 32125 0
32126 -32127 0
32126 -32128 0
-32126 32127 32128 0
32129 -32130 0
32129 -32131 0
-32129 32130 32131 0
32132 -32133 0
32132 -32134 0
-32132 32133 32134 0
32135 -32136 0
32135 -32137 0
-32135 32136 32137 0
32138 -32139 0
32138 -32140 0
-32138 32139 32140 0
32141 -32142 0
32141 -32143 0
-32141 32142 32143 0
32144 -32145 0
32144 -32146 0
-32144 32145 32146 0
32147 -32148 0
32147 -32149 0
-32147 32148 32149 0
32150 -32151 0
32150 -32152 0
-32150 32151 32152 0
32153 -32154 0
32153 -32155 0
-32153 32154 32155 0
32156 -32157 0
32156 -32158 0
-32156 32157 32158 0
32159 -32160 0
32159 -32161 0
-32159 32160 32161 0
32162 -32163 0
32162 -32164 0
32162 -32165 0
32162 -32166 0
-32162 32163 32164 32165 32166 0
32167 -32168 0
32167 -32169 0
-32167 32168 32169 0
32170 -32171 0
32170 -32172 0
-32170 32171 32172 0
32173 -32174 0
32173 -32175 0
-32173 32174 32175 0
32176 -32177 0
32176 -32178 0
32176 -32334 0
32176 -32180 0
-32176 32177 32178 32334 32180 0
32181 -32182 0
32181 -32183 0
-32181 32182 32183 0
32184 -32185 0
32184 -32186 0
-32184 32185 32186 0
32187 -32188 0
32187 -32189 0
-32187 32188 32189 0
32190 -32191 0
32190 -32192 0
-32190 32191 32192 0
32193 -32194 0
32193 -32195 0
-32193 32194 32195 0
32196 -32197 0
32196 -32198 0
-32196 32197 32198 0
32199 -32200 0
32199 -32201 0
32199 -32202 0
-32199 32200 32201 32202 0
32203 -32204 0
32203 -32205 0
-32203 32204 32205 0
32206 -32207 0
32206 -32208 0
-32206 32207 32208 0
32209 -32210 0
32209 -32211 0
-32209 32210 32211 0
32212 -32213 0
32212 -32214 0
-32212 32213 32214 0
32215 -32216 0
32215 -32217 0
-32215 32216 32217 0
32299 -32219 0
32299 -32220 0
32299 -32221 0
-32299 32219 32220 32221 0
32222 -32223 0
32222 -32224 0
-32222 32223 32224 0
32225 -32226 0
32225 -32227 0
32225 -32228 0
-32225 32226 32227 32228 0
32229 -32230 0
32229 -32231 0
-32229 32230 32231 0
32232 -32233 0
32232 -32234 0
32232 -32235 0
-32232 32233 32234 32235 0
32236 -32237 0
32236 -32238 0
-32236 32237 32238 0
32239 -32240 0
32239 -32241 0
-32239 32240 32241 0
32242 -32243 0
32242 -32244 0
-32242 32243 32244 0
32245 -32246 0
32245 -32247 0
-32245 32246 32247 0
32248 -32249 0
32248 -32250 0
-32248 32249 32250 0
32251 -32252 0
32251 -32253 0
32251 -32254 0
-32251 32252 32253 32254 0
32255 -32256 0
32255 -32257 0
-32255 32256 32257 0
32258 -32259 0
32258 -32260 0
-32258 32259 32260 0
32261 -32262 0
32261 -32263 0
32261 -32264 0
-32261 32262 32263 32264 0
32265 -32266 0
32265 -32267 0
-32265 32266 32267 0
32268 -32269 0
32268 -32270 0
-32268 32269 32270 0
32271 -32272 0
32271 -32273 0
-32271 32272 32273 0
32274 -32275 0
32274 -32276 0
-32274 32275 32276 0
32277 -32278 0
32277 -32279 0
-32277 32278 32279 0
32280 -32281 0
32280 -32282 0
-32280 32281 32282 0
32283 -32284 0
32283 -32285 0
-32283 32284 32285 0
32286 -32287 0
32286 -32288 0
-32286 32287 32288 0
32336 -32290 0
32336 -32291 0
32336 -32292 0
-32336 32290 32291 32292 0
32293 -32294 0
32293 -32295 0
-32293 32294 32295 0
32296 -32297 0
32296 -32298 0
32296 -32299 0
-32296 32297 32298 32299 0
32300 -32301 0
32300 -32302 0
-32300 32301 32302 0
32303 -32304 0
32303 -32305 0
-32303 32304 32305 0
32306 -32307 0
32306 -32308 0
-32306 32307 32308 0
32309 -32310 0
32309 -32311 0
32309 -32312 0
-32309 32310 32311 32312 0
32313 -32314 0
32313 -32315 0
-32313 32314 32315 0
32316 -32317 0
32316 -32318 0
-32316 32317 32318 0
32319 -32320 0
32319 -32321 0
-32319 32320 32321 0
32368 -32323 0
32368 -32324 0
32368 -32325 0
-32368 32323 32324 32325 0
32326 -32327 0
32326 -32328 0
-32326 32327 32328 0
32329 -32330 0
32329 -32331 0
-32329 32330 32331 0
32332 -32333 0
32332 -32334 0
32332 -32335 0
32332 -32336 0
-32332 32333 32334 32335 32336 0
32380 -32338 0
32380 -32339 0
32380 -32340 0
-32380 32338 32339 32340 0
32341 -32342 0
32341 -32343 0
-32341 32342 32343 0
32344 -32345 0
32344 -32346 0
-32344 32345 32346 0
32347 -32348 0
32347 -32349 0
32347 -32350 0
32347 -32351 0
-32347 32348 32349 32350 32351 0
32352 -32353 0
32352 -32354 0
32352 -32355 0
32352 -32356 0
-32352 32353 32354 32355 32356 0
32357 -32358 0
32357 -32359 0
-32357 32358 32359 0
32360 -32361 0
32360 -32362 0
32360 -32363 0
32360 -32364 0
-32360 32361 32362 32363 32364 0
32365 -32366 0
32365 -32367 0
32365 -32368 0
-32365 32366 32367 32368 0
32369 -32370 0
32369 -32371 0
32369 -32372 0
-32369 32370 32371 32372 0
32373 -32374 0
32373 -32375 0
-32373 32374 32375 0
32376 -32377 0
32376 -32378 0
32376 -32379 0
32376 -32380 0
-32376 32377 32378 32379 32380 0
32381 -32382 0
32381 -32383 0
32381 -32384 0
-32381 32382 32383 32384 0
32385 -32386 0
32385 -32387 0
-32385 32386 32387 0
32388 -32389 0
32388 -32390 0
-32388 32389 32390 0
32391 -32392 0
32391 -32393 0
32391 -32394 0
-32391 32392 32393 32394 0
32395 -32396 0
32395 -32397 0
32395 -32398 0
-32395 32396 32397 32398 0
32399 -32400 0
32399 -32401 0
-32399 32400 32401 0
32402 -32403 0
32402 -32404 0
32402 -32405 0
-32402 32403 32404 32405 0
32406 -32407 0
32406 -32408 0
32406 -32409 0
32406 -32410 0
-32406 32407 32408 32409 32410 0
32411 -32412 0
32411 -32413 0
32411 -32414 0
32411 -32415 0
-32411 32412 32413 32414 32415 0
32416 -32417 0
32416 -32418 0
32416 -32419 0
32416 -32420 0
-32416 32417 32418 32419 32420 0
32421 -32422 0
32421 -32423 0
-32421 32422 32423 0
32424 -32425 0
32424 -32426 0
32424 -32427 0
-32424 32425 32426 32427 0
32428 -32429 0
32428 -32430 0
-32428 32429 32430 0
32431 -32432 0
32431 -32433 0
-32431 32432 32433 0
32434 -32435 0
32434 -32436 0
32434 -32437 0
-32434 32435 32436 32437 0
-32439 34348 0
32439 -34348 0
-32441 33913 0
32441 -33913 0
-32443 33915 0
32443 -33915 0
-32445 34169 0
32445 -34169 0
-32447 33969 0
32447 -33969 0
-32449 33817 0
32449 -33817 0
33898 33876 0
-33898 -33876 0
33554 33846 0
-33554 -33846 0
33873 33946 0
-33873 -33946 0
33840 33514 0
-33840 -33514 0
33834 33838 0
-33834 -33838 0
33837 33813 0
-33837 -33813 0
33847 33295 0
-33847 -33295 0
33849 33817 0
-33849 -33817 0
33858 33969 0
-33858 -33969 0
34166 34169 0
-34166 -34169 0
33958 33915 0
-33958 -33915 0
34006 33913 0
-34006 -33913 0
34073 34348 0
-34073 -34348 0
34304 33812 0
-34304 -33812 0
32481 34169 0
-32481 -34169 0
33916 32481 0
-33916 -32481 0
33918 33818 0
-33918 -33818 0
32487 33946 0
-32487 -33946 0
32880 32487 0
-32880 -32487 0
34076 33821 0
-34076 -33821 0
32493 33958 0
-32493 -33958 0
33943 32493 0
-33943 -32493 0
33509 33827 0
-33509 -33827 0
33343 33830 0
-33343 -33830 0
34305 33833 0
-34305 -33833 0
32503 33833 0
-32503 -33833 0
33997 32503 0
-33997 -32503 0
33370 33839 0
-33370 -33839 0
33235 33897 0
-33235 -33897 0
32998 33848 0
-32998 -33848 0
33954 33851 0
-33954 -33851 0
33957 33854 0
-33957 -33854 0
33371 33857 0
-33371 -33857 0
33963 33860 0
-33963 -33860 0
33966 33863 0
-33966 -33863 0
34026 33866 0
-34026 -33866 0
33071 33912 0
-33071 -33912 0
33252 33872 0
-33252 -33872 0
33981 33875 0
-33981 -33875 0
33125 33878 0
-33125 -33878 0
33329 33927 0
-33329 -33927 0
33996 33884 0
-33996 -33884 0
34177 33887 0
-34177 -33887 0
34011 33890 0
-34011 -33890 0
32541 33913 0
-32541 -33913 0
33337 32541 0
-33337 -32541 0
34257 33911 0
-34257 -33911 0
32547 32752 0
-32547 -32752 0
33386 32547 0
-33386 -32547 0
32551 32989 0
-32551 -32989 0
33440 32551 0
-33440 -32551 0
34168 33965 0
-34168 -33965 0
32554 33245 0
-32554 -33245 0
32556 33454 0
-32556 -33454 0
33661 34167 0
-33661 -34167 0
32560 33534 0
-32560 -33534 0
32562 34220 0
-32562 -34220 0
32564 34229 0
-32564 -34229 0
32566 33655 0
-32566 -33655 0
32568 34323 0
-32568 -34323 0
32570 33675 0
-32570 -33675 0
32572 34340 0
-32572 -34340 0
32574 33739 0
-32574 -33739 0
32576 33743 0
-32576 -33743 0
32578 34371 0
-32578 -34371 0
32580 34383 0
-32580 -34383 0
32582 34395 0
-32582 -34395 0
32584 34405 0
-32584 -34405 0
32603 34409 0
-32603 -34409 0
32588 34413 0
-32588 -34413 0
32605 34416 0
-32605 -34416 0
32607 34420 0
-32607 -34420 0
32611 34425 0
-32611 -34425 0
32613 34430 0
-32613 -34430 0
32598 34435 0
-32598 -34435 0
32615 34438 0
-32615 -34438 0
33795 32603 0
-33795 -32603 0
33798 32605 0
-33798 -32605 0
33801 32607 0
-33801 -32607 0
32608 34442 0
-32608 -34442 0
33804 32611 0
-33804 -32611 0
33807 32613 0
-33807 -32613 0
33810 32615 0
-33810 -32615 0
32616 34448 0
-32616 -34448 0
-33909 34169 0
-33909 33915 0
33909 -34169 -33915 0
-33919 34169 0
-33919 33915 0
33919 -34169 -33915 0
-33960 33969 0
-33960 34169 0
-33960 33915 0
33960 -33969 -34169 -33915 0
-33936 33969 0
-33936 33913 0
33936 -33969 -33913 0
-33921 33876 0
-33921 33913 0
33921 -33876 -33913 0
-34021 33876 0
-34021 33913 0
34021 -33876 -33913 0
-33951 33946 0
-33951 33913 0
33951 -33946 -33913 0
-34185 34169 0
-34185 33913 0
34185 -34169 -33913 0
-33895 33846 0
-33895 34348 0
33895 -33846 -34348 0
-33900 33840 0
-33900 33847 0
33900 -33840 -33847 0
-33249 33514 0
-33249 33849 0
-33249 33915 0
33249 -33514 -33849 -33915 0
-33904 33876 0
-33904 33858 0
-33904 33913 0
33904 -33876 -33858 -33913 0
-33939 33847 0
-33939 33849 0
-33939 33858 0
-33939 34348 0
33939 -33847 -33849 -33858 -34348 0
-33964 33858 0
-33964 33913 0
33964 -33858 -33913 0
-34039 33858 0
-34039 34169 0
-34039 34348 0
34039 -33858 -34169 -34348 0
-33955 33858 0
-33955 34169 0
-33955 33915 0
33955 -33858 -34169 -33915 0
-32892 33846 0
-32892 33295 0
-32892 33849 0
-32892 33858 0
32892 -33846 -33295 -33849 -33858 0
-33903 33873 0
-33903 33969 0
-33903 34166 0
33903 -33873 -33969 -34166 0
-33906 34166 0
-33906 33913 0
33906 -34166 -33913 0
-33925 33840 0
-33925 34166 0
33925 -33840 -34166 0
-34048 33849 0
-34048 33858 0
-34048 34166 0
34048 -33849 -33858 -34166 0
-33253 33817 0
-33253 33969 0
-33253 34166 0
33253 -33817 -33969 -34166 0
-33910 33858 0
-33910 33958 0
33910 -33858 -33958 0
-34024 33846 0
-34024 33958 0
-34024 34348 0
34024 -33846 -33958 -34348 0
-34057 33858 0
-34057 33958 0
-34057 33913 0
34057 -33858 -33958 -33913 0
-34045 33958 0
-34045 34348 0
34045 -33958 -34348 0
-34079 33554 0
-34079 34169 0
-34079 33958 0
34079 -33554 -34169 -33958 0
-33928 33858 0
-33928 33958 0
33928 -33858 -33958 0
-34319 33969 0
-34319 33913 0
-34319 33818 0
34319 -33969 -33913 -33818 0
-33922 33915 0
-33922 34006 0
33922 -33915 -34006 0
-33931 33295 0
-33931 34006 0
33931 -33295 -34006 0
-32988 33849 0
-32988 34169 0
-32988 34006 0
32988 -33849 -34169 -34006 0
-33982 34166 0
-33982 34006 0
33982 -34166 -34006 0
-34018 33858 0
-34018 34006 0
34018 -33858 -34006 0
-34112 33915 0
-34112 34006 0
34112 -33915 -34006 0
-34012 34169 0
-34012 34006 0
34012 -34169 -34006 0
-34030 33915 0
-34030 34006 0
34030 -33915 -34006 0
-33978 33915 0
-33978 34006 0
33978 -33915 -34006 0
-34347 33915 0
-34347 34006 0
34347 -33915 -34006 0
-32752 33969 0
-32752 33821 0
32752 -33969 -33821 0
-34033 33821 0
-34033 34348 0
34033 -33821 -34348 0
-33937 33849 0
-33937 34073 0
33937 -33849 -34073 0
-33940 33969 0
-33940 34073 0
33940 -33969 -34073 0
-34109 33849 0
-34109 34169 0
-34109 33958 0
-34109 34073 0
34109 -33849 -34169 -33958 -34073 0
-34115 33858 0
-34115 34169 0
-34115 34006 0
-34115 34073 0
34115 -33858 -34169 -34006 -34073 0
-33991 33858 0
-33991 34006 0
-33991 34073 0
33991 -33858 -34006 -34073 0
-34145 33858 0
-34145 34169 0
-34145 33958 0
-34145 34073 0
34145 -33858 -34169 -33958 -34073 0
-33994 33837 0
-33994 34006 0
-33994 34073 0
33994 -33837 -34006 -34073 0
-34121 33858 0
-34121 34006 0
-34121 34073 0
34121 -33858 -34006 -34073 0
-34009 33514 0
-34009 33958 0
-34009 34073 0
34009 -33514 -33958 -34073 0
-34003 33958 0
-34003 34073 0
34003 -33958 -34073 0
-34154 33818 0
-34154 34073 0
34154 -33818 -34073 0
-34015 33858 0
-34015 34169 0
-34015 34006 0
-34015 34073 0
34015 -33858 -34169 -34006 -34073 0
-34000 34006 0
-34000 34073 0
34000 -34006 -34073 0
-34163 33815 0
-34163 34073 0
-34163 33818 0
34163 -33815 -34073 -33818 0
-34130 33847 0
-34130 34006 0
-34130 34073 0
34130 -33847 -34006 -34073 0
-34183 34073 0
-34183 33821 0
34183 -34073 -33821 0
-34296 33817 0
-34296 34073 0
34296 -33817 -34073 0
-34067 33824 0
-34067 33913 0
34067 -33824 -33913 0
-33942 33830 0
-33942 34006 0
33942 -33830 -34006 0
-33949 33958 0
-33949 33836 0
33949 -33958 -33836 0
-33952 33839 0
-33952 34006 0
33952 -33839 -34006 0
-33973 33842 0
-33973 34006 0
-33973 34073 0
33973 -33842 -34006 -34073 0
-34151 33848 0
-34151 33837 0
-34151 34169 0
-34151 34073 0
34151 -33848 -33837 -34169 -34073 0
-33961 33857 0
-33961 33958 0
33961 -33857 -33958 0
-33976 33913 0
-33976 33860 0
33976 -33913 -33860 0
-33970 33866 0
-33970 33913 0
33970 -33866 -33913 0
-34070 33969 0
-34070 33912 0
34070 -33969 -33912 0
-33972 33913 0
-33972 33912 0
33972 -33913 -33912 0
-33975 33872 0
-33975 34006 0
33975 -33872 -34006 0
-33979 33913 0
-33979 33872 0
33979 -33913 -33872 0
-34063 33847 0
-34063 33858 0
-34063 34348 0
-34063 33918 0
34063 -33847 -33858 -34348 -33918 0
-34368 33969 0
-34368 34073 0
-34368 33918 0
34368 -33969 -34073 -33918 0
-33988 34169 0
-33988 34348 0
-33988 33878 0
33988 -34169 -34348 -33878 0
-34349 33969 0
-34349 32880 0
34349 -33969 -32880 0
-34235 34169 0
-34235 33927 0
34235 -34169 -33927 0
-34094 33295 0
-34094 34348 0
-34094 34076 0
34094 -33295 -34348 -34076 0
-34085 34169 0
-34085 34073 0
-34085 34076 0
-34085 32892 0
34085 -34169 -34073 -34076 -32892 0
-34088 33858 0
-34088 34166 0
-34088 34076 0
34088 -33858 -34166 -34076 0
-34157 34169 0
-34157 34076 0
34157 -34169 -34076 0
-33987 33514 0
-33987 34073 0
-33987 34076 0
33987 -33514 -34073 -34076 0
-34270 33847 0
-34270 34169 0
-34270 34073 0
-34270 34076 0
34270 -33847 -34169 -34073 -34076 0
-34218 34169 0
-34218 34348 0
-34218 34076 0
34218 -34169 -34348 -34076 0
-33213 33849 0
-33213 33858 0
-33213 34076 0
33213 -33849 -33858 -34076 0
-33999 33884 0
-33999 34166 0
33999 -33884 -34166 0
-34172 33918 0
-34172 33884 0
34172 -33918 -33884 0
-34002 33887 0
-34002 34166 0
34002 -33887 -34166 0
-34060 33890 0
-34060 33958 0
34060 -33890 -33958 0
-34035 33858 0
-34035 33915 0
-34035 33509 0
34035 -33858 -33915 -33509 0
-34263 34006 0
-34263 33509 0
34263 -34006 -33509 0
-34426 33969 0
-34426 33915 0
-34426 33509 0
34426 -33969 -33915 -33509 0
-34014 33893 0
-34014 33969 0
-34014 33913 0
34014 -33893 -33969 -33913 0
-34160 33343 0
-34160 33818 0
34160 -33343 -33818 0
-34017 33969 0
-34017 33913 0
-34017 34305 0
34017 -33969 -33913 -34305 0
-34042 33858 0
-34042 34166 0
-34042 34006 0
-34042 34305 0
34042 -33858 -34166 -34006 -34305 0
-34020 33958 0
-34020 34305 0
34020 -33958 -34305 0
-34023 33969 0
-34023 34073 0
-34023 34305 0
34023 -33969 -34073 -34305 0
-34027 34169 0
-34027 34305 0
34027 -34169 -34305 0
-34117 33509 0
-34117 34305 0
34117 -33509 -34305 0
-34227 33858 0
-34227 34166 0
-34227 34076 0
-34227 34305 0
34227 -33858 -34166 -34076 -34305 0
-34260 34006 0
-34260 33509 0
-34260 34305 0
34260 -34006 -33509 -34305 0
-34224 34073 0
-34224 33918 0
-34224 34305 0
34224 -34073 -33918 -34305 0
-34191 33854 0
-34191 34305 0
34191 -33854 -34305 0
-34105 34073 0
-34105 33370 0
-34105 32988 0
34105 -34073 -33370 -32988 0
-32989 33514 0
-32989 34348 0
-32989 33896 0
32989 -33514 -34348 -33896 0
-34029 33899 0
-34029 33958 0
34029 -33899 -33958 0
-34032 34073 0
-34032 32998 0
34032 -34073 -32998 0
-34036 34169 0
-34036 33913 0
-34036 33954 0
34036 -34169 -33913 -33954 0
-34082 33873 0
-34082 33817 0
-34082 33954 0
34082 -33873 -33817 -33954 0
-34038 33873 0
-34038 34073 0
-34038 33957 0
34038 -33873 -34073 -33957 0
-34096 34348 0
-34096 33957 0
34096 -34348 -33957 0
-34138 34073 0
-34138 33957 0
34138 -34073 -33957 0
-34099 33827 0
-34099 33957 0
34099 -33827 -33957 0
-34041 33946 0
-34041 33371 0
34041 -33946 -33371 0
-34044 34073 0
-34044 33371 0
34044 -34073 -33371 0
-34047 33913 0
-34047 33371 0
34047 -33913 -33371 0
-34051 33969 0
-34051 33963 0
34051 -33969 -33963 0
-34054 33969 0
-34054 33913 0
-34054 33963 0
34054 -33969 -33913 -33963 0
-34244 33969 0
-34244 33913 0
-34244 33963 0
34244 -33969 -33913 -33963 0
-34345 33969 0
-34345 33913 0
-34345 33963 0
34345 -33969 -33913 -33963 0
-34322 33849 0
-34322 33915 0
-34322 33902 0
34322 -33849 -33915 -33902 0
-34311 33958 0
-34311 33905 0
34311 -33958 -33905 0
-34050 33858 0
-34050 34166 0
-34050 33966 0
34050 -33858 -34166 -33966 0
-34053 33858 0
-34053 34166 0
-34053 33966 0
34053 -33858 -34166 -33966 0
-34056 33957 0
-34056 34026 0
34056 -33957 -34026 0
-34059 34348 0
-34059 34026 0
34059 -34348 -34026 0
-34062 33295 0
-34062 33071 0
-34062 33371 0
34062 -33295 -33071 -33371 0
-34123 33875 0
-34123 33071 0
34123 -33875 -33071 0
-34241 33911 0
-34241 34169 0
34241 -33911 -34169 0
-34069 34073 0
-34069 33252 0
34069 -34073 -33252 0
-34090 34006 0
-34090 33252 0
34090 -34006 -33252 0
-34273 34006 0
-34273 34073 0
-34273 33252 0
34273 -34006 -34073 -33252 0
-34404 33914 0
-34404 33946 0
-34404 33969 0
-34404 33913 0
34404 -33914 -33946 -33969 -33913 0
-34249 33917 0
-34249 33858 0
-34249 33913 0
34249 -33917 -33858 -33913 0
-34072 34166 0
-34072 33125 0
34072 -34166 -33125 0
-34075 33898 0
-34075 33125 0
34075 -33898 -33125 0
-34141 34169 0
-34141 33125 0
34141 -34169 -33125 0
-34078 34166 0
-34078 33125 0
34078 -34166 -33125 0
-34081 33837 0
-34081 33849 0
-34081 33858 0
-34081 33125 0
34081 -33837 -33849 -33858 -33125 0
-34084 33969 0
-34084 34166 0
-34084 33125 0
34084 -33969 -34166 -33125 0
-34087 33876 0
-34087 33897 0
-34087 33969 0
-34087 33125 0
34087 -33876 -33897 -33969 -33125 0
-34102 34166 0
-34102 33125 0
34102 -34166 -33125 0
-34188 33858 0
-34188 33125 0
34188 -33858 -33125 0
-34091 33984 0
-34091 33858 0
34091 -33984 -33858 0
-34093 33876 0
-34093 33915 0
-34093 33329 0
34093 -33876 -33915 -33329 0
-34097 33858 0
-34097 34169 0
-34097 33329 0
34097 -33858 -34169 -33329 0
-34148 33915 0
-34148 33329 0
34148 -33915 -33329 0
-34100 33858 0
-34100 33329 0
34100 -33858 -33329 0
-34237 33958 0
-34237 33329 0
34237 -33958 -33329 0
-34202 33915 0
-34202 33329 0
34202 -33915 -33329 0
-34293 33851 0
-34293 34169 0
-34293 33329 0
34293 -33851 -34169 -33329 0
-34254 34169 0
-34254 33915 0
-34254 33329 0
34254 -34169 -33915 -33329 0
-34199 33858 0
-34199 33958 0
-34199 33329 0
34199 -33858 -33958 -33329 0
-34280 33846 0
-34280 34169 0
-34280 33329 0
34280 -33846 -34169 -33329 0
-34174 34166 0
-34174 33329 0
-34174 34305 0
-34174 33966 0
34174 -34166 -33329 -34305 -33966 0
-34308 33858 0
-34308 33958 0
-34308 33329 0
34308 -33858 -33958 -33329 0
-34334 34169 0
-34334 33915 0
-34334 33329 0
34334 -34169 -33915 -33329 0
-34316 33329 0
-34316 33866 0
34316 -33329 -33866 0
-34301 34169 0
-34301 33958 0
-34301 33329 0
34301 -34169 -33958 -33329 0
-34324 33858 0
-34324 33958 0
-34324 33329 0
34324 -33858 -33958 -33329 0
-34331 33908 0
-34331 33329 0
34331 -33908 -33329 0
-34400 33918 0
-34400 33329 0
34400 -33918 -33329 0
-34214 33923 0
-34214 33958 0
34214 -33923 -33958 0
-34180 34169 0
-34180 33926 0
34180 -34169 -33926 0
-34103 33929 0
-34103 33958 0
34103 -33929 -33958 0
-34325 33932 0
-34325 33969 0
34325 -33932 -33969 0
-34407 33969 0
-34407 33932 0
34407 -33969 -33932 0
-34436 33509 0
-34436 34305 0
-34436 33213 0
34436 -33509 -34305 -33213 0
-34106 33946 0
-34106 33817 0
-34106 34166 0
-34106 33996 0
34106 -33946 -33817 -34166 -33996 0
-34108 33817 0
-34108 33969 0
-34108 33996 0
-34108 34026 0
34108 -33817 -33969 -33996 -34026 0
-34111 33958 0
-34111 33996 0
34111 -33958 -33996 0
-34114 33873 0
-34114 33969 0
-34114 33996 0
34114 -33873 -33969 -33996 0
-34118 33514 0
-34118 33969 0
-34118 33996 0
-34118 33235 0
34118 -33514 -33969 -33996 -33235 0
-34120 33295 0
-34120 33996 0
34120 -33295 -33996 0
-34124 33958 0
-34124 33996 0
34124 -33958 -33996 0
-34132 33969 0
-34132 33996 0
34132 -33969 -33996 0
-33245 33996 0
-33245 33371 0
-33245 33897 0
-33245 33249 0
33245 -33996 -33371 -33897 -33249 0
-34230 33996 0
-34230 33252 0
-34230 33253 0
34230 -33996 -33252 -33253 0
-34127 33958 0
-34127 33996 0
34127 -33958 -33996 0
-34251 34169 0
-34251 33915 0
-34251 33996 0
34251 -34169 -33915 -33996 0
-34283 33554 0
-34283 33958 0
-34283 33996 0
34283 -33554 -33958 -33996 0
-34129 33896 0
-34129 33514 0
-34129 33996 0
34129 -33896 -33514 -33996 0
-34367 34169 0
-34367 33996 0
34367 -34169 -33996 0
-34133 33554 0
-34133 33935 0
34133 -33554 -33935 0
-34135 33840 0
-34135 34177 0
34135 -33840 -34177 0
-34211 34006 0
-34211 34177 0
34211 -34006 -34177 0
-34196 34006 0
-34196 34177 0
34196 -34006 -34177 0
-34393 34169 0
-34393 34006 0
-34393 34177 0
34393 -34169 -34006 -34177 0
-34339 34006 0
-34339 34177 0
34339 -34006 -34177 0
-34139 33840 0
-34139 33938 0
34139 -33840 -33938 0
-34142 33295 0
-34142 34076 0
-34142 34011 0
34142 -33295 -34076 -34011 0
-34144 34006 0
-34144 34011 0
34144 -34006 -34011 0
-34147 33817 0
-34147 34011 0
34147 -33817 -34011 0
-34150 33817 0
-34150 33915 0
-34150 34011 0
34150 -33817 -33915 -34011 0
-34153 33958 0
-34153 34011 0
34153 -33958 -34011 0
-34156 33878 0
-34156 34011 0
34156 -33878 -34011 0
-34159 33915 0
-34159 34011 0
34159 -33915 -34011 0
-34162 33915 0
-34162 34011 0
34162 -33915 -34011 0
-34208 33817 0
-34208 33969 0
-34208 34011 0
34208 -33817 -33969 -34011 0
-34277 33941 0
-34277 34166 0
34277 -33941 -34166 0
-34165 33944 0
-34165 33329 0
34165 -33944 -33329 0
-34178 33947 0
-34178 34006 0
34178 -33947 -34006 0
-34194 33969 0
-34194 33950 0
34194 -33969 -33950 0
-34418 33337 0
-34418 33817 0
-34418 34169 0
-34418 34073 0
34418 -33337 -33817 -34169 -34073 0
-34362 33953 0
-34362 33343 0
34362 -33953 -33343 0
-34268 33956 0
-34268 34348 0
34268 -33956 -34348 0
-34290 33817 0
-34290 34073 0
-34290 33959 0
34290 -33817 -34073 -33959 0
-34312 33962 0
-34312 33836 0
34312 -33962 -33836 0
-34408 33817 0
-34408 34073 0
-34408 33968 0
34408 -33817 -34073 -33968 0
-34171 34169 0
-34171 34257 0
34171 -34169 -34257 0
-34221 33817 0
-34221 34257 0
-34221 33371 0
34221 -33817 -34257 -33371 0
-34205 34166 0
-34205 34257 0
34205 -34166 -34257 0
-34328 34257 0
-34328 33370 0
-34328 33371 0
34328 -34257 -33370 -33371 0
-34175 33971 0
-34175 34169 0
34175 -33971 -34169 0
-34179 33969 0
-34179 33974 0
34179 -33969 -33974 0
-34182 34166 0
-34182 33977 0
34182 -34166 -33977 0
-34186 33849 0
-34186 33980 0
34186 -33849 -33980 0
-34189 33817 0
-34189 33386 0
34189 -33817 -33386 0
-34192 33983 0
-34192 33858 0
34192 -33983 -33858 0
-34354 33969 0
-34354 33986 0
34354 -33969 -33986 0
-34267 33840 0
-34267 33989 0
34267 -33840 -33989 0
-34197 33992 0
-34197 33958 0
34197 -33992 -33958 0
-34278 33995 0
-34278 33958 0
34278 -33995 -33958 0
-34200 33998 0
-34200 33969 0
-34200 33915 0
34200 -33998 -33969 -33915 0
-34299 34001 0
-34299 33817 0
-34299 34006 0
34299 -34001 -33817 -34006 0
-34203 34004 0
-34203 33958 0
34203 -34004 -33958 0
-34421 34007 0
-34421 33957 0
34421 -34007 -33957 0
-34384 34010 0
-34384 33954 0
34384 -34010 -33954 0
-34206 34013 0
-34206 33958 0
34206 -34013 -33958 0
-34209 34016 0
-34209 33849 0
-34209 34169 0
-34209 34073 0
34209 -34016 -33849 -34169 -34073 0
-34212 34019 0
-34212 34073 0
34212 -34019 -34073 0
-34287 33849 0
-34287 33913 0
-34287 34022 0
34287 -33849 -33913 -34022 0
-34215 33873 0
-34215 34073 0
-34215 34025 0
34215 -33873 -34073 -34025 0
-34216 34169 0
-34216 33440 0
34216 -34169 -33440 0
-34242 34028 0
-34242 34348 0
34242 -34028 -34348 0
-34219 34031 0
-34219 34166 0
34219 -34031 -34166 0
-34392 34034 0
-34392 33833 0
34392 -34034 -33833 0
-34222 34037 0
-34222 33849 0
-34222 33958 0
34222 -34037 -33849 -33958 0
-33454 34040 0
-33454 33849 0
-33454 33958 0
-33454 34073 0
33454 -34040 -33849 -33958 -34073 0
-34225 33840 0
-34225 34043 0
34225 -33840 -34043 0
-34247 34046 0
-34247 34305 0
34247 -34046 -34305 0
-34228 34049 0
-34228 33812 0
-34228 33913 0
34228 -34049 -33812 -33913 0
-34360 33836 0
-34360 34052 0
-34360 34073 0
34360 -33836 -34052 -34073 0
-34434 33817 0
-34434 34073 0
-34434 34055 0
34434 -33817 -34073 -34055 0
-34417 34058 0
-34417 33957 0
34417 -34058 -33957 0
-34231 34061 0
-34231 33514 0
-34231 33849 0
-34231 34006 0
34231 -34061 -33514 -33849 -34006 0
-34234 33858 0
-34234 34064 0
34234 -33858 -34064 0
-34233 34068 0
-34233 34006 0
34233 -34068 -34006 0
-34238 34071 0
-34238 33969 0
34238 -34071 -33969 0
-34240 34073 0
-34240 34074 0
-34240 34305 0
34240 -34073 -34074 -34305 0
-34245 33858 0
-34245 34166 0
-34245 34074 0
34245 -33858 -34166 -34074 0
-34381 33858 0
-34381 34073 0
-34381 34077 0
34381 -33858 -34073 -34077 0
-34396 33898 0
-34396 34080 0
-34396 33509 0
34396 -33898 -34080 -33509 0
-34427 33873 0
-34427 34083 0
34427 -33873 -34083 0
-34376 33514 0
-34376 34086 0
-34376 34348 0
34376 -33514 -34086 -34348 0
-34248 33849 0
-34248 34089 0
-34248 34166 0
34248 -33849 -34089 -34166 0
-34252 34092 0
-34252 34166 0
34252 -34092 -34166 0
-34432 34095 0
-34432 33958 0
34432 -34095 -33958 0
-34255 34098 0
-34255 33958 0
34255 -34098 -33958 0
-34365 33858 0
-34365 34348 0
-34365 34101 0
34365 -33858 -34348 -34101 0
-33534 34104 0
-33534 33969 0
-33534 33915 0
33534 -34104 -33969 -33915 0
-34433 33946 0
-34433 34107 0
34433 -33946 -34107 0
-34258 34110 0
-34258 33858 0
34258 -34110 -33858 0
-34380 34169 0
-34380 34110 0
34380 -34169 -34110 0
-34261 33554 0
-34261 34113 0
34261 -33554 -34113 0
-34264 33898 0
-34264 34116 0
34264 -33898 -34116 0
-34266 33554 0
-34266 34119 0
34266 -33554 -34119 0
-34271 34122 0
-34271 34166 0
34271 -34122 -34166 0
-34274 34125 0
-34274 33858 0
34274 -34125 -33858 0
-34276 34128 0
-34276 34169 0
34276 -34128 -34169 0
-34281 34131 0
-34281 34166 0
34281 -34131 -34166 0
-34284 34134 0
-34284 33858 0
34284 -34134 -33858 0
-34439 34137 0
-34439 33918 0
34439 -34137 -33918 0
-34378 33858 0
-34378 34140 0
34378 -33858 -34140 0
-34337 33847 0
-34337 34143 0
34337 -33847 -34143 0
-34286 34146 0
-34286 33969 0
34286 -34146 -33969 0
-34289 33873 0
-34289 33969 0
-34289 34149 0
34289 -33873 -33969 -34149 0
-34292 34152 0
-34292 33957 0
34292 -34152 -33957 0
-34412 33817 0
-34412 34155 0
-34412 33969 0
34412 -33817 -34155 -33969 0
-34295 34158 0
-34295 33913 0
34295 -34158 -33913 0
-34298 34161 0
-34298 33913 0
34298 -34161 -33913 0
-34302 34164 0
-34302 33915 0
34302 -34164 -33915 0
-34306 34167 0
-34306 33858 0
34306 -34167 -33858 0
-34309 34170 0
-34309 33969 0
34309 -34170 -33969 0
-34357 33858 0
-34357 34173 0
34357 -33858 -34173 0
-34342 33849 0
-34342 34176 0
34342 -33849 -34176 0
-34315 33969 0
-34315 34181 0
34315 -33969 -34181 0
-34318 34184 0
-34318 33915 0
34318 -34184 -33915 0
-34321 34187 0
-34321 34169 0
34321 -34187 -34169 0
-34326 33849 0
-34326 34190 0
34326 -33849 -34190 0
-34329 34195 0
-34329 33858 0
-34329 34166 0
34329 -34195 -33858 -34166 0
-34385 33817 0
-34385 34198 0
34385 -33817 -34198 0
-34332 33969 0
-34332 34201 0
34332 -33969 -34201 0
-34352 33946 0
-34352 34204 0
34352 -33946 -34204 0
-34410 33873 0
-34410 34207 0
34410 -33873 -34207 0
-34335 34210 0
-34335 34166 0
34335 -34210 -34166 0
-34338 33969 0
-34338 34213 0
34338 -33969 -34213 0
-34341 34217 0
-34341 33969 0
34341 -34217 -33969 0
-34364 34223 0
-34364 34006 0
34364 -34223 -34006 0
-33655 34226 0
-33655 33849 0
-33655 34073 0
33655 -34226 -33849 -34073 0
-34344 33858 0
-34344 33661 0
34344 -33858 -33661 0
-34389 33817 0
-34389 34236 0
34389 -33817 -34236 0
-34369 34239 0
-34369 33858 0
34369 -34239 -33858 0
-33742 34243 0
-33742 33838 0
-33742 33837 0
33742 -34243 -33838 -33837 0
-34373 34246 0
-34373 34073 0
34373 -34246 -34073 0
-33675 34250 0
-33675 33849 0
-33675 33858 0
33675 -34250 -33849 -33858 0
-34429 33817 0
-34429 34253 0
34429 -33817 -34253 0
-34446 34256 0
-34446 34166 0
34446 -34256 -34166 0
-34353 34259 0
-34353 33958 0
34353 -34259 -33958 0
-34375 34262 0
-34375 33915 0
34375 -34262 -33915 0
-34356 34265 0
-34356 34169 0
34356 -34265 -34169 0
-34391 33858 0
-34391 34269 0
34391 -33858 -34269 0
-34359 34272 0
-34359 34166 0
34359 -34272 -34166 0
-34363 33969 0
-34363 34275 0
34363 -33969 -34275 0
-34451 34279 0
-34451 33915 0
34451 -34279 -33915 0
-34370 33946 0
-34370 34282 0
34370 -33946 -34282 0
-34423 33873 0
-34423 34285 0
34423 -33873 -34285 0
-34397 34288 0
-34397 33913 0
34397 -34288 -33913 0
-34414 34291 0
-34414 33817 0
34414 -34291 -33817 0
-34444 33969 0
-34444 34294 0
34444 -33969 -34294 0
-34372 33969 0
-34372 34297 0
34372 -33969 -34297 0
-34377 33969 0
-34377 34300 0
34377 -33969 -34300 0
-34449 34307 0
-34449 33817 0
34449 -34307 -33817 0
-34386 33849 0
-34386 34310 0
34386 -33849 -34310 0
-34440 33817 0
-34440 34314 0
34440 -33817 -34314 0
-34388 34317 0
-34388 34073 0
34388 -34317 -34073 0
-33739 33849 0
-33739 34073 0
-33739 33742 0
33739 -33849 -34073 -33742 0
-33743 34320 0
-33743 34073 0
33743 -34320 -34073 0
-34398 33849 0
-34398 34327 0
34398 -33849 -34327 0
-34424 33817 0
-34424 34330 0
34424 -33817 -34330 0
-34401 33849 0
-34401 34333 0
34401 -33849 -34333 0
-34403 34343 0
-34403 34305 0
34403 -34343 -34305 0
-34406 33849 0
-34406 34346 0
34406 -33849 -34346 0
-34411 34355 0
-34411 33849 0
34411 -34355 -33849 0
-34415 34358 0
-34415 33849 0
34415 -34358 -33849 0
-34419 33849 0
-34419 34361 0
34419 -33849 -34361 0
-34422 34366 0
-34422 33849 0
34422 -34366 -33849 0
-34428 34374 0
-34428 33849 0
34428 -34374 -33849 0
-34431 34379 0
-34431 33849 0
34431 -34379 -33849 0
-34437 34387 0
-34437 33946 0
34437 -34387 -33946 0
-34441 33849 0
-34441 34390 0
34441 -33849 -34390 0
-34443 34399 0
-34443 33858 0
34443 -34399 -33858 0
-34447 34402 0
-34447 34073 0
34447 -34402 -34073 0
-34450 33849 0
-34450 34445 0
34450 -33849 -34445 0
-34463 33795 0
-34463 33811 0
34463 -33795 -33811 0
-34457 33798 0
-34457 33811 0
34457 -33798 -33811 0
-34461 33801 0
-34461 33811 0
34461 -33801 -33811 0
-34453 33804 0
-34453 33811 0
34453 -33804 -33811 0
-34455 33807 0
-34455 33811 0
34455 -33807 -33811 0
-34459 33810 0
-34459 33811 0
34459 -33810 -33811 0
33812 -33813 0
33812 -33838 0
-33812 33813 33838 0
33815 -33946 0
33815 -33817 0
-33815 33946 33817 0
33818 -34169 0
33818 -33915 0
-33818 34169 33915 0
33821 -33915 0
33821 -33913 0
-33821 33915 33913 0
33824 -33876 0
33824 -34348 0
-33824 33876 34348 0
33827 -34169 0
33827 -34348 0
-33827 34169 34348 0
33830 -33873 0
33830 -34348 0
-33830 33873 34348 0
33833 -33834 0
33833 -33837 0
-33833 33834 33837 0
33836 -33837 0
33836 -33838 0
-33836 33837 33838 0
33839 -33840 0
33839 -33847 0
-33839 33840 33847 0
33842 -33847 0
33842 -33915 0
-33842 33847 33915 0
33897 -33846 0
33897 -33847 0
-33897 33846 33847 0
33848 -33849 0
33848 -33915 0
-33848 33849 33915 0
33851 -33858 0
33851 -33915 0
-33851 33858 33915 0
33854 -33858 0
33854 -33913 0
-33854 33858 33913 0
33857 -33858 0
33857 -34166 0
-33857 33858 34166 0
33860 -34166 0
33860 -33946 0
-33860 34166 33946 0
33863 -33876 0
33863 -33958 0
-33863 33876 33958 0
33866 -33958 0
33866 -34169 0
-33866 33958 34169 0
33912 -33958 0
33912 -34348 0
-33912 33958 34348 0
33872 -33873 0
33872 -33958 0
-33872 33873 33958 0
33875 -33876 0
33875 -34006 0
-33875 33876 34006 0
33878 -33958 0
33878 -34006 0
-33878 33958 34006 0
33927 -34006 0
33927 -34348 0
-33927 34006 34348 0
33884 -34006 0
33884 -34073 0
-33884 34006 34073 0
33887 -33958 0
33887 -34073 0
-33887 33958 34073 0
33890 -34169 0
33890 -34073 0
-33890 34169 34073 0
33893 -34169 0
33893 -33895 0
-33893 34169 33895 0
33896 -33897 0
33896 -33898 0
-33896 33897 33898 0
33899 -33900 0
33899 -33913 0
-33899 33900 33913 0
33902 -33903 0
33902 -33904 0
-33902 33903 33904 0
33905 -33906 0
33905 -34348 0
-33905 33906 34348 0
33908 -33909 0
33908 -33910 0
-33908 33909 33910 0
33911 -33912 0
33911 -33913 0
-33911 33912 33913 0
33914 -33915 0
33914 -33916 0
-33914 33915 33916 0
33917 -33918 0
33917 -33919 0
-33917 33918 33919 0
33984 -33921 0
33984 -33922 0
-33984 33921 33922 0
33923 -33927 0
33923 -33925 0
-33923 33927 33925 0
33926 -33927 0
33926 -33928 0
-33926 33927 33928 0
33929 -34169 0
33929 -33931 0
-33929 34169 33931 0
33932 -34076 0
33932 -34166 0
-33932 34076 34166 0
33935 -33936 0
33935 -33937 0
-33935 33936 33937 0
33938 -33939 0
33938 -33940 0
-33938 33939 33940 0
33941 -33942 0
33941 -33943 0
-33941 33942 33943 0
33944 -34305 0
33944 -33946 0
-33944 34305 33946 0
33947 -34348 0
33947 -33949 0
-33947 34348 33949 0
33950 -33951 0
33950 -33952 0
-33950 33951 33952 0
33953 -33954 0
33953 -33955 0
-33953 33954 33955 0
33956 -33957 0
33956 -33958 0
-33956 33957 33958 0
33959 -33960 0
33959 -33961 0
-33959 33960 33961 0
33962 -33963 0
33962 -33964 0
-33962 33963 33964 0
33965 -33966 0
33965 -34006 0
-33965 33966 34006 0
33968 -33969 0
33968 -33970 0
-33968 33969 33970 0
33971 -33972 0
33971 -33973 0
-33971 33972 33973 0
33974 -33975 0
33974 -33976 0
-33974 33975 33976 0
33977 -33978 0
33977 -33979 0
-33977 33978 33979 0
33980 -33981 0
33980 -33982 0
-33980 33981 33982 0
33983 -33984 0
33983 -34169 0
-33983 33984 34169 0
33986 -33987 0
33986 -33988 0
-33986 33987 33988 0
33989 -33996 0
33989 -33991 0
-33989 33996 33991 0
33992 -33996 0
33992 -33994 0
-33992 33996 33994 0
33995 -33996 0
33995 -33997 0
-33995 33996 33997 0
33998 -33999 0
33998 -34000 0
-33998 33999 34000 0
34001 -34002 0
34001 -34003 0
-34001 34002 34003 0
34004 -34011 0
34004 -34006 0
-34004 34011 34006 0
34007 -34011 0
34007 -34009 0
-34007 34011 34009 0
34010 -34011 0
34010 -34012 0
-34010 34011 34012 0
34013 -34014 0
34013 -34015 0
-34013 34014 34015 0
34016 -34017 0
34016 -34018 0
-34016 34017 34018 0
34019 -34020 0
34019 -34021 0
-34019 34020 34021 0
34022 -34023 0
34022 -34024 0
-34022 34023 34024 0
34025 -34026 0
34025 -34027 0
-34025 34026 34027 0
34028 -34029 0
34028 -34030 0
-34028 34029 34030 0
34031 -34032 0
34031 -34033 0
-34031 34032 34033 0
34034 -34035 0
34034 -34036 0
-34034 34035 34036 0
34037 -34038 0
34037 -34039 0
-34037 34038 34039 0
34040 -34041 0
34040 -34042 0
-34040 34041 34042 0
34043 -34044 0
34043 -34045 0
-34043 34044 34045 0
34046 -34047 0
34046 -34048 0
-34046 34047 34048 0
34049 -34050 0
34049 -34051 0
-34049 34050 34051 0
34052 -34053 0
34052 -34054 0
-34052 34053 34054 0
34055 -34056 0
34055 -34057 0
-34055 34056 34057 0
34058 -34059 0
34058 -34060 0
-34058 34059 34060 0
34061 -34062 0
34061 -34063 0
-34061 34062 34063 0
34064 -34257 0
34064 -34169 0
34064 -34067 0
-34064 34257 34169 34067 0
34068 -34069 0
34068 -34070 0
-34068 34069 34070 0
34071 -34072 0
34071 -34073 0
-34071 34072 34073 0
34074 -34075 0
34074 -34076 0
-34074 34075 34076 0
34077 -34078 0
34077 -34079 0
-34077 34078 34079 0
34080 -34081 0
34080 -34082 0
-34080 34081 34082 0
34083 -34084 0
34083 -34085 0
-34083 34084 34085 0
34086 -34087 0
34086 -34088 0
-34086 34087 34088 0
34089 -34090 0
34089 -34091 0
-34089 34090 34091 0
34092 -34093 0
34092 -34094 0
-34092 34093 34094 0
34095 -34096 0
34095 -34097 0
-34095 34096 34097 0
34098 -34099 0
34098 -34100 0
-34098 34099 34100 0
34101 -34102 0
34101 -34103 0
-34101 34102 34103 0
34104 -34105 0
34104 -34106 0
-34104 34105 34106 0
34107 -34108 0
34107 -34109 0
-34107 34108 34109 0
34110 -34111 0
34110 -34112 0
-34110 34111 34112 0
34113 -34114 0
34113 -34115 0
-34113 34114 34115 0
34116 -34117 0
34116 -34118 0
-34116 34117 34118 0
34119 -34120 0
34119 -34121 0
-34119 34120 34121 0
34122 -34123 0
34122 -34124 0
-34122 34123 34124 0
34125 -34257 0
34125 -34127 0
-34125 34257 34127 0
34128 -34129 0
34128 -34130 0
-34128 34129 34130 0
34131 -34132 0
34131 -34133 0
-34131 34132 34133 0
34134 -34135 0
34134 -34169 0
-34134 34135 34169 0
34137 -34138 0
34137 -34139 0
-34137 34138 34139 0
34140 -34141 0
34140 -34142 0
-34140 34141 34142 0
34143 -34144 0
34143 -34145 0
-34143 34144 34145 0
34146 -34147 0
34146 -34148 0
-34146 34147 34148 0
34149 -34150 0
34149 -34151 0
-34149 34150 34151 0
34152 -34153 0
34152 -34154 0
-34152 34153 34154 0
34155 -34156 0
34155 -34157 0
-34155 34156 34157 0
34158 -34159 0
34158 -34160 0
-34158 34159 34160 0
34161 -34162 0
34161 -34163 0
-34161 34162 34163 0
34164 -34165 0
34164 -34166 0
-34164 34165 34166 0
34167 -34168 0
34167 -34169 0
-34167 34168 34169 0
34170 -34171 0
34170 -34172 0
-34170 34171 34172 0
34173 -34174 0
34173 -34175 0
-34173 34174 34175 0
34176 -34177 0
34176 -34178 0
34176 -34179 0
34176 -34180 0
-34176 34177 34178 34179 34180 0
34181 -34182 0
34181 -34183 0
-34181 34182 34183 0
34184 -34185 0
34184 -34186 0
-34184 34185 34186 0
34187 -34188 0
34187 -34189 0
-34187 34188 34189 0
34190 -34191 0
34190 -34192 0
34190 -34348 0
34190 -34194 0
-34190 34191 34192 34348 34194 0
34195 -34196 0
34195 -34197 0
-34195 34196 34197 0
34198 -34199 0
34198 -34200 0
-34198 34199 34200 0
34201 -34202 0
34201 -34203 0
-34201 34202 34203 0
34204 -34205 0
34204 -34206 0
-34204 34205 34206 0
34207 -34208 0
34207 -34209 0
-34207 34208 34209 0
34210 -34211 0
34210 -34212 0
-34210 34211 34212 0
34213 -34214 0
34213 -34215 0
34213 -34216 0
-34213 34214 34215 34216 0
34217 -34218 0
34217 -34219 0
-34217 34218 34219 0
34220 -34221 0
34220 -34222 0
-34220 34221 34222 0
34223 -34224 0
34223 -34225 0
-34223 34224 34225 0
34226 -34227 0
34226 -34228 0
-34226 34227 34228 0
34229 -34230 0
34229 -34231 0
-34229 34230 34231 0
34313 -34233 0
34313 -34234 0
34313 -34235 0
-34313 34233 34234 34235 0
34236 -34237 0
34236 -34238 0
-34236 34237 34238 0
34239 -34240 0
34239 -34241 0
34239 -34242 0
-34239 34240 34241 34242 0
34243 -34244 0
34243 -34245 0
-34243 34244 34245 0
34246 -34247 0
34246 -34248 0
34246 -34249 0
-34246 34247 34248 34249 0
34250 -34251 0
34250 -34252 0
-34250 34251 34252 0
34253 -34254 0
34253 -34255 0
-34253 34254 34255 0
34256 -34257 0
34256 -34258 0
-34256 34257 34258 0
34259 -34260 0
34259 -34261 0
-34259 34260 34261 0
34262 -34263 0
34262 -34264 0
-34262 34263 34264 0
34265 -34266 0
34265 -34267 0
34265 -34268 0
-34265 34266 34267 34268 0
34269 -34270 0
34269 -34271 0
-34269 34270 34271 0
34272 -34273 0
34272 -34274 0
-34272 34273 34274 0
34275 -34276 0
34275 -34277 0
34275 -34278 0
-34275 34276 34277 34278 0
34279 -34280 0
34279 -34281 0
-34279 34280 34281 0
34282 -34283 0
34282 -34284 0
-34282 34283 34284 0
34285 -34286 0
34285 -34287 0
-34285 34286 34287 0
34288 -34289 0
34288 -34290 0
-34288 34289 34290 0
34291 -34292 0
34291 -34293 0
-34291 34292 34293 0
34294 -34295 0
34294 -34296 0
-34294 34295 34296 0
34297 -34298 0
34297 -34299 0
-34297 34298 34299 0
34300 -34301 0
34300 -34302 0
-34300 34301 34302 0
34350 -34304 0
34350 -34305 0
34350 -34306 0
-34350 34304 34305 34306 0
34307 -34308 0
34307 -34309 0
-34307 34308 34309 0
34310 -34311 0
34310 -34312 0
34310 -34313 0
-34310 34311 34312 34313 0
34314 -34315 0
34314 -34316 0
-34314 34315 34316 0
34317 -34318 0
34317 -34319 0
-34317 34318 34319 0
34320 -34321 0
34320 -34322 0
-34320 34321 34322 0
34323 -34324 0
34323 -34325 0
34323 -34326 0
-34323 34324 34325 34326 0
34327 -34328 0
34327 -34329 0
-34327 34328 34329 0
34330 -34331 0
34330 -34332 0
-34330 34331 34332 0
34333 -34334 0
34333 -34335 0
-34333 34334 34335 0
34382 -34337 0
34382 -34338 0
34382 -34339 0
-34382 34337 34338 34339 0
34340 -34341 0
34340 -34342 0
-34340 34341 34342 0
34343 -34344 0
34343 -34345 0
-34343 34344 34345 0
34346 -34347 0
34346 -34348 0
34346 -34349 0
34346 -34350 0
-34346 34347 34348 34349 34350 0
34394 -34352 0
34394 -34353 0
34394 -34354 0
-34394 34352 34353 34354 0
34355 -34356 0
34355 -34357 0
-34355 34356 34357 0
34358 -34359 0
34358 -34360 0
-34358 34359 34360 0
34361 -34362 0
34361 -34363 0
34361 -34364 0
34361 -34365 0
-34361 34362 34363 34364 34365 0
34366 -34367 0
34366 -34368 0
34366 -34369 0
34366 -34370 0
-34366 34367 34368 34369 34370 0
34371 -34372 0
34371 -34373 0
-34371 34372 34373 0
34374 -34375 0
34374 -34376 0
34374 -34377 0
34374 -34378 0
-34374 34375 34376 34377 34378 0
34379 -34380 0
34379 -34381 0
34379 -34382 0
-34379 34380 34381 34382 0
34383 -34384 0
34383 -34385 0
34383 -34386 0
-34383 34384 34385 34386 0
34387 -34388 0
34387 -34389 0
-34387 34388 34389 0
34390 -34391 0
34390 -34392 0
34390 -34393 0
34390 -34394 0
-34390 34391 34392 34393 34394 0
34395 -34396 0
34395 -34397 0
34395 -34398 0
-34395 34396 34397 34398 0
34399 -34400 0
34399 -34401 0
-34399 34400 34401 0
34402 -34403 0
34402 -34404 0
-34402 34403 34404 0
34405 -34406 0
34405 -34407 0
34405 -34408 0
-34405 34406 34407 34408 0
34409 -34410 0
34409 -34411 0
34409 -34412 0
-34409 34410 34411 34412 0
34413 -34414 0
34413 -34415 0
-34413 34414 34415 0
34416 -34417 0
34416 -34418 0
34416 -34419 0
-34416 34417 34418 34419 0
34420 -34421 0
34420 -34422 0
34420 -34423 0
34420 -34424 0
-34420 34421 34422 34423 34424 0
34425 -34426 0
34425 -34427 0
34425 -34428 0
34425 -34429 0
-34425 34426 34427 34428 34429 0
34430 -34431 0
34430 -34432 0
34430 -34433 0
34430 -34434 0
-34430 34431 34432 34433 34434 0
34435 -34436 0
34435 -34437 0
-34435 34436 34437 0
34438 -34439 0
34438 -34440 0
34438 -34441 0
-34438 34439 34440 34441 0
34442 -34443 0
34442 -34444 0
-34442 34443 34444 0
34445 -34446 0
34445 -34447 0
-34445 34446 34447 0
34448 -34449 0
34448 -34450 0
34448 -34451 0
-34448 34449 34450 34451 0
-34453 36362 0
34453 -36362 0
-34455 35927 0
34455 -35927 0
-34457 35929 0
34457 -35929 0
-34459 36183 0
34459 -36183 0
-34461 35983 0
34461 -35983 0
-34463 35831 0
34463 -35831 0
35912 35890 0
-35912 -35890 0
35568 35860 0
-35568 -35860 0
35887 35960 0
-35887 -35960 0
35854 35528 0
-35854 -35528 0
35848 35852 0
-35848 -35852 0
35851 35827 0
-35851 -35827 0
35861 35309 0
-35861 -35309 0
35863 35831 0
-35863 -35831 0
35872 35983 0
-35872 -35983 0
36180 36183 0
-36180 -36183 0
35972 35929 0
-35972 -35929 0
36020 35927 0
-36020 -35927 0
36087 36362 0
-36087 -36362 0
36318 35826 0
-36318 -35826 0
34495 36183 0
-34495 -36183 0
35930 34495 0
-35930 -34495 0
35932 35832 0
-35932 -35832 0
34501 35960 0
-34501 -35960 0
34894 34501 0
-34894 -34501 0
36090 35835 0
-36090 -35835 0
34507 35972 0
-34507 -35972 0
35957 34507 0
-35957 -34507 0
35523 35841 0
-35523 -35841 0
35357 35844 0
-35357 -35844 0
36319 35847 0
-36319 -35847 0
34517 35847 0
-34517 -35847 0
36011 34517 0
-36011 -34517 0
35384 35853 0
-35384 -35853 0
35249 35911 0
-35249 -35911 0
35012 35862 0
-35012 -35862 0
35968 35865 0
-35968 -35865 0
35971 35868 0
-35971 -35868 0
35385 35871 0
-35385 -35871 0
35977 35874 0
-35977 -35874 0
35980 35877 0
-35980 -35877 0
36040 35880 0
-36040 -35880 0
35085 35926 0
-35085 -35926 0
35266 35886 0
-35266 -35886 0
35995 35889 0
-35995 -35889 0
35139 35892 0
-35139 -35892 0
35343 35941 0
-35343 -35941 0
36010 35898 0
-36010 -35898 0
36191 35901 0
-36191 -35901 0
36025 35904 0
-36025 -35904 0
34555 35927 0
-34555 -35927 0
35351 34555 0
-35351 -34555 0
36271 35925 0
-36271 -35925 0
34561 34766 0
-34561 -34766 0
35400 34561 0
-35400 -34561 0
34565 35003 0
-34565 -35003 0
35454 34565 0
-35454 -34565 0
36182 35979 0
-36182 -35979 0
34568 35259 0
-34568 -35259 0
34570 35468 0
-34570 -35468 0
35675 36181 0
-35675 -36181 0
34574 35548 0
-34574 -35548 0
34576 36234 0
-34576 -36234 0
34578 36243 0
-34578 -36243 0
34580 35669 0
-34580 -35669 0
34582 36337 0
-34582 -36337 0
34584 35689 0
-34584 -35689 0
34586 36354 0
-34586 -36354 0
34588 35753 0
-34588 -35753 0
34590 35757 0
-34590 -35757 0
34592 36385 0
-34592 -36385 0
34594 36397 0
-34594 -36397 0
34596 36409 0
-34596 -36409 0
34598 36419 0
-34598 -36419 0
34617 36423 0
-34617 -36423 0
34602 36427 0
-34602 -36427 0
34619 36430 0
-34619 -36430 0
34621 36434 0
-34621 -36434 0
34625 36439 0
-34625 -36439 0
34627 36444 0
-34627 -36444 0
34612 36449 0
-34612 -36449 0
34629 36452 0
-34629 -36452 0
35809 34617 0
-35809 -34617 0
35812 34619 0
-35812 -34619 0
35815 34621 0
-35815 -34621 0
34622 36456 0
-34622 -36456 0
35818 34625 0
-35818 -34625 0
35821 34627 0
-35821 -34627 0
35824 34629 0
-35824 -34629 0
34630 36462 0
-34630 -36462 0
-35923 36183 0
-35923 35929 0
35923 -36183 -35929 0
-35933 36183 0
-35933 35929 0
35933 -36183 -35929 0
-35974 35983 0
-35974 36183 0
-35974 35929 0
35974 -35983 -36183 -35929 0
-35950 35983 0
-35950 35927 0
35950 -35983 -35927 0
-35935 35890 0
-35935 35927 0
35935 -35890 -35927 0
-36035 35890 0
-36035 35927 0
36035 -35890 -35927 0
-35965 35960 0
-35965 35927 0
35965 -35960 -35927 0
-36199 36183 0
-36199 35927 0
36199 -36183 -35927 0
-35909 35860 0
-35909 36362 0
35909 -35860 -36362 0
-35914 35854 0
-35914 35861 0
35914 -35854 -35861 0
-35263 35528 0
-35263 35863 0
-35263 35929 0
35263 -35528 -35863 -35929 0
-35918 35890 0
-35918 35872 0
-35918 35927 0
35918 -35890 -35872 -35927 0
-35953 35861 0
-35953 35863 0
-35953 35872 0
-35953 36362 0
35953 -35861 -35863 -35872 -36362 0
-35978 35872 0
-35978 35927 0
35978 -35872 -35927 0
-36053 35872 0
-36053 36183 0
-36053 36362 0
36053 -35872 -36183 -36362 0
-35969 35872 0
-35969 36183 0
-35969 35929 0
35969 -35872 -36183 -35929 0
-34906 35860 0
-34906 35309 0
-34906 35863 0
-34906 35872 0
34906 -35860 -35309 -35863 -35872 0
-35917 35887 0
-35917 35983 0
-35917 36180 0
35917 -35887 -35983 -36180 0
-35920 36180 0
-35920 35927 0
35920 -36180 -35927 0
-35939 35854 0
-35939 36180 0
35939 -35854 -36180 0
-36062 35863 0
-36062 35872 0
-36062 36180 0
36062 -35863 -35872 -36180 0
-35267 35831 0
-35267 35983 0
-35267 36180 0
35267 -35831 -35983 -36180 0
-35924 35872 0
-35924 35972 0
35924 -35872 -35972 0
-36038 35860 0
-36038 35972 0
-36038 36362 0
36038 -35860 -35972 -36362 0
-36071 35872 0
-36071 35972 0
-36071 35927 0
36071 -35872 -35972 -35927 0
-36059 35972 0
-36059 36362 0
36059 -35972 -36362 0
-36093 35568 0
-36093 36183 0
-36093 35972 0
36093 -35568 -36183 -35972 0
-35942 35872 0
-35942 35972 0
35942 -35872 -35972 0
-36333 35983 0
-36333 35927 0
-36333 35832 0
36333 -35983 -35927 -35832 0
-35936 35929 0
-35936 36020 0
35936 -35929 -36020 0
-35945 35309 0
-35945 36020 0
35945 -35309 -36020 0
-35002 35863 0
-35002 36183 0
-35002 36020 0
35002 -35863 -36183 -36020 0
-35996 36180 0
-35996 36020 0
35996 -36180 -36020 0
-36032 35872 0
-36032 36020 0
36032 -35872 -36020 0
-36126 35929 0
-36126 36020 0
36126 -35929 -36020 0
-36026 36183 0
-36026 36020 0
36026 -36183 -36020 0
-36044 35929 0
-36044 36020 0
36044 -35929 -36020 0
-35992 35929 0
-35992 36020 0
35992 -35929 -36020 0
-36361 35929 0
-36361 36020 0
36361 -35929 -36020 0
-34766 35983 0
-34766 35835 0
34766 -35983 -35835 0
-36047 35835 0
-36047 36362 0
36047 -35835 -36362 0
-35951 35863 0
-35951 36087 0
35951 -35863 -36087 0
-35954 35983 0
-35954 36087 0
35954 -35983 -36087 0
-36123 35863 0
-36123 36183 0
-36123 35972 0
-36123 36087 0
36123 -35863 -36183 -35972 -36087 0
-36129 35872 0
-36129 36183 0
-36129 36020 0
-36129 36087 0
36129 -35872 -36183 -36020 -36087 0
-36005 35872 0
-36005 36020 0
-36005 36087 0
36005 -35872 -36020 -36087 0
-36159 35872 0
-36159 36183 0
-36159 35972 0
-36159 36087 0
36159 -35872 -36183 -35972 -36087 0
-36008 35851 0
-36008 36020 0
-36008 36087 0
36008 -35851 -36020 -36087 0
-36135 35872 0
-36135 36020 0
-36135 36087 0
36135 -35872 -36020 -36087 0
-36023 35528 0
-36023 35972 0
-36023 36087 0
36023 -35528 -35972 -36087 0
-36017 35972 0
-36017 36087 0
36017 -35972 -36087 0
-36168 35832 0
-36168 36087 0
36168 -35832 -36087 0
-36029 35872 0
-36029 36183 0
-36029 36020 0
-36029 36087 0
36029 -35872 -36183 -36020 -36087 0
-36014 36020 0
-36014 36087 0
36014 -36020 -36087 0
-36177 35829 0
-36177 36087 0
-36177 35832 0
36177 -35829 -36087 -35832 0
-36144 35861 0
-36144 36020 0
-36144 36087 0
36144 -35861 -36020 -36087 0
-36197 36087 0
-36197 35835 0
36197 -36087 -35835 0
-36310 35831 0
-36310 36087 0
36310 -35831 -36087 0
-36081 35838 0
-36081 35927 0
36081 -35838 -35927 0
-35956 35844 0
-35956 36020 0
35956 -35844 -36020 0
-35963 35972 0
-35963 35850 0
35963 -35972 -35850 0
-35966 35853 0
-35966 36020 0
35966 -35853 -36020 0
-35987 35856 0
-35987 36020 0
-35987 36087 0
35987 -35856 -36020 -36087 0
-36165 35862 0
-36165 35851 0
-36165 36183 0
-36165 36087 0
36165 -35862 -35851 -36183 -36087 0
-35975 35871 0
-35975 35972 0
35975 -35871 -35972 0
-35990 35927 0
-35990 35874 0
35990 -35927 -35874 0
-35984 35880 0
-35984 35927 0
35984 -35880 -35927 0
-36084 35983 0
-36084 35926 0
36084 -35983 -35926 0
-35986 35927 0
-35986 35926 0
35986 -35927 -35926 0
-35989 35886 0
-35989 36020 0
35989 -35886 -36020 0
-35993 35927 0
-35993 35886 0
35993 -35927 -35886 0
-36077 35861 0
-36077 35872 0
-36077 36362 0
-36077 35932 0
36077 -35861 -35872 -36362 -35932 0
-36382 35983 0
-36382 36087 0
-36382 35932 0
36382 -35983 -36087 -35932 0
-36002 36183 0
-36002 36362 0
-36002 35892 0
36002 -36183 -36362 -35892 0
-36363 35983 0
-36363 34894 0
36363 -35983 -34894 0
-36249 36183 0
-36249 35941 0
36249 -36183 -35941 0
-36108 35309 0
-36108 36362 0
-36108 36090 0
36108 -35309 -36362 -36090 0
-36099 36183 0
-36099 36087 0
-36099 36090 0
-36099 34906 0
36099 -36183 -36087 -36090 -34906 0
-36102 35872 0
-36102 36180 0
-36102 36090 0
36102 -35872 -36180 -36090 0
-36171 36183 0
-36171 36090 0
36171 -36183 -36090 0
-36001 35528 0
-36001 36087 0
-36001 36090 0
36001 -35528 -36087 -36090 0
-36284 35861 0
-36284 36183 0
-36284 36087 0
-36284 36090 0
36284 -35861 -36183 -36087 -36090 0
-36232 36183 0
-36232 36362 0
-36232 36090 0
36232 -36183 -36362 -36090 0
-35227 35863 0
-35227 35872 0
-35227 36090 0
35227 -35863 -35872 -36090 0
-36013 35898 0
-36013 36180 0
36013 -35898 -36180 0
-36186 35932 0
-36186 35898 0
36186 -35932 -35898 0
-36016 35901 0
-36016 36180 0
36016 -35901 -36180 0
-36074 35904 0
-36074 35972 0
36074 -35904 -35972 0
-36049 35872 0
-36049 35929 0
-36049 35523 0
36049 -35872 -35929 -35523 0
-36277 36020 0
-36277 35523 0
36277 -36020 -35523 0
-36440 35983 0
-36440 35929 0
-36440 35523 0
36440 -35983 -35929 -35523 0
-36028 35907 0
-36028 35983 0
-36028 35927 0
36028 -35907 -35983 -35927 0
-36174 35357 0
-36174 35832 0
36174 -35357 -35832 0
-36031 35983 0
-36031 35927 0
-36031 36319 0
36031 -35983 -35927 -36319 0
-36056 35872 0
-36056 36180 0
-36056 36020 0
-36056 36319 0
36056 -35872 -36180 -36020 -36319 0
-36034 35972 0
-36034 36319 0
36034 -35972 -36319 0
-36037 35983 0
-36037 36087 0
-36037 36319 0
36037 -35983 -36087 -36319 0
-36041 36183 0
-36041 36319 0
36041 -36183 -36319 0
-36131 35523 0
-36131 36319 0
36131 -35523 -36319 0
-36241 35872 0
-36241 36180 0
-36241 36090 0
-36241 36319 0
36241 -35872 -36180 -36090 -36319 0
-36274 36020 0
-36274 35523 0
-36274 36319 0
36274 -36020 -35523 -36319 0
-36238 36087 0
-36238 35932 0
-36238 36319 0
36238 -36087 -35932 -36319 0
-36205 35868 0
-36205 36319 0
36205 -35868 -36319 0
-36119 36087 0
-36119 35384 0
-36119 35002 0
36119 -36087 -35384 -35002 0
-35003 35528 0
-35003 36362 0
-35003 35910 0
35003 -35528 -36362 -35910 0
-36043 35913 0
-36043 35972 0
36043 -35913 -35972 0
-36046 36087 0
-36046 35012 0
36046 -36087 -35012 0
-36050 36183 0
-36050 35927 0
-36050 35968 0
36050 -36183 -35927 -35968 0
-36096 35887 0
-36096 35831 0
-36096 35968 0
36096 -35887 -35831 -35968 0
-36052 35887 0
-36052 36087 0
-36052 35971 0
36052 -35887 -36087 -35971 0
-36110 36362 0
-36110 35971 0
36110 -36362 -35971 0
-36152 36087 0
-36152 35971 0
36152 -36087 -35971 0
-36113 35841 0
-36113 35971 0
36113 -35841 -35971 0
-36055 35960 0
-36055 35385 0
36055 -35960 -35385 0
-36058 36087 0
-36058 35385 0
36058 -36087 -35385 0
-36061 35927 0
-36061 35385 0
36061 -35927 -35385 0
-36065 35983 0
-36065 35977 0
36065 -35983 -35977 0
-36068 35983 0
-36068 35927 0
-36068 35977 0
36068 -35983 -35927 -35977 0
-36258 35983 0
-36258 35927 0
-36258 35977 0
36258 -35983 -35927 -35977 0
-36359 35983 0
-36359 35927 0
-36359 35977 0
36359 -35983 -35927 -35977 0
-36336 35863 0
-36336 35929 0
-36336 35916 0
36336 -35863 -35929 -35916 0
-36325 35972 0
-36325 35919 0
36325 -35972 -35919 0
-36064 35872 0
-36064 36180 0
-36064 35980 0
36064 -35872 -36180 -35980 0
-36067 35872 0
-36067 36180 0
-36067 35980 0
36067 -35872 -36180 -35980 0
-36070 35971 0
-36070 36040 0
36070 -35971 -36040 0
-36073 36362 0
-36073 36040 0
36073 -36362 -36040 0
-36076 35309 0
-36076 35085 0
-36076 35385 0
36076 -35309 -35085 -35385 0
-36137 35889 0
-36137 35085 0
36137 -35889 -35085 0
-36255 35925 0
-36255 36183 0
36255 -35925 -36183 0
-36083 36087 0
-36083 35266 0
36083 -36087 -35266 0
-36104 36020 0
-36104 35266 0
36104 -36020 -35266 0
-36287 36020 0
-36287 36087 0
-36287 35266 0
36287 -36020 -36087 -35266 0
-36418 35928 0
-36418 35960 0
-36418 35983 0
-36418 35927 0
36418 -35928 -35960 -35983 -35927 0
-36263 35931 0
-36263 35872 0
-36263 35927 0
36263 -35931 -35872 -35927 0
-36086 36180 0
-36086 35139 0
36086 -36180 -35139 0
-36089 35912 0
-36089 35139 0
36089 -35912 -35139 0
-36155 36183 0
-36155 35139 0
36155 -36183 -35139 0
-36092 36180 0
-36092 35139 0
36092 -36180 -35139 0
-36095 35851 0
-36095 35863 0
-36095 35872 0
-36095 35139 0
36095 -35851 -35863 -35872 -35139 0
-36098 35983 0
-36098 36180 0
-36098 35139 0
36098 -35983 -36180 -35139 0
-36101 35890 0
-36101 35911 0
-36101 35983 0
-36101 35139 0
36101 -35890 -35911 -35983 -35139 0
-36116 36180 0
-36116 35139 0
36116 -36180 -35139 0
-36202 35872 0
-36202 35139 0
36202 -35872 -35139 0
-36105 35998 0
-36105 35872 0
36105 -35998 -35872 0
-36107 35890 0
-36107 35929 0
-36107 35343 0
36107 -35890 -35929 -35343 0
-36111 35872 0
-36111 36183 0
-36111 35343 0
36111 -35872 -36183 -35343 0
-36162 35929 0
-36162 35343 0
36162 -35929 -35343 0
-36114 35872 0
-36114 35343 0
36114 -35872 -35343 0
-36251 35972 0
-36251 35343 0
36251 -35972 -35343 0
-36216 35929 0
-36216 35343 0
36216 -35929 -35343 0
-36307 35865 0
-36307 36183 0
-36307 35343 0
36307 -35865 -36183 -35343 0
-36268 36183 0
-36268 35929 0
-36268 35343 0
36268 -36183 -35929 -35343 0
-36213 35872 0
-36213 35972 0
-36213 35343 0
36213 -35872 -35972 -35343 0
-36294 35860 0
-36294 36183 0
-36294 35343 0
36294 -35860 -36183 -35343 0
-36188 36180 0
-36188 35343 0
-36188 36319 0
-36188 35980 0
36188 -36180 -35343 -36319 -35980 0
-36322 35872 0
-36322 35972 0
-36322 35343 0
36322 -35872 -35972 -35343 0
-36348 36183 0
-36348 35929 0
-36348 35343 0
36348 -36183 -35929 -35343 0
-36330 35343 0
-36330 35880 0
36330 -35343 -35880 0
-36315 36183 0
-36315 35972 0
-36315 35343 0
36315 -36183 -35972 -35343 0
-36338 35872 0
-36338 35972 0
-36338 35343 0
36338 -35872 -35972 -35343 0
-36345 35922 0
-36345 35343 0
36345 -35922 -35343 0
-36414 35932 0
-36414 35343 0
36414 -35932 -35343 0
-36228 35937 0
-36228 35972 0
36228 -35937 -35972 0
-36194 36183 0
-36194 35940 0
36194 -36183 -35940 0
-36117 35943 0
-36117 35972 0
36117 -35943 -35972 0
-36339 35946 0
-36339 35983 0
36339 -35946 -35983 0
-36421 35983 0
-36421 35946 0
36421 -35983 -35946 0
-36450 35523 0
-36450 36319 0
-36450 35227 0
36450 -35523 -36319 -35227 0
-36120 35960 0
-36120 35831 0
-36120 36180 0
-36120 36010 0
36120 -35960 -35831 -36180 -36010 0
-36122 35831 0
-36122 35983 0
-36122 36010 0
-36122 36040 0
36122 -35831 -35983 -36010 -36040 0
-36125 35972 0
-36125 36010 0
36125 -35972 -36010 0
-36128 35887 0
-36128 35983 0
-36128 36010 0
36128 -35887 -35983 -36010 0
-36132 35528 0
-36132 35983 0
-36132 36010 0
-36132 35249 0
36132 -35528 -35983 -36010 -35249 0
-36134 35309 0
-36134 36010 0
36134 -35309 -36010 0
-36138 35972 0
-36138 36010 0
36138 -35972 -36010 0
-36146 35983 0
-36146 36010 0
36146 -35983 -36010 0
-35259 36010 0
-35259 35385 0
-35259 35911 0
-35259 35263 0
35259 -36010 -35385 -35911 -35263 0
-36244 36010 0
-36244 35266 0
-36244 35267 0
36244 -36010 -35266 -35267 0
-36141 35972 0
-36141 36010 0
36141 -35972 -36010 0
-36265 36183 0
-36265 35929 0
-36265 36010 0
36265 -36183 -35929 -36010 0
-36297 35568 0
-36297 35972 0
-36297 36010 0
36297 -35568 -35972 -36010 0
-36143 35910 0
-36143 35528 0
-36143 36010 0
36143 -35910 -35528 -36010 0
-36381 36183 0
-36381 36010 0
36381 -36183 -36010 0
-36147 35568 0
-36147 35949 0
36147 -35568 -35949 0
-36149 35854 0
-36149 36191 0
36149 -35854 -36191 0
-36225 36020 0
-36225 36191 0
36225 -36020 -36191 0
-36210 36020 0
-36210 36191 0
36210 -36020 -36191 0
-36407 36183 0
-36407 36020 0
-36407 36191 0
36407 -36183 -36020 -36191 0
-36353 36020 0
-36353 36191 0
36353 -36020 -36191 0
-36153 35854 0
-36153 35952 0
36153 -35854 -35952 0
-36156 35309 0
-36156 36090 0
-36156 36025 0
36156 -35309 -36090 -36025 0
-36158 36020 0
-36158 36025 0
36158 -36020 -36025 0
-36161 35831 0
-36161 36025 0
36161 -35831 -36025 0
-36164 35831 0
-36164 35929 0
-36164 36025 0
36164 -35831 -35929 -36025 0
-36167 35972 0
-36167 36025 0
36167 -35972 -36025 0
-36170 35892 0
-36170 36025 0
36170 -35892 -36025 0
-36173 35929 0
-36173 36025 0
36173 -35929 -36025 0
-36176 35929 0
-36176 36025 0
36176 -35929 -36025 0
-36222 35831 0
-36222 35983 0
-36222 36025 0
36222 -35831 -35983 -36025 0
-36291 35955 0
-36291 36180 0
36291 -35955 -36180 0
-36179 35958 0
-36179 35343 0
36179 -35958 -35343 0
-36192 35961 0
-36192 36020 0
36192 -35961 -36020 0
-36208 35983 0
-36208 35964 0
36208 -35983 -35964 0
-36432 35351 0
-36432 35831 0
-36432 36183 0
-36432 36087 0
36432 -35351 -35831 -36183 -36087 0
-36376 35967 0
-36376 35357 0
36376 -35967 -35357 0
-36282 35970 0
-36282 36362 0
36282 -35970 -36362 0
-36304 35831 0
-36304 36087 0
-36304 35973 0
36304 -35831 -36087 -35973 0
-36326 35976 0
-36326 35850 0
36326 -35976 -35850 0
-36422 35831 0
-36422 36087 0
-36422 35982 0
36422 -35831 -36087 -35982 0
-36185 36183 0
-36185 36271 0
36185 -36183 -36271 0
-36235 35831 0
-36235 36271 0
-36235 35385 0
36235 -35831 -36271 -35385 0
-36219 36180 0
-36219 36271 0
36219 -36180 -36271 0
-36342 36271 0
-36342 35384 0
-36342 35385 0
36342 -36271 -35384 -35385 0
-36189 35985 0
-36189 36183 0
36189 -35985 -36183 0
-36193 35983 0
-36193 35988 0
36193 -35983 -35988 0
-36196 36180 0
-36196 35991 0
36196 -36180 -35991 0
-36200 35863 0
-36200 35994 0
36200 -35863 -35994 0
-36203 35831 0
-36203 35400 0
36203 -35831 -35400 0
-36206 35997 0
-36206 35872 0
36206 -35997 -35872 0
-36368 35983 0
-36368 36000 0
36368 -35983 -36000 0
-36281 35854 0
-36281 36003 0
36281 -35854 -36003 0
-36211 36006 0
-36211 35972 0
36211 -36006 -35972 0
-36292 36009 0
-36292 35972 0
36292 -36009 -35972 0
-36214 36012 0
-36214 35983 0
-36214 35929 0
36214 -36012 -35983 -35929 0
-36313 36015 0
-36313 35831 0
-36313 36020 0
36313 -36015 -35831 -36020 0
-36217 36018 0
-36217 35972 0
36217 -36018 -35972 0
-36435 36021 0
-36435 35971 0
36435 -36021 -35971 0
-36398 36024 0
-36398 35968 0
36398 -36024 -35968 0
-36220 36027 0
-36220 35972 0
36220 -36027 -35972 0
-36223 36030 0
-36223 35863 0
-36223 36183 0
-36223 36087 0
36223 -36030 -35863 -36183 -36087 0
-36226 36033 0
-36226 36087 0
36226 -36033 -36087 0
-36301 35863 0
-36301 35927 0
-36301 36036 0
36301 -35863 -35927 -36036 0
-36229 35887 0
-36229 36087 0
-36229 36039 0
36229 -35887 -36087 -36039 0
-36230 36183 0
-36230 35454 0
36230 -36183 -35454 0
-36256 36042 0
-36256 36362 0
36256 -36042 -36362 0
-36233 36045 0
-36233 36180 0
36233 -36045 -36180 0
-36406 36048 0
-36406 35847 0
36406 -36048 -35847 0
-36236 36051 0
-36236 35863 0
-36236 35972 0
36236 -36051 -35863 -35972 0
-35468 36054 0
-35468 35863 0
-35468 35972 0
-35468 36087 0
35468 -36054 -35863 -35972 -36087 0
-36239 35854 0
-36239 36057 0
36239 -35854 -36057 0
-36261 36060 0
-36261 36319 0
36261 -36060 -36319 0
-36242 36063 0
-36242 35826 0
-36242 35927 0
36242 -36063 -35826 -35927 0
-36374 35850 0
-36374 36066 0
-36374 36087 0
36374 -35850 -36066 -36087 0
-36448 35831 0
-36448 36087 0
-36448 36069 0
36448 -35831 -36087 -36069 0
-36431 36072 0
-36431 35971 0
36431 -36072 -35971 0
-36245 36075 0
-36245 35528 0
-36245 35863 0
-36245 36020 0
36245 -36075 -35528 -35863 -36020 0
-36248 35872 0
-36248 36078 0
36248 -35872 -36078 0
-36247 36082 0
-36247 36020 0
36247 -36082 -36020 0
-36252 36085 0
-36252 35983 0
36252 -36085 -35983 0
-36254 36087 0
-36254 36088 0
-36254 36319 0
36254 -36087 -36088 -36319 0
-36259 35872 0
-36259 36180 0
-36259 36088 0
36259 -35872 -36180 -36088 0
-36395 35872 0
-36395 36087 0
-36395 36091 0
36395 -35872 -36087 -36091 0
-36410 35912 0
-36410 36094 0
-36410 35523 0
36410 -35912 -36094 -35523 0
-36441 35887 0
-36441 36097 0
36441 -35887 -36097 0
-36390 35528 0
-36390 36100 0
-36390 36362 0
36390 -35528 -36100 -36362 0
-36262 35863 0
-36262 36103 0
-36262 36180 0
36262 -35863 -36103 -36180 0
-36266 36106 0
-36266 36180 0
36266 -36106 -36180 0
-36446 36109 0
-36446 35972 0
36446 -36109 -35972 0
-36269 36112 0
-36269 35972 0
36269 -36112 -35972 0
-36379 35872 0
-36379 36362 0
-36379 36115 0
36379 -35872 -36362 -36115 0
-35548 36118 0
-35548 35983 0
-35548 35929 0
35548 -36118 -35983 -35929 0
-36447 35960 0
-36447 36121 0
36447 -35960 -36121 0
-36272 36124 0
-36272 35872 0
36272 -36124 -35872 0
-36394 36183 0
-36394 36124 0
36394 -36183 -36124 0
-36275 35568 0
-36275 36127 0
36275 -35568 -36127 0
-36278 35912 0
-36278 36130 0
36278 -35912 -36130 0
-36280 35568 0
-36280 36133 0
36280 -35568 -36133 0
-36285 36136 0
-36285 36180 0
36285 -36136 -36180 0
-36288 36139 0
-36288 35872 0
36288 -36139 -35872 0
-36290 36142 0
-36290 36183 0
36290 -36142 -36183 0
-36295 36145 0
-36295 36180 0
36295 -36145 -36180 0
-36298 36148 0
-36298 35872 0
36298 -36148 -35872 0
-36453 36151 0
-36453 35932 0
36453 -36151 -35932 0
-36392 35872 0
-36392 36154 0
36392 -35872 -36154 0
-36351 35861 0
-36351 36157 0
36351 -35861 -36157 0
-36300 36160 0
-36300 35983 0
36300 -36160 -35983 0
-36303 35887 0
-36303 35983 0
-36303 36163 0
36303 -35887 -35983 -36163 0
-36306 36166 0
-36306 35971 0
36306 -36166 -35971 0
-36426 35831 0
-36426 36169 0
-36426 35983 0
36426 -35831 -36169 -35983 0
-36309 36172 0
-36309 35927 0
36309 -36172 -35927 0
-36312 36175 0
-36312 35927 0
36312 -36175 -35927 0
-36316 36178 0
-36316 35929 0
36316 -36178 -35929 0
-36320 36181 0
-36320 35872 0
36320 -36181 -35872 0
-36323 36184 0
-36323 35983 0
36323 -36184 -35983 0
-36371 35872 0
-36371 36187 0
36371 -35872 -36187 0
-36356 35863 0
-36356 36190 0
36356 -35863 -36190 0
-36329 35983 0
-36329 36195 0
36329 -35983 -36195 0
-36332 36198 0
-36332 35929 0
36332 -36198 -35929 0
-36335 36201 0
-36335 36183 0
36335 -36201 -36183 0
-36340 35863 0
-36340 36204 0
36340 -35863 -36204 0
-36343 36209 0
-36343 35872 0
-36343 36180 0
36343 -36209 -35872 -36180 0
-36399 35831 0
-36399 36212 0
36399 -35831 -36212 0
-36346 35983 0
-36346 36215 0
36346 -35983 -36215 0
-36366 35960 0
-36366 36218 0
36366 -35960 -36218 0
-36424 35887 0
-36424 36221 0
36424 -35887 -36221 0
-36349 36224 0
-36349 36180 0
36349 -36224 -36180 0
-36352 35983 0
-36352 36227 0
36352 -35983 -36227 0
-36355 36231 0
-36355 35983 0
36355 -36231 -35983 0
-36378 36237 0
-36378 36020 0
36378 -36237 -36020 0
-35669 36240 0
-35669 35863 0
-35669 36087 0
35669 -36240 -35863 -36087 0
-36358 35872 0
-36358 35675 0
36358 -35872 -35675 0
-36403 35831 0
-36403 36250 0
36403 -35831 -36250 0
-36383 36253 0
-36383 35872 0
36383 -36253 -35872 0
-35756 36257 0
-35756 35852 0
-35756 35851 0
35756 -36257 -35852 -35851 0
-36387 36260 0
-36387 36087 0
36387 -36260 -36087 0
-35689 36264 0
-35689 35863 0
-35689 35872 0
35689 -36264 -35863 -35872 0
-36443 35831 0
-36443 36267 0
36443 -35831 -36267 0
-36460 36270 0
-36460 36180 0
36460 -36270 -36180 0
-36367 36273 0
-36367 35972 0
36367 -36273 -35972 0
-36389 36276 0
-36389 35929 0
36389 -36276 -35929 0
-36370 36279 0
-36370 36183 0
36370 -36279 -36183 0
-36405 35872 0
-36405 36283 0
36405 -35872 -36283 0
-36373 36286 0
-36373 36180 0
36373 -36286 -36180 0
-36377 35983 0
-36377 36289 0
36377 -35983 -36289 0
-36465 36293 0
-36465 35929 0
36465 -36293 -35929 0
-36384 35960 0
-36384 36296 0
36384 -35960 -36296 0
-36437 35887 0
-36437 36299 0
36437 -35887 -36299 0
-36411 36302 0
-36411 35927 0
36411 -36302 -35927 0
-36428 36305 0
-36428 35831 0
36428 -36305 -35831 0
-36458 35983 0
-36458 36308 0
36458 -35983 -36308 0
-36386 35983 0
-36386 36311 0
36386 -35983 -36311 0
-36391 35983 0
-36391 36314 0
36391 -35983 -36314 0
-36463 36321 0
-36463 35831 0
36463 -36321 -35831 0
-36400 35863 0
-36400 36324 0
36400 -35863 -36324 0
-36454 35831 0
-36454 36328 0
36454 -35831 -36328 0
-36402 36331 0
-36402 36087 0
36402 -36331 -36087 0
-35753 35863 0
-35753 36087 0
-35753 35756 0
35753 -35863 -36087 -35756 0
-35757 36334 0
-35757 36087 0
35757 -36334 -36087 0
-36412 35863 0
-36412 36341 0
36412 -35863 -36341 0
-36438 35831 0
-36438 36344 0
36438 -35831 -36344 0
-36415 35863 0
-36415 36347 0
36415 -35863 -36347 0
-36417 36357 0
-36417 36319 0
36417 -36357 -36319 0
-36420 35863 0
-36420 36360 0
36420 -35863 -36360 0
-36425 36369 0
-36425 35863 0
36425 -36369 -35863 0
-36429 36372 0
-36429 35863 0
36429 -36372 -35863 0
-36433 35863 0
-36433 36375 0
36433 -35863 -36375 0
-36436 36380 0
-36436 35863 0
36436 -36380 -35863 0
-36442 36388 0
-36442 35863 0
36442 -36388 -35863 0
-36445 36393 0
-36445 35863 0
36445 -36393 -35863 0
-36451 36401 0
-36451 35960 0
36451 -36401 -35960 0
-36455 35863 0
-36455 36404 0
36455 -35863 -36404 0
-36457 36413 0
-36457 35872 0
36457 -36413 -35872 0
-36461 36416 0
-36461 36087 0
36461 -36416 -36087 0
-36464 35863 0
-36464 36459 0
36464 -35863 -36459 0
-36477 35809 0
-36477 35825 0
36477 -35809 -35825 0
-36471 35812 0
-36471 35825 0
36471 -35812 -35825 0
-36475 35815 0
-36475 35825 0
36475 -35815 -35825 0
-36467 35818 0
-36467 35825 0
36467 -35818 -35825 0
-36469 35821 0
-36469 35825 0
36469 -35821 -35825 0
-36473 35824 0
-36473 35825 0
36473 -35824 -35825 0
35826 -35827 0
35826 -35852 0
-35826 35827 35852 0
35829 -35960 0
35829 -35831 0
-35829 35960 35831 0
35832 -36183 0
35832 -35929 0
-35832 36183 35929 0
35835 -35929 0
35835 -35927 0
-35835 35929 35927 0
35838 -35890 0
35838 -36362 0
-35838 35890 36362 0
35841 -36183 0
35841 -36362 0
-35841 36183 36362 0
35844 -35887 0
35844 -36362 0
-35844 35887 36362 0
35847 -35848 0
35847 -35851 0
-35847 35848 35851 0
35850 -35851 0
35850 -35852 0
-35850 35851 35852 0
35853 -35854 0
35853 -35861 0
-35853 35854 35861 0
35856 -35861 0
35856 -35929 0
-35856 35861 35929 0
35911 -35860 0
35911 -35861 0
-35911 35860 35861 0
35862 -35863 0
35862 -35929 0
-35862 35863 35929 0
35865 -35872 0
35865 -35929 0
-35865 35872 35929 0
35868 -35872 0
35868 -35927 0
-35868 35872 35927 0
35871 -35872 0
35871 -36180 0
-35871 35872 36180 0
35874 -36180 0
35874 -35960 0
-35874 36180 35960 0
35877 -35890 0
35877 -35972 0
-35877 35890 35972 0
35880 -35972 0
35880 -36183 0
-35880 35972 36183 0
35926 -35972 0
35926 -36362 0
-35926 35972 36362 0
35886 -35887 0
35886 -35972 0
-35886 35887 35972 0
35889 -35890 0
35889 -36020 0
-35889 35890 36020 0
35892 -35972 0
35892 -36020 0
-35892 35972 36020 0
35941 -36020 0
35941 -36362 0
-35941 36020 36362 0
35898 -36020 0
35898 -36087 0
-35898 36020 36087 0
35901 -35972 0
35901 -36087 0
-35901 35972 36087 0
35904 -36183 0
35904 -36087 0
-35904 36183 36087 0
35907 -36183 0
35907 -35909 0
-35907 36183 35909 0
35910 -35911 0
35910 -35912 0
-35910 35911 35912 0
35913 -35914 0
35913 -35927 0
-35913 35914 35927 0
35916 -35917 0
35916 -35918 0
-35916 35917 35918 0
35919 -35920 0
35919 -36362 0
-35919 35920 36362 0
35922 -35923 0
35922 -35924 0
-35922 35923 35924 0
35925 -35926 0
35925 -35927 0
-35925 35926 35927 0
35928 -35929 0
35928 -35930 0
-35928 35929 35930 0
35931 -35932 0
35931 -35933 0
-35931 35932 35933 0
35998 -35935 0
35998 -35936 0
-35998 35935 35936 0
35937 -35941 0
35937 -35939 0
-35937 35941 35939 0
35940 -35941 0
35940 -35942 0
-35940 35941 35942 0
35943 -36183 0
35943 -35945 0
-35943 36183 35945 0
35946 -36090 0
35946 -36180 0
-35946 36090 36180 0
35949 -35950 0
35949 -35951 0
-35949 35950 35951 0
35952 -35953 0
35952 -35954 0
-35952 35953 35954 0
35955 -35956 0
35955 -35957 0
-35955 35956 35957 0
35958 -36319 0
35958 -35960 0
-35958 36319 35960 0
35961 -36362 0
35961 -35963 0
-35961 36362 35963 0
35964 -35965 0
35964 -35966 0
-35964 35965 35966 0
35967 -35968 0
35967 -35969 0
-35967 35968 35969 0
35970 -35971 0
35970 -35972 0
-35970 35971 35972 0
35973 -35974 0
35973 -35975 0
-35973 35974 35975 0
35976 -35977 0
35976 -35978 0
-35976 35977 35978 0
35979 -35980 0
35979 -36020 0
-35979 35980 36020 0
35982 -35983 0
35982 -35984 0
-35982 35983 35984 0
35985 -35986 0
35985 -35987 0
-35985 35986 35987 0
35988 -35989 0
35988 -35990 0
-35988 35989 35990 0
35991 -35992 0
35991 -35993 0
-35991 35992 35993 0
35994 -35995 0
35994 -35996 0
-35994 35995 35996 0
35997 -35998 0
35997 -36183 0
-35997 35998 36183 0
36000 -36001 0
36000 -36002 0
-36000 36001 36002 0
36003 -36010 0
36003 -36005 0
-36003 36010 36005 0
36006 -36010 0
36006 -36008 0
-36006 36010 36008 0
36009 -36010 0
36009 -36011 0
-36009 36010 36011 0
36012 -36013 0
36012 -36014 0
-36012 36013 36014 0
36015 -36016 0
36015 -36017 0
-36015 36016 36017 0
36018 -36025 0
36018 -36020 0
-36018 36025 36020 0
36021 -36025 0
36021 -36023 0
-36021 36025 36023 0
36024 -36025 0
36024 -36026 0
-36024 36025 36026 0
36027 -36028 0
36027 -36029 0
-36027 36028 36029 0
36030 -36031 0
36030 -36032 0
-36030 36031 36032 0
36033 -36034 0
36033 -36035 0
-36033 36034 36035 0
36036 -36037 0
36036 -36038 0
-36036 36037 36038 0
36039 -36040 0
36039 -36041 0
-36039 36040 36041 0
36042 -36043 0
36042 -36044 0
-36042 36043 36044 0
36045 -36046 0
36045 -36047 0
-36045 36046 36047 0
36048 -36049 0
36048 -36050 0
-36048 36049 36050 0
36051 -36052 0
36051 -36053 0
-36051 36052 36053 0
36054 -36055 0
36054 -36056 0
-36054 36055 36056 0
36057 -36058 0
36057 -36059 0
-36057 36058 36059 0
36060 -36061 0
36060 -36062 0
-36060 36061 36062 0
36063 -36064 0
36063 -36065 0
-36063 36064 36065 0
36066 -36067 0
36066 -36068 0
-36066 36067 36068 0
36069 -36070 0
36069 -36071 0
-36069 36070 36071 0
36072 -36073 0
36072 -36074 0
-36072 36073 36074 0
36075 -36076 0
36075 -36077 0
-36075 36076 36077 0
36078 -36271 0
36078 -36183 0
36078 -36081 0
-36078 36271 36183 36081 0
36082 -36083 0
36082 -36084 0
-36082 36083 36084 0
36085 -36086 0
36085 -36087 0
-36085 36086 36087 0
36088 -36089 0
36088 -36090 0
-36088 36089 36090 0
36091 -36092 0
36091 -36093 0
-36091 36092 36093 0
36094 -36095 0
36094 -36096 0
-36094 36095 36096 0
36097 -36098 0
36097 -36099 0
-36097 36098 36099 0
36100 -36101 0
36100 -36102 0
-36100 36101 36102 0
36103 -36104 0
36103 -36105 0
-36103 36104 36105 0
36106 -36107 0
36106 -36108 0
-36106 36107 36108 0
36109 -36110 0
36109 -36111 0
-36109 36110 36111 0
36112 -36113 0
36112 -36114 0
-36112 36113 36114 0
36115 -36116 0
36115 -36117 0
-36115 36116 36117 0
36118 -36119 0
36118 -36120 0
-36118 36119 36120 0
36121 -36122 0
36121 -36123 0
-36121 36122 36123 0
36124 -36125 0
36124 -36126 0
-36124 36125 36126 0
36127 -36128 0
36127 -36129 0
-36127 36128 36129 0
36130 -36131 0
36130 -36132 0
-36130 36131 36132 0
36133 -36134 0
36133 -36135 0
-36133 36134 36135 0
36136 -36137 0
36136 -36138 0
-36136 36137 36138 0
36139 -36271 0
36139 -36141 0
-36139 36271 36141 0
36142 -36143 0
36142 -36144 0
-36142 36143 36144 0
36145 -36146 0
36145 -36147 0
-36145 36146 36147 0
36148 -36149 0
36148 -36183 0
-36148 36149 36183 0
36151 -36152 0
36151 -36153 0
-36151 36152 36153 0
36154 -36155 0
36154 -36156 0
-36154 36155 36156 0
36157 -36158 0
36157 -36159 0
-36157 36158 36159 0
36160 -36161 0
36160 -36162 0
-36160 36161 36162 0
36163 -36164 0
36163 -36165 0
-36163 36164 36165 0
36166 -36167 0
36166 -36168 0
-36166 36167 36168 0
36169 -36170 0
36169 -36171 0
-36169 36170 36171 0
36172 -36173 0
36172 -36174 0
-36172 36173 36174 0
36175 -36176 0
36175 -36177 0
-36175 36176 36177 0
36178 -36179 0
36178 -36180 0
-36178 36179 36180 0
36181 -36182 0
36181 -36183 0
-36181 36182 36183 0
36184 -36185 0
36184 -36186 0
-36184 36185 36186 0
36187 -36188 0
36187 -36189 0
-36187 36188 36189 0
36190 -36191 0
36190 -36192 0
36190 -36193 0
36190 -36194 0
-36190 36191 36192 36193 36194 0
36195 -36196 0
36195 -36197 0
-36195 36196 36197 0
36198 -36199 0
36198 -36200 0
-36198 36199 36200 0
36201 -36202 0
36201 -36203 0
-36201 36202 36203 0
36204 -36205 0
36204 -36206 0
36204 -36362 0
36204 -36208 0
-36204 36205 36206 36362 36208 0
36209 -36210 0
36209 -36211 0
-36209 36210 36211 0
36212 -36213 0
36212 -36214 0
-36212 36213 36214 0
36215 -36216 0
36215 -36217 0
-36215 36216 36217 0
36218 -36219 0
36218 -36220 0
-36218 36219 36220 0
36221 -36222 0
36221 -36223 0
-36221 36222 36223 0
36224 -36225 0
36224 -36226 0
-36224 36225 36226 0
36227 -36228 0
36227 -36229 0
36227 -36230 0
-36227 36228 36229 36230 0
36231 -36232 0
36231 -36233 0
-36231 36232 36233 0
36234 -36235 0
36234 -36236 0
-36234 36235 36236 0
36237 -36238 0
36237 -36239 0
-36237 36238 36239 0
36240 -36241 0
36240 -36242 0
-36240 36241 36242 0
36243 -36244 0
36243 -36245 0
-36243 36244 36245 0
36327 -36247 0
36327 -36248 0
36327 -36249 0
-36327 36247 36248 36249 0
36250 -36251 0
36250 -36252 0
-36250 36251 36252 0
36253 -36254 0
36253 -36255 0
36253 -36256 0
-36253 36254 36255 36256 0
36257 -36258 0
36257 -36259 0
-36257 36258 36259 0
36260 -36261 0
36260 -36262 0
36260 -36263 0
-36260 36261 36262 36263 0
36264 -36265 0
36264 -36266 0
-36264 36265 36266 0
36267 -36268 0
36267 -36269 0
-36267 36268 36269 0
36270 -36271 0
36270 -36272 0
-36270 36271 36272 0
36273 -36274 0
36273 -36275 0
-36273 36274 36275 0
36276 -36277 0
36276 -36278 0
-36276 36277 36278 0
36279 -36280 0
36279 -36281 0
36279 -36282 0
-36279 36280 36281 36282 0
36283 -36284 0
36283 -36285 0
-36283 36284 36285 0
36286 -36287 0
36286 -36288 0
-36286 36287 36288 0
36289 -36290 0
36289 -36291 0
36289 -36292 0
-36289 36290 36291 36292 0
36293 -36294 0
36293 -36295 0
-36293 36294 36295 0
36296 -36297 0
36296 -36298 0
-36296 36297 36298 0
36299 -36300 0
36299 -36301 0
-36299 36300 36301 0
36302 -36303 0
36302 -36304 0
-36302 36303 36304 0
36305 -36306 0
36305 -36307 0
-36305 36306 36307 0
36308 -36309 0
36308 -36310 0
-36308 36309 36310 0
36311 -36312 0
36311 -36313 0
-36311 36312 36313 0
36314 -36315 0
36314 -36316 0
-36314 36315 36316 0
36364 -36318 0
36364 -36319 0
36364 -36320 0
-36364 36318 36319 36320 0
36321 -36322 0
36321 -36323 0
-36321 36322 36323 0
36324 -36325 0
36324 -36326 0
36324 -36327 0
-36324 36325 36326 36327 0
36328 -36329 0
36328 -36330 0
-36328 36329 36330 0
36331 -36332 0
36331 -36333 0
-36331 36332 36333 0
36334 -36335 0
36334 -36336 0
-36334 36335 36336 0
36337 -36338 0
36337 -36339 0
36337 -36340 0
-36337 36338 36339 36340 0
36341 -36342 0
36341 -36343 0
-36341 36342 36343 0
36344 -36345 0
36344 -36346 0
-36344 36345 36346 0
36347 -36348 0
36347 -36349 0
-36347 36348 36349 0
36396 -36351 0
36396 -36352 0
36396 -36353 0
-36396 36351 36352 36353 0
36354 -36355 0
36354 -36356 0
-36354 36355 36356 0
36357 -36358 0
36357 -36359 0
-36357 36358 36359 0
36360 -36361 0
36360 -36362 0
36360 -36363 0
36360 -36364 0
-36360 36361 36362 36363 36364 0
36408 -36366 0
36408 -36367 0
36408 -36368 0
-36408 36366 36367 36368 0
36369 -36370 0
36369 -36371 0
-36369 36370 36371 0
36372 -36373 0
36372 -36374 0
-36372 36373 36374 0
36375 -36376 0
36375 -36377 0
36375 -36378 0
36375 -36379 0
-36375 36376 36377 36378 36379 0
36380 -36381 0
36380 -36382 0
36380 -36383 0
36380 -36384 0
-36380 36381 36382 36383 36384 0
36385 -36386 0
36385 -36387 0
-36385 36386 36387 0
36388 -36389 0
36388 -36390 0
36388 -36391 0
36388 -36392 0
-36388 36389 36390 36391 36392 0
36393 -36394 0
36393 -36395 0
36393 -36396 0
-36393 36394 36395 36396 0
36397 -36398 0
36397 -36399 0
36397 -36400 0
-36397 36398 36399 36400 0
36401 -36402 0
36401 -36403 0
-36401 36402 36403 0
36404 -36405 0
36404 -36406 0
36404 -36407 0
36404 -36408 0
-36404 36405 36406 36407 36408 0
36409 -36410 0
36409 -36411 0
36409 -36412 0
-36409 36410 36411 36412 0
36413 -36414 0
36413 -36415 0
-36413 36414 36415 0
36416 -36417 0
36416 -36418 0
-36416 36417 36418 0
36419 -36420 0
36419 -36421 0
36419 -36422 0
-36419 36420 36421 36422 0
36423 -36424 0
36423 -36425 0
36423 -36426 0
-36423 36424 36425 36426 0
36427 -36428 0
36427 -36429 0
-36427 36428 36429 0
36430 -36431 0
36430 -36432 0
36430 -36433 0
-36430 36431 36432 36433 0
36434 -36435 0
36434 -36436 0
36434 -36437 0
36434 -36438 0
-36434 36435 36436 36437 36438 0
36439 -36440 0
36439 -36441 0
36439 -36442 0
36439 -36443 0
-36439 36440 36441 36442 36443 0
36444 -36445 0
36444 -36446 0
36444 -36447 0
36444 -36448 0
-36444 36445 36446 36447 36448 0
36449 -36450 0
36449 -36451 0
-36449 36450 36451 0
36452 -36453 0
36452 -36454 0
36452 -36455 0
-36452 36453 36454 36455 0
36456 -36457 0
36456 -36458 0
-36456 36457 36458 0
36459 -36460 0
36459 -36461 0
-36459 36460 36461 0
36462 -36463 0
36462 -36464 0
36462 -36465 0
-36462 36463 36464 36465 0
-36467 38376 0
36467 -38376 0
-36469 37941 0
36469 -37941 0
-36471 37943 0
36471 -37943 0
-36473 38197 0
36473 -38197 0
-36475 37997 0
36475 -37997 0
-36477 37845 0
36477 -37845 0
37926 37904 0
-37926 -37904 0
37582 37874 0
-37582 -37874 0
37901 37974 0
-37901 -37974 0
37868 37542 0
-37868 -37542 0
37862 37866 0
-37862 -37866 0
37865 37841 0
-37865 -37841 0
37875 37323 0
-37875 -37323 0
37877 37845 0
-37877 -37845 0
37886 37997 0
-37886 -37997 0
38194 38197 0
-38194 -38197 0
37986 37943 0
-37986 -37943 0
38034 37941 0
-38034 -37941 0
38101 38376 0
-38101 -38376 0
38332 37840 0
-38332 -37840 0
36509 38197 0
-36509 -38197 0
37944 36509 0
-37944 -36509 0
37946 37846 0
-37946 -37846 0
36515 37974 0
-36515 -37974 0
36908 36515 0
-36908 -36515 0
38104 37849 0
-38104 -37849 0
36521 37986 0
-36521 -37986 0
37971 36521 0
-37971 -36521 0
37537 37855 0
-37537 -37855 0
37371 37858 0
-37371 -37858 0
38333 37861 0
-38333 -37861 0
36531 37861 0
-36531 -37861 0
38025 36531 0
-38025 -36531 0
37398 37867 0
-37398 -37867 0
37263 37925 0
-37263 -37925 0
37026 37876 0
-37026 -37876 0
37982 37879 0
-37982 -37879 0
37985 37882 0
-37985 -37882 0
37399 37885 0
-37399 -37885 0
37991 37888 0
-37991 -37888 0
37994 37891 0
-37994 -37891 0
38054 37894 0
-38054 -37894 0
37099 37940 0
-37099 -37940 0
37280 37900 0
-37280 -37900 0
38009 37903 0
-38009 -37903 0
37153 37906 0
-37153 -37906 0
37357 37955 0
-37357 -37955 0
38024 37912 0
-38024 -37912 0
38205 37915 0
-38205 -37915 0
38039 37918 0
-38039 -37918 0
36569 37941 0
-36569 -37941 0
37365 36569 0
-37365 -36569 0
38285 37939 0
-38285 -37939 0
36575 36780 0
-36575 -36780 0
37414 36575 0
-37414 -36575 0
36579 37017 0
-36579 -37017 0
37468 36579 0
-37468 -36579 0
38196 37993 0
-38196 -37993 0
36582 37273 0
-36582 -37273 0
36584 37482 0
-36584 -37482 0
37689 38195 0
-37689 -38195 0
36588 37562 0
-36588 -37562 0
36590 38248 0
-36590 -38248 0
36592 38257 0
-36592 -38257 0
36594 37683 0
-36594 -37683 0
36596 38351 0
-36596 -38351 0
36598 37703 0
-36598 -37703 0
36600 38368 0
-36600 -38368 0
36602 37767 0
-36602 -37767 0
36604 37771 0
-36604 -37771 0
36606 38399 0
-36606 -38399 0
36608 38411 0
-36608 -38411 0
36610 38423 0
-36610 -38423 0
36612 38433 0
-36612 -38433 0
36631 38437 0
-36631 -38437 0
36616 38441 0
-36616 -38441 0
36633 38444 0
-36633 -38444 0
36635 38448 0
-36635 -38448 0
36639 38453 0
-36639 -38453 0
36641 38458 0
-36641 -38458 0
36626 38463 0
-36626 -38463 0
36643 38466 0
-36643 -38466 0
37823 36631 0
-37823 -36631 0
37826 36633 0
-37826 -36633 0
37829 36635 0
-37829 -36635 0
36636 38470 0
-36636 -38470 0
37832 36639 0
-37832 -36639 0
37835 36641 0
-37835 -36641 0
37838 36643 0
-37838 -36643 0
36644 38476 0
-36644 -38476 0
-37937 38197 0
-37937 37943 0
37937 -38197 -37943 0
-37947 38197 0
-37947 37943 0
37947 -38197 -37943 0
-37988 37997 0
-37988 38197 0
-37988 37943 0
37988 -37997 -38197 -37943 0
-37964 37997 0
-37964 37941 0
37964 -37997 -37941 0
-37949 37904 0
-37949 37941 0
37949 -37904 -37941 0
-38049 37904 0
-38049 37941 0
38049 -37904 -37941 0
-37979 37974 0
-37979 37941 0
37979 -37974 -37941 0
-38213 38197 0
-38213 37941 0
38213 -38197 -37941 0
-37923 37874 0
-37923 38376 0
37923 -37874 -38376 0
-37928 37868 0
-37928 37875 0
37928 -37868 -37875 0
-37277 37542 0
-37277 37877 0
-37277 37943 0
37277 -37542 -37877 -37943 0
-37932 37904 0
-37932 37886 0
-37932 37941 0
37932 -37904 -37886 -37941 0
-37967 37875 0
-37967 37877 0
-37967 37886 0
-37967 38376 0
37967 -37875 -37877 -37886 -38376 0
-37992 37886 0
-37992 37941 0
37992 -37886 -37941 0
-38067 37886 0
-38067 38197 0
-38067 38376 0
38067 -37886 -38197 -38376 0
-37983 37886 0
-37983 38197 0
-37983 37943 0
37983 -37886 -38197 -37943 0
-36920 37874 0
-36920 37323 0
-36920 37877 0
-36920 37886 0
36920 -37874 -37323 -37877 -37886 0
-37931 37901 0
-37931 37997 0
-37931 38194 0
37931 -37901 -37997 -38194 0
-37934 38194 0
-37934 37941 0
37934 -38194 -37941 0
-37953 37868 0
-37953 38194 0
37953 -37868 -38194 0
-38076 37877 0
-38076 37886 0
-38076 38194 0
38076 -37877 -37886 -38194 0
-37281 37845 0
-37281 37997 0
-37281 38194 0
37281 -37845 -37997 -38194 0
-37938 37886 0
-37938 37986 0
37938 -37886 -37986 0
-38052 37874 0
-38052 37986 0
-38052 38376 0
38052 -37874 -37986 -38376 0
-38085 37886 0
-38085 37986 0
-38085 37941 0
38085 -37886 -37986 -37941 0
-38073 37986 0
-38073 38376 0
38073 -37986 -38376 0
-38107 37582 0
-38107 38197 0
-38107 37986 0
38107 -37582 -38197 -37986 0
-37956 37886 0
-37956 37986 0
37956 -37886 -37986 0
-38347 37997 0
-38347 37941 0
-38347 37846 0
38347 -37997 -37941 -37846 0
-37950 37943 0
-37950 38034 0
37950 -37943 -38034 0
-37959 37323 0
-37959 38034 0
37959 -37323 -38034 0
-37016 37877 0
-37016 38197 0
-37016 38034 0
37016 -37877 -38197 -38034 0
-38010 38194 0
-38010 38034 0
38010 -38194 -38034 0
-38046 37886 0
-38046 38034 0
38046 -37886 -38034 0
-38140 37943 0
-38140 38034 0
38140 -37943 -38034 0
-38040 38197 0
-38040 38034 0
38040 -38197 -38034 0
-38058 37943 0
-38058 38034 0
38058 -37943 -38034 0
-38006 37943 0
-38006 38034 0
38006 -37943 -38034 0
-38375 37943 0
-38375 38034 0
38375 -37943 -38034 0
-36780 37997 0
-36780 37849 0
36780 -37997 -37849 0
-38061 37849 0
-38061 38376 0
38061 -37849 -38376 0
-37965 37877 0
-37965 38101 0
37965 -37877 -38101 0
-37968 37997 0
-37968 38101 0
37968 -37997 -38101 0
-38137 37877 0
-38137 38197 0
-38137 37986 0
-38137 38101 0
38137 -37877 -38197 -37986 -38101 0
-38143 37886 0
-38143 38197 0
-38143 38034 0
-38143 38101 0
38143 -37886 -38197 -38034 -38101 0
-38019 37886 0
-38019 38034 0
-38019 38101 0
38019 -37886 -38034 -38101 0
-38173 37886 0
-38173 38197 0
-38173 37986 0
-38173 38101 0
38173 -37886 -38197 -37986 -38101 0
-38022 37865 0
-38022 38034 0
-38022 38101 0
38022 -37865 -38034 -38101 0
-38149 37886 0
-38149 38034 0
-38149 38101 0
38149 -37886 -38034 -38101 0
-38037 37542 0
-38037 37986 0
-38037 38101 0
38037 -37542 -37986 -38101 0
-38031 37986 0
-38031 38101 0
38031 -37986 -38101 0
-38182 37846 0
-38182 38101 0
38182 -37846 -38101 0
-38043 37886 0
-38043 38197 0
-38043 38034 0
-38043 38101 0
38043 -37886 -38197 -38034 -38101 0
-38028 38034 0
-38028 38101 0
38028 -38034 -38101 0
-38191 37843 0
-38191 38101 0
-38191 37846 0
38191 -37843 -38101 -37846 0
-38158 37875 0
-38158 38034 0
-38158 38101 0
38158 -37875 -38034 -38101 0
-38211 38101 0
-38211 37849 0
38211 -38101 -37849 0
-38324 37845 0
-38324 38101 0
38324 -37845 -38101 0
-38095 37852 0
-38095 37941 0
38095 -37852 -37941 0
-37970 37858 0
-37970 38034 0
37970 -37858 -38034 0
-37977 37986 0
-37977 37864 0
37977 -37986 -37864 0
-37980 37867 0
-37980 38034 0
37980 -37867 -38034 0
-38001 37870 0
-38001 38034 0
-38001 38101 0
38001 -37870 -38034 -38101 0
-38179 37876 0
-38179 37865 0
-38179 38197 0
-38179 38101 0
38179 -37876 -37865 -38197 -38101 0
-37989 37885 0
-37989 37986 0
37989 -37885 -37986 0
-38004 37941 0
-38004 37888 0
38004 -37941 -37888 0
-37998 37894 0
-37998 37941 0
37998 -37894 -37941 0
-38098 37997 0
-38098 37940 0
38098 -37997 -37940 0
-38000 37941 0
-38000 37940 0
38000 -37941 -37940 0
-38003 37900 0
-38003 38034 0
38003 -37900 -38034 0
-38007 37941 0
-38007 37900 0
38007 -37941 -37900 0
-38091 37875 0
-38091 37886 0
-38091 38376 0
-38091 37946 0
38091 -37875 -37886 -38376 -37946 0
-38396 37997 0
-38396 38101 0
-38396 37946 0
38396 -37997 -38101 -37946 0
-38016 38197 0
-38016 38376 0
-38016 37906 0
38016 -38197 -38376 -37906 0
-38377 37997 0
-38377 36908 0
38377 -37997 -36908 0
-38263 38197 0
-38263 37955 0
38263 -38197 -37955 0
-38122 37323 0
-38122 38376 0
-38122 38104 0
38122 -37323 -38376 -38104 0
-38113 38197 0
-38113 38101 0
-38113 38104 0
-38113 36920 0
38113 -38197 -38101 -38104 -36920 0
-38116 37886 0
-38116 38194 0
-38116 38104 0
38116 -37886 -38194 -38104 0
-38185 38197 0
-38185 38104 0
38185 -38197 -38104 0
-38015 37542 0
-38015 38101 0
-38015 38104 0
38015 -37542 -38101 -38104 0
-38298 37875 0
-38298 38197 0
-38298 38101 0
-38298 38104 0
38298 -37875 -38197 -38101 -38104 0
-38246 38197 0
-38246 38376 0
-38246 38104 0
38246 -38197 -38376 -38104 0
-37241 37877 0
-37241 37886 0
-37241 38104 0
37241 -37877 -37886 -38104 0
-38027 37912 0
-38027 38194 0
38027 -37912 -38194 0
-38200 37946 0
-38200 37912 0
38200 -37946 -37912 0
-38030 37915 0
-38030 38194 0
38030 -37915 -38194 0
-38088 37918 0
-38088 37986 0
38088 -37918 -37986 0
-38063 37886 0
-38063 37943 0
-38063 37537 0
38063 -37886 -37943 -37537 0
-38291 38034 0
-38291 37537 0
38291 -38034 -37537 0
-38454 37997 0
-38454 37943 0
-38454 37537 0
38454 -37997 -37943 -37537 0
-38042 37921 0
-38042 37997 0
-38042 37941 0
38042 -37921 -37997 -37941 0
-38188 37371 0
-38188 37846 0
38188 -37371 -37846 0
-38045 37997 0
-38045 37941 0
-38045 38333 0
38045 -37997 -37941 -38333 0
-38070 37886 0
-38070 38194 0
-38070 38034 0
-38070 38333 0
38070 -37886 -38194 -38034 -38333 0
-38048 37986 0
-38048 38333 0
38048 -37986 -38333 0
-38051 37997 0
-38051 38101 0
-38051 38333 0
38051 -37997 -38101 -38333 0
-38055 38197 0
-38055 38333 0
38055 -38197 -38333 0
-38145 37537 0
-38145 38333 0
38145 -37537 -38333 0
-38255 37886 0
-38255 38194 0
-38255 38104 0
-38255 38333 0
38255 -37886 -38194 -38104 -38333 0
-38288 38034 0
-38288 37537 0
-38288 38333 0
38288 -38034 -37537 -38333 0
-38252 38101 0
-38252 37946 0
-38252 38333 0
38252 -38101 -37946 -38333 0
-38219 37882 0
-38219 38333 0
38219 -37882 -38333 0
-38133 38101 0
-38133 37398 0
-38133 37016 0
38133 -38101 -37398 -37016 0
-37017 37542 0
-37017 38376 0
-37017 37924 0
37017 -37542 -38376 -37924 0
-38057 37927 0
-38057 37986 0
38057 -37927 -37986 0
-38060 38101 0
-38060 37026 0
38060 -38101 -37026 0
-38064 38197 0
-38064 37941 0
-38064 37982 0
38064 -38197 -37941 -37982 0
-38110 37901 0
-38110 37845 0
-38110 37982 0
38110 -37901 -37845 -37982 0
-38066 37901 0
-38066 38101 0
-38066 37985 0
38066 -37901 -38101 -37985 0
-38124 38376 0
-38124 37985 0
38124 -38376 -37985 0
-38166 38101 0
-38166 37985 0
38166 -38101 -37985 0
-38127 37855 0
-38127 37985 0
38127 -37855 -37985 0
-38069 37974 0
-38069 37399 0
38069 -37974 -37399 0
-38072 38101 0
-38072 37399 0
38072 -38101 -37399 0
-38075 37941 0
-38075 37399 0
38075 -37941 -37399 0
-38079 37997 0
-38079 37991 0
38079 -37997 -37991 0
-38082 37997 0
-38082 37941 0
-38082 37991 0
38082 -37997 -37941 -37991 0
-38272 37997 0
-38272 37941 0
-38272 37991 0
38272 -37997 -37941 -37991 0
-38373 37997 0
-38373 37941 0
-38373 37991 0
38373 -37997 -37941 -37991 0
-38350 37877 0
-38350 37943 0
-38350 37930 0
38350 -37877 -37943 -37930 0
-38339 37986 0
-38339 37933 0
38339 -37986 -37933 0
-38078 37886 0
-38078 38194 0
-38078 37994 0
38078 -37886 -38194 -37994 0
-38081 37886 0
-38081 38194 0
-38081 37994 0
38081 -37886 -38194 -37994 0
-38084 37985 0
-38084 38054 0
38084 -37985 -38054 0
-38087 38376 0
-38087 38054 0
38087 -38376 -38054 0
-38090 37323 0
-38090 37099 0
-38090 37399 0
38090 -37323 -37099 -37399 0
-38151 37903 0
-38151 37099 0
38151 -37903 -37099 0
-38269 37939 0
-38269 38197 0
38269 -37939 -38197 0
-38097 38101 0
-38097 37280 0
38097 -38101 -37280 0
-38118 38034 0
-38118 37280 0
38118 -38034 -37280 0
-38301 38034 0
-38301 38101 0
-38301 37280 0
38301 -38034 -38101 -37280 0
-38432 37942 0
-38432 37974 0
-38432 37997 0
-38432 37941 0
38432 -37942 -37974 -37997 -37941 0
-38277 37945 0
-38277 37886 0
-38277 37941 0
38277 -37945 -37886 -37941 0
-38100 38194 0
-38100 37153 0
38100 -38194 -37153 0
-38103 37926 0
-38103 37153 0
38103 -37926 -37153 0
-38169 38197 0
-38169 37153 0
38169 -38197 -37153 0
-38106 38194 0
-38106 37153 0
38106 -38194 -37153 0
-38109 37865 0
-38109 37877 0
-38109 37886 0
-38109 37153 0
38109 -37865 -37877 -37886 -37153 0
-38112 37997 0
-38112 38194 0
-38112 37153 0
38112 -37997 -38194 -37153 0
-38115 37904 0
-38115 37925 0
-38115 37997 0
-38115 37153 0
38115 -37904 -37925 -37997 -37153 0
-38130 38194 0
-38130 37153 0
38130 -38194 -37153 0
-38216 37886 0
-38216 37153 0
38216 -37886 -37153 0
-38119 38012 0
-38119 37886 0
38119 -38012 -37886 0
-38121 37904 0
-38121 37943 0
-38121 37357 0
38121 -37904 -37943 -37357 0
-38125 37886 0
-38125 38197 0
-38125 37357 0
38125 -37886 -38197 -37357 0
-38176 37943 0
-38176 37357 0
38176 -37943 -37357 0
-38128 37886 0
-38128 37357 0
38128 -37886 -37357 0
-38265 37986 0
-38265 37357 0
38265 -37986 -37357 0
-38230 37943 0
-38230 37357 0
38230 -37943 -37357 0
-38321 37879 0
-38321 38197 0
-38321 37357 0
38321 -37879 -38197 -37357 0
-38282 38197 0
-38282 37943 0
-38282 37357 0
38282 -38197 -37943 -37357 0
-38227 37886 0
-38227 37986 0
-38227 37357 0
38227 -37886 -37986 -37357 0
-38308 37874 0
-38308 38197 0
-38308 37357 0
38308 -37874 -38197 -37357 0
-38202 38194 0
-38202 37357 0
-38202 38333 0
-38202 37994 0
38202 -38194 -37357 -38333 -37994 0
-38336 37886 0
-38336 37986 0
-38336 37357 0
38336 -37886 -37986 -37357 0
-38362 38197 0
-38362 37943 0
-38362 37357 0
38362 -38197 -37943 -37357 0
-38344 37357 0
-38344 37894 0
38344 -37357 -37894 0
-38329 38197 0
-38329 37986 0
-38329 37357 0
38329 -38197 -37986 -37357 0
-38352 37886 0
-38352 37986 0
-38352 37357 0
38352 -37886 -37986 -37357 0
-38359 37936 0
-38359 37357 0
38359 -37936 -37357 0
-38428 37946 0
-38428 37357 0
38428 -37946 -37357 0
-38242 37951 0
-38242 37986 0
38242 -37951 -37986 0
-38208 38197 0
-38208 37954 0
38208 -38197 -37954 0
-38131 37957 0
-38131 37986 0
38131 -37957 -37986 0
-38353 37960 0
-38353 37997 0
38353 -37960 -37997 0
-38435 37997 0
-38435 37960 0
38435 -37997 -37960 0
-38464 37537 0
-38464 38333 0
-38464 37241 0
38464 -37537 -38333 -37241 0
-38134 37974 0
-38134 37845 0
-38134 38194 0
-38134 38024 0
38134 -37974 -37845 -38194 -38024 0
-38136 37845 0
-38136 37997 0
-38136 38024 0
-38136 38054 0
38136 -37845 -37997 -38024 -38054 0
-38139 37986 0
-38139 38024 0
38139 -37986 -38024 0
-38142 37901 0
-38142 37997 0
-38142 38024 0
38142 -37901 -37997 -38024 0
-38146 37542 0
-38146 37997 0
-38146 38024 0
-38146 37263 0
38146 -37542 -37997 -38024 -37263 0
-38148 37323 0
-38148 38024 0
38148 -37323 -38024 0
-38152 37986 0
-38152 38024 0
38152 -37986 -38024 0
-38160 37997 0
-38160 38024 0
38160 -37997 -38024 0
-37273 38024 0
-37273 37399 0
-37273 37925 0
-37273 37277 0
37273 -38024 -37399 -37925 -37277 0
-38258 38024 0
-38258 37280 0
-38258 37281 0
38258 -38024 -37280 -37281 0
-38155 37986 0
-38155 38024 0
38155 -37986 -38024 0
-38279 38197 0
-38279 37943 0
-38279 38024 0
38279 -38197 -37943 -38024 0
-38311 37582 0
-38311 37986 0
-38311 38024 0
38311 -37582 -37986 -38024 0
-38157 37924 0
-38157 37542 0
-38157 38024 0
38157 -37924 -37542 -38024 0
-38395 38197 0
-38395 38024 0
38395 -38197 -38024 0
-38161 37582 0
-38161 37963 0
38161 -37582 -37963 0
-38163 37868 0
-38163 38205 0
38163 -37868 -38205 0
-38239 38034 0
-38239 38205 0
38239 -38034 -38205 0
-38224 38034 0
-38224 38205 0
38224 -38034 -38205 0
-38421 38197 0
-38421 38034 0
-38421 38205 0
38421 -38197 -38034 -38205 0
-38367 38034 0
-38367 38205 0
38367 -38034 -38205 0
-38167 37868 0
-38167 37966 0
38167 -37868 -37966 0
-38170 37323 0
-38170 38104 0
-38170 38039 0
38170 -37323 -38104 -38039 0
-38172 38034 0
-38172 38039 0
38172 -38034 -38039 0
-38175 37845 0
-38175 38039 0
38175 -37845 -38039 0
-38178 37845 0
-38178 37943 0
-38178 38039 0
38178 -37845 -37943 -38039 0
-38181 37986 0
-38181 38039 0
38181 -37986 -38039 0
-38184 37906 0
-38184 38039 0
38184 -37906 -38039 0
-38187 37943 0
-38187 38039 0
38187 -37943 -38039 0
-38190 37943 0
-38190 38039 0
38190 -37943 -38039 0
-38236 37845 0
-38236 37997 0
-38236 38039 0
38236 -37845 -37997 -38039 0
-38305 37969 0
-38305 38194 0
38305 -37969 -38194 0
-38193 37972 0
-38193 37357 0
38193 -37972 -37357 0
-38206 37975 0
-38206 38034 0
38206 -37975 -38034 0
-38222 37997 0
-38222 37978 0
38222 -37997 -37978 0
-38446 37365 0
-38446 37845 0
-38446 38197 0
-38446 38101 0
38446 -37365 -37845 -38197 -38101 0
-38390 37981 0
-38390 37371 0
38390 -37981 -37371 0
-38296 37984 0
-38296 38376 0
38296 -37984 -38376 0
-38318 37845 0
-38318 38101 0
-38318 37987 0
38318 -37845 -38101 -37987 0
-38340 37990 0
-38340 37864 0
38340 -37990 -37864 0
-38436 37845 0
-38436 38101 0
-38436 37996 0
38436 -37845 -38101 -37996 0
-38199 38197 0
-38199 38285 0
38199 -38197 -38285 0
-38249 37845 0
-38249 38285 0
-38249 37399 0
38249 -37845 -38285 -37399 0
-38233 38194 0
-38233 38285 0
38233 -38194 -38285 0
-38356 38285 0
-38356 37398 0
-38356 37399 0
38356 -38285 -37398 -37399 0
-38203 37999 0
-38203 38197 0
38203 -37999 -38197 0
-38207 37997 0
-38207 38002 0
38207 -37997 -38002 0
-38210 38194 0
-38210 38005 0
38210 -38194 -38005 0
-38214 37877 0
-38214 38008 0
38214 -37877 -38008 0
-38217 37845 0
-38217 37414 0
38217 -37845 -37414 0
-38220 38011 0
-38220 37886 0
38220 -38011 -37886 0
-38382 37997 0
-38382 38014 0
38382 -37997 -38014 0
-38295 37868 0
-38295 38017 0
38295 -37868 -38017 0
-38225 38020 0
-38225 37986 0
38225 -38020 -37986 0
-38306 38023 0
-38306 37986 0
38306 -38023 -37986 0
-38228 38026 0
-38228 37997 0
-38228 37943 0
38228 -38026 -37997 -37943 0
-38327 38029 0
-38327 37845 0
-38327 38034 0
38327 -38029 -37845 -38034 0
-38231 38032 0
-38231 37986 0
38231 -38032 -37986 0
-38449 38035 0
-38449 37985 0
38449 -38035 -37985 0
-38412 38038 0
-38412 37982 0
38412 -38038 -37982 0
-38234 38041 0
-38234 37986 0
38234 -38041 -37986 0
-38237 38044 0
-38237 37877 0
-38237 38197 0
-38237 38101 0
38237 -38044 -37877 -38197 -38101 0
-38240 38047 0
-38240 38101 0
38240 -38047 -38101 0
-38315 37877 0
-38315 37941 0
-38315 38050 0
38315 -37877 -37941 -38050 0
-38243 37901 0
-38243 38101 0
-38243 38053 0
38243 -37901 -38101 -38053 0
-38244 38197 0
-38244 37468 0
38244 -38197 -37468 0
-38270 38056 0
-38270 38376 0
38270 -38056 -38376 0
-38247 38059 0
-38247 38194 0
38247 -38059 -38194 0
-38420 38062 0
-38420 37861 0
38420 -38062 -37861 0
-38250 38065 0
-38250 37877 0
-38250 37986 0
38250 -38065 -37877 -37986 0
-37482 38068 0
-37482 37877 0
-37482 37986 0
-37482 38101 0
37482 -38068 -37877 -37986 -38101 0
-38253 37868 0
-38253 38071 0
38253 -37868 -38071 0
-38275 38074 0
-38275 38333 0
38275 -38074 -38333 0
-38256 38077 0
-38256 37840 0
-38256 37941 0
38256 -38077 -37840 -37941 0
-38388 37864 0
-38388 38080 0
-38388 38101 0
38388 -37864 -38080 -38101 0
-38462 37845 0
-38462 38101 0
-38462 38083 0
38462 -37845 -38101 -38083 0
-38445 38086 0
-38445 37985 0
38445 -38086 -37985 0
-38259 38089 0
-38259 37542 0
-38259 37877 0
-38259 38034 0
38259 -38089 -37542 -37877 -38034 0
-38262 37886 0
-38262 38092 0
38262 -37886 -38092 0
-38261 38096 0
-38261 38034 0
38261 -38096 -38034 0
-38266 38099 0
-38266 37997 0
38266 -38099 -37997 0
-38268 38101 0
-38268 38102 0
-38268 38333 0
38268 -38101 -38102 -38333 0
-38273 37886 0
-38273 38194 0
-38273 38102 0
38273 -37886 -38194 -38102 0
-38409 37886 0
-38409 38101 0
-38409 38105 0
38409 -37886 -38101 -38105 0
-38424 37926 0
-38424 38108 0
-38424 37537 0
38424 -37926 -38108 -37537 0
-38455 37901 0
-38455 38111 0
38455 -37901 -38111 0
-38404 37542 0
-38404 38114 0
-38404 38376 0
38404 -37542 -38114 -38376 0
-38276 37877 0
-38276 38117 0
-38276 38194 0
38276 -37877 -38117 -38194 0
-38280 38120 0
-38280 38194 0
38280 -38120 -38194 0
-38460 38123 0
-38460 37986 0
38460 -38123 -37986 0
-38283 38126 0
-38283 37986 0
38283 -38126 -37986 0
-38393 37886 0
-38393 38376 0
-38393 38129 0
38393 -37886 -38376 -38129 0
-37562 38132 0
-37562 37997 0
-37562 37943 0
37562 -38132 -37997 -37943 0
-38461 37974 0
-38461 38135 0
38461 -37974 -38135 0
-38286 38138 0
-38286 37886 0
38286 -38138 -37886 0
-38408 38197 0
-38408 38138 0
38408 -38197 -38138 0
-38289 37582 0
-38289 38141 0
38289 -37582 -38141 0
-38292 37926 0
-38292 38144 0
38292 -37926 -38144 0
-38294 37582 0
-38294 38147 0
38294 -37582 -38147 0
-38299 38150 0
-38299 38194 0
38299 -38150 -38194 0
-38302 38153 0
-38302 37886 0
38302 -38153 -37886 0
-38304 38156 0
-38304 38197 0
38304 -38156 -38197 0
-38309 38159 0
-38309 38194 0
38309 -38159 -38194 0
-38312 38162 0
-38312 37886 0
38312 -38162 -37886 0
-38467 38165 0
-38467 37946 0
38467 -38165 -37946 0
-38406 37886 0
-38406 38168 0
38406 -37886 -38168 0
-38365 37875 0
-38365 38171 0
38365 -37875 -38171 0
-38314 38174 0
-38314 37997 0
38314 -38174 -37997 0
-38317 37901 0
-38317 37997 0
-38317 38177 0
38317 -37901 -37997 -38177 0
-38320 38180 0
-38320 37985 0
38320 -38180 -37985 0
-38440 37845 0
-38440 38183 0
-38440 37997 0
38440 -37845 -38183 -37997 0
-38323 38186 0
-38323 37941 0
38323 -38186 -37941 0
-38326 38189 0
-38326 37941 0
38326 -38189 -37941 0
-38330 38192 0
-38330 37943 0
38330 -38192 -37943 0
-38334 38195 0
-38334 37886 0
38334 -38195 -37886 0
-38337 38198 0
-38337 37997 0
38337 -38198 -37997 0
-38385 37886 0
-38385 38201 0
38385 -37886 -38201 0
-38370 37877 0
-38370 38204 0
38370 -37877 -38204 0
-38343 37997 0
-38343 38209 0
38343 -37997 -38209 0
-38346 38212 0
-38346 37943 0
38346 -38212 -37943 0
-38349 38215 0
-38349 38197 0
38349 -38215 -38197 0
-38354 37877 0
-38354 38218 0
38354 -37877 -38218 0
-38357 38223 0
-38357 37886 0
-38357 38194 0
38357 -38223 -37886 -38194 0
-38413 37845 0
-38413 38226 0
38413 -37845 -38226 0
-38360 37997 0
-38360 38229 0
38360 -37997 -38229 0
-38380 37974 0
-38380 38232 0
38380 -37974 -38232 0
-38438 37901 0
-38438 38235 0
38438 -37901 -38235 0
-38363 38238 0
-38363 38194 0
38363 -38238 -38194 0
-38366 37997 0
-38366 38241 0
38366 -37997 -38241 0
-38369 38245 0
-38369 37997 0
38369 -38245 -37997 0
-38392 38251 0
-38392 38034 0
38392 -38251 -38034 0
-37683 38254 0
-37683 37877 0
-37683 38101 0
37683 -38254 -37877 -38101 0
-38372 37886 0
-38372 37689 0
38372 -37886 -37689 0
-38417 37845 0
-38417 38264 0
38417 -37845 -38264 0
-38397 38267 0
-38397 37886 0
38397 -38267 -37886 0
-37770 38271 0
-37770 37866 0
-37770 37865 0
37770 -38271 -37866 -37865 0
-38401 38274 0
-38401 38101 0
38401 -38274 -38101 0
-37703 38278 0
-37703 37877 0
-37703 37886 0
37703 -38278 -37877 -37886 0
-38457 37845 0
-38457 38281 0
38457 -37845 -38281 0
-38474 38284 0
-38474 38194 0
38474 -38284 -38194 0
-38381 38287 0
-38381 37986 0
38381 -38287 -37986 0
-38403 38290 0
-38403 37943 0
38403 -38290 -37943 0
-38384 38293 0
-38384 38197 0
38384 -38293 -38197 0
-38419 37886 0
-38419 38297 0
38419 -37886 -38297 0
-38387 38300 0
-38387 38194 0
38387 -38300 -38194 0
-38391 37997 0
-38391 38303 0
38391 -37997 -38303 0
-38479 38307 0
-38479 37943 0
38479 -38307 -37943 0
-38398 37974 0
-38398 38310 0
38398 -37974 -38310 0
-38451 37901 0
-38451 38313 0
38451 -37901 -38313 0
-38425 38316 0
-38425 37941 0
38425 -38316 -37941 0
-38442 38319 0
-38442 37845 0
38442 -38319 -37845 0
-38472 37997 0
-38472 38322 0
38472 -37997 -38322 0
-38400 37997 0
-38400 38325 0
38400 -37997 -38325 0
-38405 37997 0
-38405 38328 0
38405 -37997 -38328 0
-38477 38335 0
-38477 37845 0
38477 -38335 -37845 0
-38414 37877 0
-38414 38338 0
38414 -37877 -38338 0
-38468 37845 0
-38468 38342 0
38468 -37845 -38342 0
-38416 38345 0
-38416 38101 0
38416 -38345 -38101 0
-37767 37877 0
-37767 38101 0
-37767 37770 0
37767 -37877 -38101 -37770 0
-37771 38348 0
-37771 38101 0
37771 -38348 -38101 0
-38426 37877 0
-38426 38355 0
38426 -37877 -38355 0
-38452 37845 0
-38452 38358 0
38452 -37845 -38358 0
-38429 37877 0
-38429 38361 0
38429 -37877 -38361 0
-38431 38371 0
-38431 38333 0
38431 -38371 -38333 0
-38434 37877 0
-38434 38374 0
38434 -37877 -38374 0
-38439 38383 0
-38439 37877 0
38439 -38383 -37877 0
-38443 38386 0
-38443 37877 0
38443 -38386 -37877 0
-38447 37877 0
-38447 38389 0
38447 -37877 -38389 0
-38450 38394 0
-38450 37877 0
38450 -38394 -37877 0
-38456 38402 0
-38456 37877 0
38456 -38402 -37877 0
-38459 38407 0
-38459 37877 0
38459 -38407 -37877 0
-38465 38415 0
-38465 37974 0
38465 -38415 -37974 0
-38469 37877 0
-38469 38418 0
38469 -37877 -38418 0
-38471 38427 0
-38471 37886 0
38471 -38427 -37886 0
-38475 38430 0
-38475 38101 0
38475 -38430 -38101 0
-38478 37877 0
-38478 38473 0
38478 -37877 -38473 0
-38491 37823 0
-38491 37839 0
38491 -37823 -37839 0
-38485 37826 0
-38485 37839 0
38485 -37826 -37839 0
-38489 37829 0
-38489 37839 0
38489 -37829 -37839 0
-38481 37832 0
-38481 37839 0
38481 -37832 -37839 0
-38483 37835 0
-38483 37839 0
38483 -37835 -37839 0
-38487 37838 0
-38487 37839 0
38487 -37838 -37839 0
37840 -37841 0
37840 -37866 0
-37840 37841 37866 0
37843 -37974 0
37843 -37845 0
-37843 37974 37845 0
37846 -38197 0
37846 -37943 0
-37846 38197 37943 0
37849 -37943 0
37849 -37941 0
-37849 37943 37941 0
37852 -37904 0
37852 -38376 0
-37852 37904 38376 0
37855 -38197 0
37855 -38376 0
-37855 38197 38376 0
37858 -37901 0
37858 -38376 0
-37858 37901 38376 0
37861 -37862 0
37861 -37865 0
-37861 37862 37865 0
37864 -37865 0
37864 -37866 0
-37864 37865 37866 0
37867 -37868 0
37867 -37875 0
-37867 37868 37875 0
37870 -37875 0
37870 -37943 0
-37870 37875 37943 0
37925 -37874 0
37925 -37875 0
-37925 37874 37875 0
37876 -37877 0
37876 -37943 0
-37876 37877 37943 0
37879 -37886 0
37879 -37943 0
-37879 37886 37943 0
37882 -37886 0
37882 -37941 0
-37882 37886 37941 0
37885 -37886 0
37885 -38194 0
-37885 37886 38194 0
37888 -38194 0
37888 -37974 0
-37888 38194 37974 0
37891 -37904 0
37891 -37986 0
-37891 37904 37986 0
37894 -37986 0
37894 -38197 0
-37894 37986 38197 0
37940 -37986 0
37940 -38376 0
-37940 37986 38376 0
37900 -37901 0
37900 -37986 0
-37900 37901 37986 0
37903 -37904 0
37903 -38034 0
-37903 37904 38034 0
37906 -37986 0
37906 -38034 0
-37906 37986 38034 0
37955 -38034 0
37955 -38376 0
-37955 38034 38376 0
37912 -38034 0
37912 -38101 0
-37912 38034 38101 0
37915 -37986 0
37915 -38101 0
-37915 37986 38101 0
37918 -38197 0
37918 -38101 0
-37918 38197 38101 0
37921 -38197 0
37921 -37923 0
-37921 38197 37923 0
37924 -37925 0
37924 -37926 0
-37924 37925 37926 0
37927 -37928 0
37927 -37941 0
-37927 37928 37941 0
37930 -37931 0
37930 -37932 0
-37930 37931 37932 0
37933 -37934 0
37933 -38376 0
-37933 37934 38376 0
37936 -37937 0
37936 -37938 0
-37936 37937 37938 0
37939 -37940 0
37939 -37941 0
-37939 37940 37941 0
37942 -37943 0
37942 -37944 0
-37942 37943 37944 0
37945 -37946 0
37945 -37947 0
-37945 37946 37947 0
38012 -37949 0
38012 -37950 0
-38012 37949 37950 0
37951 -37955 0
37951 -37953 0
-37951 37955 37953 0
37954 -37955 0
37954 -37956 0
-37954 37955 37956 0
37957 -38197 0
37957 -37959 0
-37957 38197 37959 0
37960 -38104 0
37960 -38194 0
-37960 38104 38194 0
37963 -37964 0
37963 -37965 0
-37963 37964 37965 0
37966 -37967 0
37966 -37968 0
-37966 37967 37968 0
37969 -37970 0
37969 -37971 0
-37969 37970 37971 0
37972 -38333 0
37972 -37974 0
-37972 38333 37974 0
37975 -38376 0
37975 -37977 0
-37975 38376 37977 0
37978 -37979 0
37978 -37980 0
-37978 37979 37980 0
37981 -37982 0
37981 -37983 0
-37981 37982 37983 0
37984 -37985 0
37984 -37986 0
-37984 37985 37986 0
37987 -37988 0
37987 -37989 0
-37987 37988 37989 0
37990 -37991 0
37990 -37992 0
-37990 37991 37992 0
37993 -37994 0
37993 -38034 0
-37993 37994 38034 0
37996 -37997 0
37996 -37998 0
-37996 37997 37998 0
37999 -38000 0
37999 -38001 0
-37999 38000 38001 0
38002 -38003 0
38002 -38004 0
-38002 38003 38004 0
38005 -38006 0
38005 -38007 0
-38005 38006 38007 0
38008 -38009 0
38008 -38010 0
-38008 38009 38010 0
38011 -38012 0
38011 -38197 0
-38011 38012 38197 0
38014 -38015 0
38014 -38016 0
-38014 38015 38016 0
38017 -38024 0
38017 -38019 0
-38017 38024 38019 0
38020 -38024 0
38020 -38022 0
-38020 38024 38022 0
38023 -38024 0
38023 -38025 0
-38023 38024 38025 0
38026 -38027 0
38026 -38028 0
-38026 38027 38028 0
38029 -38030 0
38029 -38031 0
-38029 38030 38031 0
38032 -38039 0
38032 -38034 0
-38032 38039 38034 0
38035 -38039 0
38035 -38037 0
-38035 38039 38037 0
38038 -38039 0
38038 -38040 0
-38038 38039 38040 0
38041 -38042 0
38041 -38043 0
-38041 38042 38043 0
38044 -38045 0
38044 -38046 0
-38044 38045 38046 0
38047 -38048 0
38047 -38049 0
-38047 38048 38049 0
38050 -38051 0
38050 -38052 0
-38050 38051 38052 0
38053 -38054 0
38053 -38055 0
-38053 38054 38055 0
38056 -38057 0
38056 -38058 0
-38056 38057 38058 0
38059 -38060 0
38059 -38061 0
-38059 38060 38061 0
38062 -38063 0
38062 -38064 0
-38062 38063 38064 0
38065 -38066 0
38065 -38067 0
-38065 38066 38067 0
38068 -38069 0
38068 -38070 0
-38068 38069 38070 0
38071 -38072 0
38071 -38073 0
-38071 38072 38073 0
38074 -38075 0
38074 -38076 0
-38074 38075 38076 0
38077 -38078 0
38077 -38079 0
-38077 38078 38079 0
38080 -38081 0
38080 -38082 0
-38080 38081 38082 0
38083 -38084 0
38083 -38085 0
-38083 38084 38085 0
38086 -38087 0
38086 -38088 0
-38086 38087 38088 0
38089 -38090 0
38089 -38091 0
-38089 38090 38091 0
38092 -38285 0
38092 -38197 0
38092 -38095 0
-38092 38285 38197 38095 0
38096 -38097 0
38096 -38098 0
-38096 38097 38098 0
38099 -38100 0
38099 -38101 0
-38099 38100 38101 0
38102 -38103 0
38102 -38104 0
-38102 38103 38104 0
38105 -38106 0
38105 -38107 0
-38105 38106 38107 0
38108 -38109 0
38108 -38110 0
-38108 38109 38110 0
38111 -38112 0
38111 -38113 0
-38111 38112 38113 0
38114 -38115 0
38114 -38116 0
-38114 38115 38116 0
38117 -38118 0
38117 -38119 0
-38117 38118 38119 0
38120 -38121 0
38120 -38122 0
-38120 38121 38122 0
38123 -38124 0
38123 -38125 0
-38123 38124 38125 0
38126 -38127 0
38126 -38128 0
-38126 38127 38128 0
38129 -38130 0
38129 -38131 0
-38129 38130 38131 0
38132 -38133 0
38132 -38134 0
-38132 38133 38134 0
38135 -38136 0
38135 -38137 0
-38135 38136 38137 0
38138 -38139 0
38138 -38140 0
-38138 38139 38140 0
38141 -38142 0
38141 -38143 0
-38141 38142 38143 0
38144 -38145 0
38144 -38146 0
-38144 38145 38146 0
38147 -38148 0
38147 -38149 0
-38147 38148 38149 0
38150 -38151 0
38150 -38152 0
-38150 38151 38152 0
38153 -38285 0
38153 -38155 0
-38153 38285 38155 0
38156 -38157 0
38156 -38158 0
-38156 38157 38158 0
38159 -38160 0
38159 -38161 0
-38159 38160 38161 0
38162 -38163 0
38162 -38197 0
-38162 38163 38197 0
38165 -38166 0
38165 -38167 0
-38165 38166 38167 0
38168 -38169 0
38168 -38170 0
-38168 38169 38170 0
38171 -38172 0
38171 -38173 0
-38171 38172 38173 0
38174 -38175 0
38174 -38176 0
-38174 38175 38176 0
38177 -38178 0
38177 -38179 0
-38177 38178 38179 0
38180 -38181 0
38180 -38182 0
-38180 38181 38182 0
38183 -38184 0
38183 -38185 0
-38183 38184 38185 0
38186 -38187 0
38186 -38188 0
-38186 38187 38188 0
38189 -38190 0
38189 -38191 0
-38189 38190 38191 0
38192 -38193 0
38192 -38194 0
-38192 38193 38194 0
38195 -38196 0
38195 -38197 0
-38195 38196 38197 0
38198 -38199 0
38198 -38200 0
-38198 38199 38200 0
38201 -38202 0
38201 -38203 0
-38201 38202 38203 0
38204 -38205 0
38204 -38206 0
38204 -38207 0
38204 -38208 0
-38204 38205 38206 38207 38208 0
38209 -38210 0
38209 -38211 0
-38209 38210 38211 0
38212 -38213 0
38212 -38214 0
-38212 38213 38214 0
38215 -38216 0
38215 -38217 0
-38215 38216 38217 0
38218 -38219 0
38218 -38220 0
38218 -38376 0
38218 -38222 0
-38218 38219 38220 38376 38222 0
38223 -38224 0
38223 -38225 0
-38223 38224 38225 0
38226 -38227 0
38226 -38228 0
-38226 38227 38228 0
38229 -38230 0
38229 -38231 0
-38229 38230 38231 0
38232 -38233 0
38232 -38234 0
-38232 38233 38234 0
38235 -38236 0
38235 -38237 0
-38235 38236 38237 0
38238 -38239 0
38238 -38240 0
-38238 38239 38240 0
38241 -38242 0
38241 -38243 0
38241 -38244 0
-38241 38242 38243 38244 0
38245 -38246 0
38245 -38247 0
-38245 38246 38247 0
38248 -38249 0
38248 -38250 0
-38248 38249 38250 0
38251 -38252 0
38251 -38253 0
-38251 38252 38253 0
38254 -38255 0
38254 -38256 0
-38254 38255 38256 0
38257 -38258 0
38257 -38259 0
-38257 38258 38259 0
38341 -38261 0
38341 -38262 0
38341 -38263 0
-38341 38261 38262 38263 0
38264 -38265 0
38264 -38266 0
-38264 38265 38266 0
38267 -38268 0
38267 -38269 0
38267 -38270 0
-38267 38268 38269 38270 0
38271 -38272 0
38271 -38273 0
-38271 38272 38273 0
38274 -38275 0
38274 -38276 0
38274 -38277 0
-38274 38275 38276 38277 0
38278 -38279 0
38278 -38280 0
-38278 38279 38280 0
38281 -38282 0
38281 -38283 0
-38281 38282 38283 0
38284 -38285 0
38284 -38286 0
-38284 38285 38286 0
38287 -38288 0
38287 -38289 0
-38287 38288 38289 0
38290 -38291 0
38290 -38292 0
-38290 38291 38292 0
38293 -38294 0
38293 -38295 0
38293 -38296 0
-38293 38294 38295 38296 0
38297 -38298 0
38297 -38299 0
-38297 38298 38299 0
38300 -38301 0
38300 -38302 0
-38300 38301 38302 0
38303 -38304 0
38303 -38305 0
38303 -38306 0
-38303 38304 38305 38306 0
38307 -38308 0
38307 -38309 0
-38307 38308 38309 0
38310 -38311 0
38310 -38312 0
-38310 38311 38312 0
38313 -38314 0
38313 -38315 0
-38313 38314 38315 0
38316 -38317 0
38316 -38318 0
-38316 38317 38318 0
38319 -38320 0
38319 -38321 0
-38319 38320 38321 0
38322 -38323 0
38322 -38324 0
-38322 38323 38324 0
38325 -38326 0
38325 -38327 0
-38325 38326 38327 0
38328 -38329 0
38328 -38330 0
-38328 38329 38330 0
38378 -38332 0
38378 -38333 0
38378 -38334 0
-38378 38332 38333 38334 0
38335 -38336 0
38335 -38337 0
-38335 38336 38337 0
38338 -38339 0
38338 -38340 0
38338 -38341 0
-38338 38339 38340 38341 0
38342 -38343 0
38342 -38344 0
-38342 38343 38344 0
38345 -38346 0
38345 -38347 0
-38345 38346 38347 0
38348 -38349 0
38348 -38350 0
-38348 38349 38350 0
38351 -38352 0
38351 -38353 0
38351 -38354 0
-38351 38352 38353 38354 0
38355 -38356 0
38355 -38357 0
-38355 38356 38357 0
38358 -38359 0
38358 -38360 0
-38358 38359 38360 0
38361 -38362 0
38361 -38363 0
-38361 38362 38363 0
38410 -38365 0
38410 -38366 0
38410 -38367 0
-38410 38365 38366 38367 0
38368 -38369 0
38368 -38370 0
-38368 38369 38370 0
38371 -38372 0
38371 -38373 0
-38371 38372 38373 0
38374 -38375 0
38374 -38376 0
38374 -38377 0
38374 -38378 0
-38374 38375 38376 38377 38378 0
38422 -38380 0
38422 -38381 0
38422 -38382 0
-38422 38380 38381 38382 0
38383 -38384 0
38383 -38385 0
-38383 38384 38385 0
38386 -38387 0
38386 -38388 0
-38386 38387 38388 0
38389 -38390 0
38389 -38391 0
38389 -38392 0
38389 -38393 0
-38389 38390 38391 38392 38393 0
38394 -38395 0
38394 -38396 0
38394 -38397 0
38394 -38398 0
-38394 38395 38396 38397 38398 0
38399 -38400 0
38399 -38401 0
-38399 38400 38401 0
38402 -38403 0
38402 -38404 0
38402 -38405 0
38402 -38406 0
-38402 38403 38404 38405 38406 0
38407 -38408 0
38407 -38409 0
38407 -38410 0
-38407 38408 38409 38410 0
38411 -38412 0
38411 -38413 0
38411 -38414 0
-38411 38412 38413 38414 0
38415 -38416 0
38415 -38417 0
-38415 38416 38417 0
38418 -38419 0
38418 -38420 0
38418 -38421 0
38418 -38422 0
-38418 38419 38420 38421 38422 0
38423 -38424 0
38423 -38425 0
38423 -38426 0
-38423 38424 38425 38426 0
38427 -38428 0
38427 -38429 0
-38427 38428 38429 0
38430 -38431 0
38430 -38432 0
-38430 38431 38432 0
38433 -38434 0
38433 -38435 0
38433 -38436 0
-38433 38434 38435 38436 0
38437 -38438 0
38437 -38439 0
38437 -38440 0
-38437 38438 38439 38440 0
38441 -38442 0
38441 -38443 0
-38441 38442 38443 0
38444 -38445 0
38444 -38446 0
38444 -38447 0
-38444 38445 38446 38447 0
38448 -38449 0
38448 -38450 0
38448 -38451 0
38448 -38452 0
-38448 38449 38450 38451 38452 0
38453 -38454 0
38453 -38455 0
38453 -38456 0
38453 -38457 0
-38453 38454 38455 38456 38457 0
38458 -38459 0
38458 -38460 0
38458 -38461 0
38458 -38462 0
-38458 38459 38460 38461 38462 0
38463 -38464 0
38463 -38465 0
-38463 38464 38465 0
38466 -38467 0
38466 -38468 0
38466 -38469 0
-38466 38467 38468 38469 0
38470 -38471 0
38470 -38472 0
-38470 38471 38472 0
38473 -38474 0
38473 -38475 0
-38473 38474 38475 0
38476 -38477 0
38476 -38478 0
38476 -38479 0
-38476 38477 38478 38479 0
-38481 40390 0
38481 -40390 0
-38483 39955 0
38483 -39955 0
-38485 39957 0
38485 -39957 0
-38487 40211 0
38487 -40211 0
-38489 40011 0
38489 -40011 0
-38491 39859 0
38491 -39859 0
39940 39918 0
-39940 -39918 0
39596 39888 0
-39596 -39888 0
39915 39988 0
-39915 -39988 0
39882 39556 0
-39882 -39556 0
39876 39880 0
-39876 -39880 0
39879 39855 0
-39879 -39855 0
39889 39337 0
-39889 -39337 0
39891 39859 0
-39891 -39859 0
39900 40011 0
-39900 -40011 0
40208 40211 0
-40208 -40211 0
40000 39957 0
-40000 -39957 0
40048 39955 0
-40048 -39955 0
40115 40390 0
-40115 -40390 0
40346 39854 0
-40346 -39854 0
38523 40211 0
-38523 -40211 0
39958 38523 0
-39958 -38523 0
39960 39860 0
-39960 -39860 0
38529 39988 0
-38529 -39988 0
38922 38529 0
-38922 -38529 0
40118 39863 0
-40118 -39863 0
38535 40000 0
-38535 -40000 0
39985 38535 0
-39985 -38535 0
39551 39869 0
-39551 -39869 0
39385 39872 0
-39385 -39872 0
40347 39875 0
-40347 -39875 0
38545 39875 0
-38545 -39875 0
40039 38545 0
-40039 -38545 0
39412 39881 0
-39412 -39881 0
39277 39939 0
-39277 -39939 0
39040 39890 0
-39040 -39890 0
39996 39893 0
-39996 -39893 0
39999 39896 0
-39999 -39896 0
39413 39899 0
-39413 -39899 0
40005 39902 0
-40005 -39902 0
40008 39905 0
-40008 -39905 0
40068 39908 0
-40068 -39908 0
39113 39954 0
-39113 -39954 0
39294 39914 0
-39294 -39914 0
40023 39917 0
-40023 -39917 0
39167 39920 0
-39167 -39920 0
39371 39969 0
-39371 -39969 0
40038 39926 0
-40038 -39926 0
40219 39929 0
-40219 -39929 0
40053 39932 0
-40053 -39932 0
38583 39955 0
-38583 -39955 0
39379 38583 0
-39379 -38583 0
40299 39953 0
-40299 -39953 0
38589 38794 0
-38589 -38794 0
39428 38589 0
-39428 -38589 0
38593 39031 0
-38593 -39031 0
39482 38593 0
-39482 -38593 0
40210 40007 0
-40210 -40007 0
38596 39287 0
-38596 -39287 0
38598 39496 0
-38598 -39496 0
39703 40209 0
-39703 -40209 0
38602 39576 0
-38602 -39576 0
38604 40262 0
-38604 -40262 0
38606 40271 0
-38606 -40271 0
38608 39697 0
-38608 -39697 0
38610 40365 0
-38610 -40365 0
38612 39717 0
-38612 -39717 0
38614 40382 0
-38614 -40382 0
38616 39781 0
-38616 -39781 0
38618 39785 0
-38618 -39785 0
38620 40413 0
-38620 -40413 0
38622 40425 0
-38622 -40425 0
38624 40437 0
-38624 -40437 0
38626 40447 0
-38626 -40447 0
38645 40451 0
-38645 -40451 0
38630 40455 0
-38630 -40455 0
38647 40458 0
-38647 -40458 0
38649 40462 0
-38649 -40462 0
38653 40467 0
-38653 -40467 0
38655 40472 0
-38655 -40472 0
38640 40477 0
-38640 -40477 0
38657 40480 0
-38657 -40480 0
39837 38645 0
-39837 -38645 0
39840 38647 0
-39840 -38647 0
39843 38649 0
-39843 -38649 0
38650 40484 0
-38650 -40484 0
39846 38653 0
-39846 -38653 0
39849 38655 0
-39849 -38655 0
39852 38657 0
-39852 -38657 0
38658 40490 0
-38658 -40490 0
-39951 40211 0
-39951 39957 0
39951 -40211 -39957 0
-39961 40211 0
-39961 39957 0
39961 -40211 -39957 0
-40002 40011 0
-40002 40211 0
-40002 39957 0
40002 -40011 -40211 -39957 0
-39978 40011 0
-39978 39955 0
39978 -40011 -39955 0
-39963 39918 0
-39963 39955 0
39963 -39918 -39955 0
-40063 39918 0
-40063 39955 0
40063 -39918 -39955 0
-39993 39988 0
-39993 39955 0
39993 -39988 -39955 0
-40227 40211 0
-40227 39955 0
40227 -40211 -39955 0
-39937 39888 0
-39937 40390 0
39937 -39888 -40390 0
-39942 39882 0
-39942 39889 0
39942 -39882 -39889 0
-39291 39556 0
-39291 39891 0
-39291 39957 0
39291 -39556 -39891 -39957 0
-39946 39918 0
-39946 39900 0
-39946 39955 0
39946 -39918 -39900 -39955 0
-39981 39889 0
-39981 39891 0
-39981 39900 0
-39981 40390 0
39981 -39889 -39891 -39900 -40390 0
-40006 39900 0
-40006 39955 0
40006 -39900 -39955 0
-40081 39900 0
-40081 40211 0
-40081 40390 0
40081 -39900 -40211 -40390 0
-39997 39900 0
-39997 40211 0
-39997 39957 0
39997 -39900 -40211 -39957 0
-38934 39888 0
-38934 39337 0
-38934 39891 0
-38934 39900 0
38934 -39888 -39337 -39891 -39900 0
-39945 39915 0
-39945 40011 0
-39945 40208 0
39945 -39915 -40011 -40208 0
-39948 40208 0
-39948 39955 0
39948 -40208 -39955 0
-39967 39882 0
-39967 40208 0
39967 -39882 -40208 0
-40090 39891 0
-40090 39900 0
-40090 40208 0
40090 -39891 -39900 -40208 0
-39295 39859 0
-39295 40011 0
-39295 40208 0
39295 -39859 -40011 -40208 0
-39952 39900 0
-39952 40000 0
39952 -39900 -40000 0
-40066 39888 0
-40066 40000 0
-40066 40390 0
40066 -39888 -40000 -40390 0
-40099 39900 0
-40099 40000 0
-40099 39955 0
40099 -39900 -40000 -39955 0
-40087 40000 0
-40087 40390 0
40087 -40000 -40390 0
-40121 39596 0
-40121 40211 0
-40121 40000 0
40121 -39596 -40211 -40000 0
-39970 39900 0
-39970 40000 0
39970 -39900 -40000 0
-40361 40011 0
-40361 39955 0
-40361 39860 0
40361 -40011 -39955 -39860 0
-39964 39957 0
-39964 40048 0
39964 -39957 -40048 0
-39973 39337 0
-39973 40048 0
39973 -39337 -40048 0
-39030 39891 0
-39030 40211 0
-39030 40048 0
39030 -39891 -40211 -40048 0
-40024 40208 0
-40024 40048 0
40024 -40208 -40048 0
-40060 39900 0
-40060 40048 0
40060 -39900 -40048 0
-40154 39957 0
-40154 40048 0
40154 -39957 -40048 0
-40054 40211 0
-40054 40048 0
40054 -40211 -40048 0
-40072 39957 0
-40072 40048 0
40072 -39957 -40048 0
-40020 39957 0
-40020 40048 0
40020 -39957 -40048 0
-40389 39957 0
-40389 40048 0
40389 -39957 -40048 0
-38794 40011 0
-38794 39863 0
38794 -40011 -39863 0
-40075 39863 0
-40075 40390 0
40075 -39863 -40390 0
-39979 39891 0
-39979 40115 0
39979 -39891 -40115 0
-39982 40011 0
-39982 40115 0
39982 -40011 -40115 0
-40151 39891 0
-40151 40211 0
-40151 40000 0
-40151 40115 0
40151 -39891 -40211 -40000 -40115 0
-40157 39900 0
-40157 40211 0
-40157 40048 0
-40157 40115 0
40157 -39900 -40211 -40048 -40115 0
-40033 39900 0
-40033 40048 0
-40033 40115 0
40033 -39900 -40048 -40115 0
-40187 39900 0
-40187 40211 0
-40187 40000 0
-40187 40115 0
40187 -39900 -40211 -40000 -40115 0
-40036 39879 0
-40036 40048 0
-40036 40115 0
40036 -39879 -40048 -40115 0
-40163 39900 0
-40163 40048 0
-40163 40115 0
40163 -39900 -40048 -40115 0
-40051 39556 0
-40051 40000 0
-40051 40115 0
40051 -39556 -40000 -40115 0
-40045 40000 0
-40045 40115 0
40045 -40000 -40115 0
-40196 39860 0
-40196 40115 0
40196 -39860 -40115 0
-40057 39900 0
-40057 40211 0
-40057 40048 0
-40057 40115 0
40057 -39900 -40211 -40048 -40115 0
-40042 40048 0
-40042 40115 0
40042 -40048 -40115 0
-40205 39857 0
-40205 40115 0
-40205 39860 0
40205 -39857 -40115 -39860 0
-40172 39889 0
-40172 40048 0
-40172 40115 0
40172 -39889 -40048 -40115 0
-40225 40115 0
-40225 39863 0
40225 -40115 -39863 0
-40338 39859 0
-40338 40115 0
40338 -39859 -40115 0
-40109 39866 0
-40109 39955 0
40109 -39866 -39955 0
-39984 39872 0
-39984 40048 0
39984 -39872 -40048 0
-39991 40000 0
-39991 39878 0
39991 -40000 -39878 0
-39994 39881 0
-39994 40048 0
39994 -39881 -40048 0
-40015 39884 0
-40015 40048 0
-40015 40115 0
40015 -39884 -40048 -40115 0
-40193 39890 0
-40193 39879 0
-40193 40211 0
-40193 40115 0
40193 -39890 -39879 -40211 -40115 0
-40003 39899 0
-40003 40000 0
40003 -39899 -40000 0
-40018 39955 0
-40018 39902 0
40018 -39955 -39902 0
-40012 39908 0
-40012 39955 0
40012 -39908 -39955 0
-40112 40011 0
-40112 39954 0
40112 -40011 -39954 0
-40014 39955 0
-40014 39954 0
40014 -39955 -39954 0
-40017 39914 0
-40017 40048 0
40017 -39914 -40048 0
-40021 39955 0
-40021 39914 0
40021 -39955 -39914 0
-40105 39889 0
-40105 39900 0
-40105 40390 0
-40105 39960 0
40105 -39889 -39900 -40390 -39960 0
-40410 40011 0
-40410 40115 0
-40410 39960 0
40410 -40011 -40115 -39960 0
-40030 40211 0
-40030 40390 0
-40030 39920 0
40030 -40211 -40390 -39920 0
-40391 40011 0
-40391 38922 0
40391 -40011 -38922 0
-40277 40211 0
-40277 39969 0
40277 -40211 -39969 0
-40136 39337 0
-40136 40390 0
-40136 40118 0
40136 -39337 -40390 -40118 0
-40127 40211 0
-40127 40115 0
-40127 40118 0
-40127 38934 0
40127 -40211 -40115 -40118 -38934 0
-40130 39900 0
-40130 40208 0
-40130 40118 0
40130 -39900 -40208 -40118 0
-40199 40211 0
-40199 40118 0
40199 -40211 -40118 0
-40029 39556 0
-40029 40115 0
-40029 40118 0
40029 -39556 -40115 -40118 0
-40312 39889 0
-40312 40211 0
-40312 40115 0
-40312 40118 0
40312 -39889 -40211 -40115 -40118 0
-40260 40211 0
-40260 40390 0
-40260 40118 0
40260 -40211 -40390 -40118 0
-39255 39891 0
-39255 39900 0
-39255 40118 0
39255 -39891 -39900 -40118 0
-40041 39926 0
-40041 40208 0
40041 -39926 -40208 0
-40214 39960 0
-40214 39926 0
40214 -39960 -39926 0
-40044 39929 0
-40044 40208 0
40044 -39929 -40208 0
-40102 39932 0
-40102 40000 0
40102 -39932 -40000 0
-40077 39900 0
-40077 39957 0
-40077 39551 0
40077 -39900 -39957 -39551 0
-40305 40048 0
-40305 39551 0
40305 -40048 -39551 0
-40468 40011 0
-40468 39957 0
-40468 39551 0
40468 -40011 -39957 -39551 0
-40056 39935 0
-40056 40011 0
-40056 39955 0
40056 -39935 -40011 -39955 0
-40202 39385 0
-40202 39860 0
40202 -39385 -39860 0
-40059 40011 0
-40059 39955 0
-40059 40347 0
40059 -40011 -39955 -40347 0
-40084 39900 0
-40084 40208 0
-40084 40048 0
-40084 40347 0
40084 -39900 -40208 -40048 -40347 0
-40062 40000 0
-40062 40347 0
40062 -40000 -40347 0
-40065 40011 0
-40065 40115 0
-40065 40347 0
40065 -40011 -40115 -40347 0
-40069 40211 0
-40069 40347 0
40069 -40211 -40347 0
-40159 39551 0
-40159 40347 0
40159 -39551 -40347 0
-40269 39900 0
-40269 40208 0
-40269 40118 0
-40269 40347 0
40269 -39900 -40208 -40118 -40347 0
-40302 40048 0
-40302 39551 0
-40302 40347 0
40302 -40048 -39551 -40347 0
-40266 40115 0
-40266 39960 0
-40266 40347 0
40266 -40115 -39960 -40347 0
-40233 39896 0
-40233 40347 0
40233 -39896 -40347 0
-40147 40115 0
-40147 39412 0
-40147 39030 0
40147 -40115 -39412 -39030 0
-39031 39556 0
-39031 40390 0
-39031 39938 0
39031 -39556 -40390 -39938 0
-40071 39941 0
-40071 40000 0
40071 -39941 -40000 0
-40074 40115 0
-40074 39040 0
40074 -40115 -39040 0
-40078 40211 0
-40078 39955 0
-40078 39996 0
40078 -40211 -39955 -39996 0
-40124 39915 0
-40124 39859 0
-40124 39996 0
40124 -39915 -39859 -39996 0
-40080 39915 0
-40080 40115 0
-40080 39999 0
40080 -39915 -40115 -39999 0
-40138 40390 0
-40138 39999 0
40138 -40390 -39999 0
-40180 40115 0
-40180 39999 0
40180 -40115 -39999 0
-40141 39869 0
-40141 39999 0
40141 -39869 -39999 0
-40083 39988 0
-40083 39413 0
40083 -39988 -39413 0
-40086 40115 0
-40086 39413 0
40086 -40115 -39413 0
-40089 39955 0
-40089 39413 0
40089 -39955 -39413 0
-40093 40011 0
-40093 40005 0
40093 -40011 -40005 0
-40096 40011 0
-40096 39955 0
-40096 40005 0
40096 -40011 -39955 -40005 0
-40286 40011 0
-40286 39955 0
-40286 40005 0
40286 -40011 -39955 -40005 0
-40387 40011 0
-40387 39955 0
-40387 40005 0
40387 -40011 -39955 -40005 0
-40364 39891 0
-40364 39957 0
-40364 39944 0
40364 -39891 -39957 -39944 0
-40353 40000 0
-40353 39947 0
40353 -40000 -39947 0
-40092 39900 0
-40092 40208 0
-40092 40008 0
40092 -39900 -40208 -40008 0
-40095 39900 0
-40095 40208 0
-40095 40008 0
40095 -39900 -40208 -40008 0
-40098 39999 0
-40098 40068 0
40098 -39999 -40068 0
-40101 40390 0
-40101 40068 0
40101 -40390 -40068 0
-40104 39337 0
-40104 39113 0
-40104 39413 0
40104 -39337 -39113 -39413 0
-40165 39917 0
-40165 39113 0
40165 -39917 -39113 0
-40283 39953 0
-40283 40211 0
40283 -39953 -40211 0
-40111 40115 0
-40111 39294 0
40111 -40115 -39294 0
-40132 40048 0
-40132 39294 0
40132 -40048 -39294 0
-40315 40048 0
-40315 40115 0
-40315 39294 0
40315 -40048 -40115 -39294 0
-40446 39956 0
-40446 39988 0
-40446 40011 0
-40446 39955 0
40446 -39956 -39988 -40011 -39955 0
-40291 39959 0
-40291 39900 0
-40291 39955 0
40291 -39959 -39900 -39955 0
-40114 40208 0
-40114 39167 0
40114 -40208 -39167 0
-40117 39940 0
-40117 39167 0
40117 -39940 -39167 0
-40183 40211 0
-40183 39167 0
40183 -40211 -39167 0
-40120 40208 0
-40120 39167 0
40120 -40208 -39167 0
-40123 39879 0
-40123 39891 0
-40123 39900 0
-40123 39167 0
40123 -39879 -39891 -39900 -39167 0
-40126 40011 0
-40126 40208 0
-40126 39167 0
40126 -40011 -40208 -39167 0
-40129 39918 0
-40129 39939 0
-40129 40011 0
-40129 39167 0
40129 -39918 -39939 -40011 -39167 0
-40144 40208 0
-40144 39167 0
40144 -40208 -39167 0
-40230 39900 0
-40230 39167 0
40230 -39900 -39167 0
-40133 40026 0
-40133 39900 0
40133 -40026 -39900 0
-40135 39918 0
-40135 39957 0
-40135 39371 0
40135 -39918 -39957 -39371 0
-40139 39900 0
-40139 40211 0
-40139 39371 0
40139 -39900 -40211 -39371 0
-40190 39957 0
-40190 39371 0
40190 -39957 -39371 0
-40142 39900 0
-40142 39371 0
40142 -39900 -39371 0
-40279 40000 0
-40279 39371 0
40279 -40000 -39371 0
-40244 39957 0
-40244 39371 0
40244 -39957 -39371 0
-40335 39893 0
-40335 40211 0
-40335 39371 0
40335 -39893 -40211 -39371 0
-40296 40211 0
-40296 39957 0
-40296 39371 0
40296 -40211 -39957 -39371 0
-40241 39900 0
-40241 40000 0
-40241 39371 0
40241 -39900 -40000 -39371 0
-40322 39888 0
-40322 40211 0
-40322 39371 0
40322 -39888 -40211 -39371 0
-40216 40208 0
-40216 39371 0
-40216 40347 0
-40216 40008 0
40216 -40208 -39371 -40347 -40008 0
-40350 39900 0
-40350 40000 0
-40350 39371 0
40350 -39900 -40000 -39371 0
-40376 40211 0
-40376 39957 0
-40376 39371 0
40376 -40211 -39957 -39371 0
-40358 39371 0
-40358 39908 0
40358 -39371 -39908 0
-40343 40211 0
-40343 40000 0
-40343 39371 0
40343 -40211 -40000 -39371 0
-40366 39900 0
-40366 40000 0
-40366 39371 0
40366 -39900 -40000 -39371 0
-40373 39950 0
-40373 39371 0
40373 -39950 -39371 0
-40442 39960 0
-40442 39371 0
40442 -39960 -39371 0
-40256 39965 0
-40256 40000 0
40256 -39965 -40000 0
-40222 40211 0
-40222 39968 0
40222 -40211 -39968 0
-40145 39971 0
-40145 40000 0
40145 -39971 -40000 0
-40367 39974 0
-40367 40011 0
40367 -39974 -40011 0
-40449 40011 0
-40449 39974 0
40449 -40011 -39974 0
-40478 39551 0
-40478 40347 0
-40478 39255 0
40478 -39551 -40347 -39255 0
-40148 39988 0
-40148 39859 0
-40148 40208 0
-40148 40038 0
40148 -39988 -39859 -40208 -40038 0
-40150 39859 0
-40150 40011 0
-40150 40038 0
-40150 40068 0
40150 -39859 -40011 -40038 -40068 0
-40153 40000 0
-40153 40038 0
40153 -40000 -40038 0
-40156 39915 0
-40156 40011 0
-40156 40038 0
40156 -39915 -40011 -40038 0
-40160 39556 0
-40160 40011 0
-40160 40038 0
-40160 39277 0
40160 -39556 -40011 -40038 -39277 0
-40162 39337 0
-40162 40038 0
40162 -39337 -40038 0
-40166 40000 0
-40166 40038 0
40166 -40000 -40038 0
-40174 40011 0
-40174 40038 0
40174 -40011 -40038 0
-39287 40038 0
-39287 39413 0
-39287 39939 0
-39287 39291 0
39287 -40038 -39413 -39939 -39291 0
-40272 40038 0
-40272 39294 0
-40272 39295 0
40272 -40038 -39294 -39295 0
-40169 40000 0
-40169 40038 0
40169 -40000 -40038 0
-40293 40211 0
-40293 39957 0
-40293 40038 0
40293 -40211 -39957 -40038 0
-40325 39596 0
-40325 40000 0
-40325 40038 0
40325 -39596 -40000 -40038 0
-40171 39938 0
-40171 39556 0
-40171 40038 0
40171 -39938 -39556 -40038 0
-40409 40211 0
-40409 40038 0
40409 -40211 -40038 0
-40175 39596 0
-40175 39977 0
40175 -39596 -39977 0
-40177 39882 0
-40177 40219 0
40177 -39882 -40219 0
-40253 40048 0
-40253 40219 0
40253 -40048 -40219 0
-40238 40048 0
-40238 40219 0
40238 -40048 -40219 0
-40435 40211 0
-40435 40048 0
-40435 40219 0
40435 -40211 -40048 -40219 0
-40381 40048 0
-40381 40219 0
40381 -40048 -40219 0
-40181 39882 0
-40181 39980 0
40181 -39882 -39980 0
-40184 39337 0
-40184 40118 0
-40184 40053 0
40184 -39337 -40118 -40053 0
-40186 40048 0
-40186 40053 0
40186 -40048 -40053 0
-40189 39859 0
-40189 40053 0
40189 -39859 -40053 0
-40192 39859 0
-40192 39957 0
-40192 40053 0
40192 -39859 -39957 -40053 0
-40195 40000 0
-40195 40053 0
40195 -40000 -40053 0
-40198 39920 0
-40198 40053 0
40198 -39920 -40053 0
-40201 39957 0
-40201 40053 0
40201 -39957 -40053 0
-40204 39957 0
-40204 40053 0
40204 -39957 -40053 0
-40250 39859 0
-40250 40011 0
-40250 40053 0
40250 -39859 -40011 -40053 0
-40319 39983 0
-40319 40208 0
40319 -39983 -40208 0
-40207 39986 0
-40207 39371 0
40207 -39986 -39371 0
-40220 39989 0
-40220 40048 0
40220 -39989 -40048 0
-40236 40011 0
-40236 39992 0
40236 -40011 -39992 0
-40460 39379 0
-40460 39859 0
-40460 40211 0
-40460 40115 0
40460 -39379 -39859 -40211 -40115 0
-40404 39995 0
-40404 39385 0
40404 -39995 -39385 0
-40310 39998 0
-40310 40390 0
40310 -39998 -40390 0
-40332 39859 0
-40332 40115 0
-40332 40001 0
40332 -39859 -40115 -40001 0
-40354 40004 0
-40354 39878 0
40354 -40004 -39878 0
-40450 39859 0
-40450 40115 0
-40450 40010 0
40450 -39859 -40115 -40010 0
-40213 40211 0
-40213 40299 0
40213 -40211 -40299 0
-40263 39859 0
-40263 40299 0
-40263 39413 0
40263 -39859 -40299 -39413 0
-40247 40208 0
-40247 40299 0
40247 -40208 -40299 0
-40370 40299 0
-40370 39412 0
-40370 39413 0
40370 -40299 -39412 -39413 0
-40217 40013 0
-40217 40211 0
40217 -40013 -40211 0
-40221 40011 0
-40221 40016 0
40221 -40011 -40016 0
-40224 40208 0
-40224 40019 0
40224 -40208 -40019 0
-40228 39891 0
-40228 40022 0
40228 -39891 -40022 0
-40231 39859 0
-40231 39428 0
40231 -39859 -39428 0
-40234 40025 0
-40234 39900 0
40234 -40025 -39900 0
-40396 40011 0
-40396 40028 0
40396 -40011 -40028 0
-40309 39882 0
-40309 40031 0
40309 -39882 -40031 0
-40239 40034 0
-40239 40000 0
40239 -40034 -40000 0
-40320 40037 0
-40320 40000 0
40320 -40037 -40000 0
-40242 40040 0
-40242 40011 0
-40242 39957 0
40242 -40040 -40011 -39957 0
-40341 40043 0
-40341 39859 0
-40341 40048 0
40341 -40043 -39859 -40048 0
-40245 40046 0
-40245 40000 0
40245 -40046 -40000 0
-40463 40049 0
-40463 39999 0
40463 -40049 -39999 0
-40426 40052 0
-40426 39996 0
40426 -40052 -39996 0
-40248 40055 0
-40248 40000 0
40248 -40055 -40000 0
-40251 40058 0
-40251 39891 0
-40251 40211 0
-40251 40115 0
40251 -40058 -39891 -40211 -40115 0
-40254 40061 0
-40254 40115 0
40254 -40061 -40115 0
-40329 39891 0
-40329 39955 0
-40329 40064 0
40329 -39891 -39955 -40064 0
-40257 39915 0
-40257 40115 0
-40257 40067 0
40257 -39915 -40115 -40067 0
-40258 40211 0
-40258 39482 0
40258 -40211 -39482 0
-40284 40070 0
-40284 40390 0
40284 -40070 -40390 0
-40261 40073 0
-40261 40208 0
40261 -40073 -40208 0
-40434 40076 0
-40434 39875 0
40434 -40076 -39875 0
-40264 40079 0
-40264 39891 0
-40264 40000 0
40264 -40079 -39891 -40000 0
-39496 40082 0
-39496 39891 0
-39496 40000 0
-39496 40115 0
39496 -40082 -39891 -40000 -40115 0
-40267 39882 0
-40267 40085 0
40267 -39882 -40085 0
-40289 40088 0
-40289 40347 0
40289 -40088 -40347 0
-40270 40091 0
-40270 39854 0
-40270 39955 0
40270 -40091 -39854 -39955 0
-40402 39878 0
-40402 40094 0
-40402 40115 0
40402 -39878 -40094 -40115 0
-40476 39859 0
-40476 40115 0
-40476 40097 0
40476 -39859 -40115 -40097 0
-40459 40100 0
-40459 39999 0
40459 -40100 -39999 0
-40273 40103 0
-40273 39556 0
-40273 39891 0
-40273 40048 0
40273 -40103 -39556 -39891 -40048 0
-40276 39900 0
-40276 40106 0
40276 -39900 -40106 0
-40275 40110 0
-40275 40048 0
40275 -40110 -40048 0
-40280 40113 0
-40280 40011 0
40280 -40113 -40011 0
-40282 40115 0
-40282 40116 0
-40282 40347 0
40282 -40115 -40116 -40347 0
-40287 39900 0
-40287 40208 0
-40287 40116 0
40287 -39900 -40208 -40116 0
-40423 39900 0
-40423 40115 0
-40423 40119 0
40423 -39900 -40115 -40119 0
-40438 39940 0
-40438 40122 0
-40438 39551 0
40438 -39940 -40122 -39551 0
-40469 39915 0
-40469 40125 0
40469 -39915 -40125 0
-40418 39556 0
-40418 40128 0
-40418 40390 0
40418 -39556 -40128 -40390 0
-40290 39891 0
-40290 40131 0
-40290 40208 0
40290 -39891 -40131 -40208 0
-40294 40134 0
-40294 40208 0
40294 -40134 -40208 0
-40474 40137 0
-40474 40000 0
40474 -40137 -40000 0
-40297 40140 0
-40297 40000 0
40297 -40140 -40000 0
-40407 39900 0
-40407 40390 0
-40407 40143 0
40407 -39900 -40390 -40143 0
-39576 40146 0
-39576 40011 0
-39576 39957 0
39576 -40146 -40011 -39957 0
-40475 39988 0
-40475 40149 0
40475 -39988 -40149 0
-40300 40152 0
-40300 39900 0
40300 -40152 -39900 0
-40422 40211 0
-40422 40152 0
40422 -40211 -40152 0
-40303 39596 0
-40303 40155 0
40303 -39596 -40155 0
-40306 39940 0
-40306 40158 0
40306 -39940 -40158 0
-40308 39596 0
-40308 40161 0
40308 -39596 -40161 0
-40313 40164 0
-40313 40208 0
40313 -40164 -40208 0
-40316 40167 0
-40316 39900 0
40316 -40167 -39900 0
-40318 40170 0
-40318 40211 0
40318 -40170 -40211 0
-40323 40173 0
-40323 40208 0
40323 -40173 -40208 0
-40326 40176 0
-40326 39900 0
40326 -40176 -39900 0
-40481 40179 0
-40481 39960 0
40481 -40179 -39960 0
-40420 39900 0
-40420 40182 0
40420 -39900 -40182 0
-40379 39889 0
-40379 40185 0
40379 -39889 -40185 0
-40328 40188 0
-40328 40011 0
40328 -40188 -40011 0
-40331 39915 0
-40331 40011 0
-40331 40191 0
40331 -39915 -40011 -40191 0
-40334 40194 0
-40334 39999 0
40334 -40194 -39999 0
-40454 39859 0
-40454 40197 0
-40454 40011 0
40454 -39859 -40197 -40011 0
-40337 40200 0
-40337 39955 0
40337 -40200 -39955 0
-40340 40203 0
-40340 39955 0
40340 -40203 -39955 0
-40344 40206 0
-40344 39957 0
40344 -40206 -39957 0
-40348 40209 0
-40348 39900 0
40348 -40209 -39900 0
-40351 40212 0
-40351 40011 0
40351 -40212 -40011 0
-40399 39900 0
-40399 40215 0
40399 -39900 -40215 0
-40384 39891 0
-40384 40218 0
40384 -39891 -40218 0
-40357 40011 0
-40357 40223 0
40357 -40011 -40223 0
-40360 40226 0
-40360 39957 0
40360 -40226 -39957 0
-40363 40229 0
-40363 40211 0
40363 -40229 -40211 0
-40368 39891 0
-40368 40232 0
40368 -39891 -40232 0
-40371 40237 0
-40371 39900 0
-40371 40208 0
40371 -40237 -39900 -40208 0
-40427 39859 0
-40427 40240 0
40427 -39859 -40240 0
-40374 40011 0
-40374 40243 0
40374 -40011 -40243 0
-40394 39988 0
-40394 40246 0
40394 -39988 -40246 0
-40452 39915 0
-40452 40249 0
40452 -39915 -40249 0
-40377 40252 0
-40377 40208 0
40377 -40252 -40208 0
-40380 40011 0
-40380 40255 0
40380 -40011 -40255 0
-40383 40259 0
-40383 40011 0
40383 -40259 -40011 0
-40406 40265 0
-40406 40048 0
40406 -40265 -40048 0
-39697 40268 0
-39697 39891 0
-39697 40115 0
39697 -40268 -39891 -40115 0
-40386 39900 0
-40386 39703 0
40386 -39900 -39703 0
-40431 39859 0
-40431 40278 0
40431 -39859 -40278 0
-40411 40281 0
-40411 39900 0
40411 -40281 -39900 0
-39784 40285 0
-39784 39880 0
-39784 39879 0
39784 -40285 -39880 -39879 0
-40415 40288 0
-40415 40115 0
40415 -40288 -40115 0
-39717 40292 0
-39717 39891 0
-39717 39900 0
39717 -40292 -39891 -39900 0
-40471 39859 0
-40471 40295 0
40471 -39859 -40295 0
-40488 40298 0
-40488 40208 0
40488 -40298 -40208 0
-40395 40301 0
-40395 40000 0
40395 -40301 -40000 0
-40417 40304 0
-40417 39957 0
40417 -40304 -39957 0
-40398 40307 0
-40398 40211 0
40398 -40307 -40211 0
-40433 39900 0
-40433 40311 0
40433 -39900 -40311 0
-40401 40314 0
-40401 40208 0
40401 -40314 -40208 0
-40405 40011 0
-40405 40317 0
40405 -40011 -40317 0
-40493 40321 0
-40493 39957 0
40493 -40321 -39957 0
-40412 39988 0
-40412 40324 0
40412 -39988 -40324 0
-40465 39915 0
-40465 40327 0
40465 -39915 -40327 0
-40439 40330 0
-40439 39955 0
40439 -40330 -39955 0
-40456 40333 0
-40456 39859 0
40456 -40333 -39859 0
-40486 40011 0
-40486 40336 0
40486 -40011 -40336 0
-40414 40011 0
-40414 40339 0
40414 -40011 -40339 0
-40419 40011 0
-40419 40342 0
40419 -40011 -40342 0
-40491 40349 0
-40491 39859 0
40491 -40349 -39859 0
-40428 39891 0
-40428 40352 0
40428 -39891 -40352 0
-40482 39859 0
-40482 40356 0
40482 -39859 -40356 0
-40430 40359 0
-40430 40115 0
40430 -40359 -40115 0
-39781 39891 0
-39781 40115 0
-39781 39784 0
39781 -39891 -40115 -39784 0
-39785 40362 0
-39785 40115 0
39785 -40362 -40115 0
-40440 39891 0
-40440 40369 0
40440 -39891 -40369 0
-40466 39859 0
-40466 40372 0
40466 -39859 -40372 0
-40443 39891 0
-40443 40375 0
40443 -39891 -40375 0
-40445 40385 0
-40445 40347 0
40445 -40385 -40347 0
-40448 39891 0
-40448 40388 0
40448 -39891 -40388 0
-40453 40397 0
-40453 39891 0
40453 -40397 -39891 0
-40457 40400 0
-40457 39891 0
40457 -40400 -39891 0
-40461 39891 0
-40461 40403 0
40461 -39891 -40403 0
-40464 40408 0
-40464 39891 0
40464 -40408 -39891 0
-40470 40416 0
-40470 39891 0
40470 -40416 -39891 0
-40473 40421 0
-40473 39891 0
40473 -40421 -39891 0
-40479 40429 0
-40479 39988 0
40479 -40429 -39988 0
-40483 39891 0
-40483 40432 0
40483 -39891 -40432 0
-40485 40441 0
-40485 39900 0
40485 -40441 -39900 0
-40489 40444 0
-40489 40115 0
40489 -40444 -40115 0
-40492 39891 0
-40492 40487 0
40492 -39891 -40487 0
-40505 39837 0
-40505 39853 0
40505 -39837 -39853 0
-40499 39840 0
-40499 39853 0
40499 -39840 -39853 0
-40503 39843 0
-40503 39853 0
40503 -39843 -39853 0
-40495 39846 0
-40495 39853 0
40495 -39846 -39853 0
-40497 39849 0
-40497 39853 0
40497 -39849 -39853 0
-40501 39852 0
-40501 39853 0
40501 -39852 -39853 0
39854 -39855 0
39854 -39880 0
-39854 39855 39880 0
39857 -39988 0
39857 -39859 0
-39857 39988 39859 0
39860 -40211 0
39860 -39957 0
-39860 40211 39957 0
39863 -39957 0
39863 -39955 0
-39863 39957 39955 0
39866 -39918 0
39866 -40390 0
-39866 39918 40390 0
39869 -40211 0
39869 -40390 0
-39869 40211 40390 0
39872 -39915 0
39872 -40390 0
-39872 39915 40390 0
39875 -39876 0
39875 -39879 0
-39875 39876 39879 0
39878 -39879 0
39878 -39880 0
-39878 39879 39880 0
39881 -39882 0
39881 -39889 0
-39881 39882 39889 0
39884 -39889 0
39884 -39957 0
-39884 39889 39957 0
39939 -39888 0
39939 -39889 0
-39939 39888 39889 0
39890 -39891 0
39890 -39957 0
-39890 39891 39957 0
39893 -39900 0
39893 -39957 0
-39893 39900 39957 0
39896 -39900 0
39896 -39955 0
-39896 39900 39955 0
39899 -39900 0
39899 -40208 0
-39899 39900 40208 0
39902 -40208 0
39902 -39988 0
-39902 40208 39988 0
39905 -39918 0
39905 -40000 0
-39905 39918 40000 0
39908 -40000 0
39908 -40211 0
-39908 40000 40211 0
39954 -40000 0
39954 -40390 0
-39954 40000 40390 0
39914 -39915 0
39914 -40000 0
-39914 39915 40000 0
39917 -39918 0
39917 -40048 0
-39917 39918 40048 0
39920 -40000 0
39920 -40048 0
-39920 40000 40048 0
39969 -40048 0
39969 -40390 0
-39969 40048 40390 0
39926 -40048 0
39926 -40115 0
-39926 40048 40115 0
39929 -40000 0
39929 -40115 0
-39929 40000 40115 0
39932 -40211 0
39932 -40115 0
-39932 40211 40115 0
39935 -40211 0
39935 -39937 0
-39935 40211 39937 0
39938 -39939 0
39938 -39940 0
-39938 39939 39940 0
39941 -39942 0
39941 -39955 0
-39941 39942 39955 0
39944 -39945 0
39944 -39946 0
-39944 39945 39946 0
39947 -39948 0
39947 -40390 0
-39947 39948 40390 0
39950 -39951 0
39950 -39952 0
-39950 39951 39952 0
39953 -39954 0
39953 -39955 0
-39953 39954 39955 0
39956 -39957 0
39956 -39958 0
-39956 39957 39958 0
39959 -39960 0
39959 -39961 0
-39959 39960 39961 0
40026 -39963 0
40026 -39964 0
-40026 39963 39964 0
39965 -39969 0
39965 -39967 0
-39965 39969 39967 0
39968 -39969 0
39968 -39970 0
-39968 39969 39970 0
39971 -40211 0
39971 -39973 0
-39971 40211 39973 0
39974 -40118 0
39974 -40208 0
-39974 40118 40208 0
39977 -39978 0
39977 -39979 0
-39977 39978 39979 0
39980 -39981 0
39980 -39982 0
-39980 39981 39982 0
39983 -39984 0
39983 -39985 0
-39983 39984 39985 0
39986 -40347 0
39986 -39988 0
-39986 40347 39988 0
39989 -40390 0
39989 -39991 0
-39989 40390 39991 0
39992 -39993 0
39992 -39994 0
-39992 39993 39994 0
39995 -39996 0
39995 -39997 0
-39995 39996 39997 0
39998 -39999 0
39998 -40000 0
-39998 39999 40000 0
40001 -40002 0
40001 -40003 0
-40001 40002 40003 0
40004 -40005 0
40004 -40006 0
-40004 40005 40006 0
40007 -40008 0
40007 -40048 0
-40007 40008 40048 0
40010 -40011 0
40010 -40012 0
-40010 40011 40012 0
40013 -40014 0
40013 -40015 0
-40013 40014 40015 0
40016 -40017 0
40016 -40018 0
-40016 40017 40018 0
40019 -40020 0
40019 -40021 0
-40019 40020 40021 0
40022 -40023 0
40022 -40024 0
-40022 40023 40024 0
40025 -40026 0
40025 -40211 0
-40025 40026 40211 0
40028 -40029 0
40028 -40030 0
-40028 40029 40030 0
40031 -40038 0
40031 -40033 0
-40031 40038 40033 0
40034 -40038 0
40034 -40036 0
-40034 40038 40036 0
40037 -40038 0
40037 -40039 0
-40037 40038 40039 0
40040 -40041 0
40040 -40042 0
-40040 40041 40042 0
40043 -40044 0
40043 -40045 0
-40043 40044 40045 0
40046 -40053 0
40046 -40048 0
-40046 40053 40048 0
40049 -40053 0
40049 -40051 0
-40049 40053 40051 0
40052 -40053 0
40052 -40054 0
-40052 40053 40054 0
40055 -40056 0
40055 -40057 0
-40055 40056 40057 0
40058 -40059 0
40058 -40060 0
-40058 40059 40060 0
40061 -40062 0
40061 -40063 0
-40061 40062 40063 0
40064 -40065 0
40064 -40066 0
-40064 40065 40066 0
40067 -40068 0
40067 -40069 0
-40067 40068 40069 0
40070 -40071 0
40070 -40072 0
-40070 40071 40072 0
40073 -40074 0
40073 -40075 0
-40073 40074 40075 0
40076 -40077 0
40076 -40078 0
-40076 40077 40078 0
40079 -40080 0
40079 -40081 0
-40079 40080 40081 0
40082 -40083 0
40082 -40084 0
-40082 40083 40084 0
40085 -40086 0
40085 -40087 0
-40085 40086 40087 0
40088 -40089 0
40088 -40090 0
-40088 40089 40090 0
40091 -40092 0
40091 -40093 0
-40091 40092 40093 0
40094 -40095 0
40094 -40096 0
-40094 40095 40096 0
40097 -40098 0
40097 -40099 0
-40097 40098 40099 0
40100 -40101 0
40100 -40102 0
-40100 40101 40102 0
40103 -40104 0
40103 -40105 0
-40103 40104 40105 0
40106 -40299 0
40106 -40211 0
40106 -40109 0
-40106 40299 40211 40109 0
40110 -40111 0
40110 -40112 0
-40110 40111 40112 0
40113 -40114 0
40113 -40115 0
-40113 40114 40115 0
40116 -40117 0
40116 -40118 0
-40116 40117 40118 0
40119 -40120 0
40119 -40121 0
-40119 40120 40121 0
40122 -40123 0
40122 -40124 0
-40122 40123 40124 0
40125 -40126 0
40125 -40127 0
-40125 40126 40127 0
40128 -40129 0
40128 -40130 0
-40128 40129 40130 0
40131 -40132 0
40131 -40133 0
-40131 40132 40133 0
40134 -40135 0
40134 -40136 0
-40134 40135 40136 0
40137 -40138 0
40137 -40139 0
-40137 40138 40139 0
40140 -40141 0
40140 -40142 0
-40140 40141 40142 0
40143 -40144 0
40143 -40145 0
-40143 40144 40145 0
40146 -40147 0
40146 -40148 0
-40146 40147 40148 0
40149 -40150 0
40149 -40151 0
-40149 40150 40151 0
40152 -40153 0
40152 -40154 0
-40152 40153 40154 0
40155 -40156 0
40155 -40157 0
-40155 40156 40157 0
40158 -40159 0
40158 -40160 0
-40158 40159 40160 0
40161 -40162 0
40161 -40163 0
-40161 40162 40163 0
40164 -40165 0
40164 -40166 0
-40164 40165 40166 0
40167 -40299 0
40167 -40169 0
-40167 40299 40169 0
40170 -40171 0
40170 -40172 0
-40170 40171 40172 0
40173 -40174 0
40173 -40175 0
-40173 40174 40175 0
40176 -40177 0
40176 -40211 0
-40176 40177 40211 0
40179 -40180 0
40179 -40181 0
-40179 40180 40181 0
40182 -40183 0
40182 -40184 0
-40182 40183 40184 0
40185 -40186 0
40185 -40187 0
-40185 40186 40187 0
40188 -40189 0
40188 -40190 0
-40188 40189 40190 0
40191 -40192 0
40191 -40193 0
-40191 40192 40193 0
40194 -40195 0
40194 -40196 0
-40194 40195 40196 0
40197 -40198 0
40197 -40199 0
-40197 40198 40199 0
40200 -40201 0
40200 -40202 0
-40200 40201 40202 0
40203 -40204 0
40203 -40205 0
-40203 40204 40205 0
40206 -40207 0
40206 -40208 0
-40206 40207 40208 0
40209 -40210 0
40209 -40211 0
-40209 40210 40211 0
40212 -40213 0
40212 -40214 0
-40212 40213 40214 0
40215 -40216 0
40215 -40217 0
-40215 40216 40217 0
40218 -40219 0
40218 -40220 0
40218 -40221 0
40218 -40222 0
-40218 40219 40220 40221 40222 0
40223 -40224 0
40223 -40225 0
-40223 40224 40225 0
40226 -40227 0
40226 -40228 0
-40226 40227 40228 0
40229 -40230 0
40229 -40231 0
-40229 40230 40231 0
40232 -40233 0
40232 -40234 0
40232 -40390 0
40232 -40236 0
-40232 40233 40234 40390 40236 0
40237 -40238 0
40237 -40239 0
-40237 40238 40239 0
40240 -40241 0
40240 -40242 0
-40240 40241 40242 0
40243 -40244 0
40243 -40245 0
-40243 40244 40245 0
40246 -40247 0
40246 -40248 0
-40246 40247 40248 0
40249 -40250 0
40249 -40251 0
-40249 40250 40251 0
40252 -40253 0
40252 -40254 0
-40252 40253 40254 0
40255 -40256 0
40255 -40257 0
40255 -40258 0
-40255 40256 40257 40258 0
40259 -40260 0
40259 -40261 0
-40259 40260 40261 0
40262 -40263 0
40262 -40264 0
-40262 40263 40264 0
40265 -40266 0
40265 -40267 0
-40265 40266 40267 0
40268 -40269 0
40268 -40270 0
-40268 40269 40270 0
40271 -40272 0
40271 -40273 0
-40271 40272 40273 0
40355 -40275 0
40355 -40276 0
40355 -40277 0
-40355 40275 40276 40277 0
40278 -40279 0
40278 -40280 0
-40278 40279 40280 0
40281 -40282 0
40281 -40283 0
40281 -40284 0
-40281 40282 40283 40284 0
40285 -40286 0
40285 -40287 0
-40285 40286 40287 0
40288 -40289 0
40288 -40290 0
40288 -40291 0
-40288 40289 40290 40291 0
40292 -40293 0
40292 -40294 0
-40292 40293 40294 0
40295 -40296 0
40295 -40297 0
-40295 40296 40297 0
40298 -40299 0
40298 -40300 0
-40298 40299 40300 0
40301 -40302 0
40301 -40303 0
-40301 40302 40303 0
40304 -40305 0
40304 -40306 0
-40304 40305 40306 0
40307 -40308 0
40307 -40309 0
40307 -40310 0
-40307 40308 40309 40310 0
40311 -40312 0
40311 -40313 0
-40311 40312 40313 0
40314 -40315 0
40314 -40316 0
-40314 40315 40316 0
40317 -40318 0
40317 -40319 0
40317 -40320 0
-40317 40318 40319 40320 0
40321 -40322 0
40321 -40323 0
-40321 40322 40323 0
40324 -40325 0
40324 -40326 0
-40324 40325 40326 0
40327 -40328 0
40327 -40329 0
-40327 40328 40329 0
40330 -40331 0
40330 -40332 0
-40330 40331 40332 0
40333 -40334 0
40333 -40335 0
-40333 40334 40335 0
40336 -40337 0
40336 -40338 0
-40336 40337 40338 0
40339 -40340 0
40339 -40341 0
-40339 40340 40341 0
40342 -40343 0
40342 -40344 0
-40342 40343 40344 0
40392 -40346 0
40392 -40347 0
40392 -40348 0
-40392 40346 40347 40348 0
40349 -40350 0
40349 -40351 0
-40349 40350 40351 0
40352 -40353 0
40352 -40354 0
40352 -40355 0
-40352 40353 40354 40355 0
40356 -40357 0
40356 -40358 0
-40356 40357 40358 0
40359 -40360 0
40359 -40361 0
-40359 40360 40361 0
40362 -40363 0
40362 -40364 0
-40362 40363 40364 0
40365 -40366 0
40365 -40367 0
40365 -40368 0
-40365 40366 40367 40368 0
40369 -40370 0
40369 -40371 0
-40369 40370 40371 0
40372 -40373 0
40372 -40374 0
-40372 40373 40374 0
40375 -40376 0
40375 -40377 0
-40375 40376 40377 0
40424 -40379 0
40424 -40380 0
40424 -40381 0
-40424 40379 40380 40381 0
40382 -40383 0
40382 -40384 0
-40382 40383 40384 0
40385 -40386 0
40385 -40387 0
-40385 40386 40387 0
40388 -40389 0
40388 -40390 0
40388 -40391 0
40388 -40392 0
-40388 40389 40390 40391 40392 0
40436 -40394 0
40436 -40395 0
40436 -40396 0
-40436 40394 40395 40396 0
40397 -40398 0
40397 -40399 0
-40397 40398 40399 0
40400 -40401 0
40400 -40402 0
-40400 40401 40402 0
40403 -40404 0
40403 -40405 0
40403 -40406 0
40403 -40407 0
-40403 40404 40405 40406 40407 0
40408 -40409 0
40408 -40410 0
40408 -40411 0
40408 -40412 0
-40408 40409 40410 40411 40412 0
40413 -40414 0
40413 -40415 0
-40413 40414 40415 0
40416 -40417 0
40416 -40418 0
40416 -40419 0
40416 -40420 0
-40416 40417 40418 40419 40420 0
40421 -40422 0
40421 -40423 0
40421 -40424 0
-40421 40422 40423 40424 0
40425 -40426 0
40425 -40427 0
40425 -40428 0
-40425 40426 40427 40428 0
40429 -40430 0
40429 -40431 0
-40429 40430 40431 0
40432 -40433 0
40432 -40434 0
40432 -40435 0
40432 -40436 0
-40432 40433 40434 40435 40436 0
40437 -40438 0
40437 -40439 0
40437 -40440 0
-40437 40438 40439 40440 0
40441 -40442 0
40441 -40443 0
-40441 40442 40443 0
40444 -40445 0
40444 -40446 0
-40444 40445 40446 0
40447 -40448 0
40447 -40449 0
40447 -40450 0
-40447 40448 40449 40450 0
40451 -40452 0
40451 -40453 0
40451 -40454 0
-40451 40452 40453 40454 0
40455 -40456 0
40455 -40457 0
-40455 40456 40457 0
40458 -40459 0
40458 -40460 0
40458 -40461 0
-40458 40459 40460 40461 0
40462 -40463 0
40462 -40464 0
40462 -40465 0
40462 -40466 0
-40462 40463 40464 40465 40466 0
40467 -40468 0
40467 -40469 0
40467 -40470 0
40467 -40471 0
-40467 40468 40469 40470 40471 0
40472 -40473 0
40472 -40474 0
40472 -40475 0
40472 -40476 0
-40472 40473 40474 40475 40476 0
40477 -40478 0
40477 -40479 0
-40477 40478 40479 0
40480 -40481 0
40480 -40482 0
40480 -40483 0
-40480 40481 40482 40483 0
40484 -40485 0
40484 -40486 0
-40484 40485 40486 0
40487 -40488 0
40487 -40489 0
-40487 40488 40489 0
40490 -40491 0
40490 -40492 0
40490 -40493 0
-40490 40491 40492 40493 0
-40495 42404 0
40495 -42404 0
-40497 41969 0
40497 -41969 0
-40499 41971 0
40499 -41971 0
-40501 42225 0
40501 -42225 0
-40503 42025 0
40503 -42025 0
-40505 41873 0
40505 -41873 0
41954 41932 0
-41954 -41932 0
41610 41902 0
-41610 -41902 0
41929 42002 0
-41929 -42002 0
41896 41570 0
-41896 -41570 0
41890 41894 0
-41890 -41894 0
41893 41869 0
-41893 -41869 0
41903 41351 0
-41903 -41351 0
41905 41873 0
-41905 -41873 0
41914 42025 0
-41914 -42025 0
42222 42225 0
-42222 -42225 0
42014 41971 0
-42014 -41971 0
42062 41969 0
-42062 -41969 0
42129 42404 0
-42129 -42404 0
42360 41868 0
-42360 -41868 0
40537 42225 0
-40537 -42225 0
41972 40537 0
-41972 -40537 0
41974 41874 0
-41974 -41874 0
40543 42002 0
-40543 -42002 0
40936 40543 0
-40936 -40543 0
42132 41877 0
-42132 -41877 0
40549 42014 0
-40549 -42014 0
41999 40549 0
-41999 -40549 0
41565 41883 0
-41565 -41883 0
41399 41886 0
-41399 -41886 0
42361 41889 0
-42361 -41889 0
40559 41889 0
-40559 -41889 0
42053 40559 0
-42053 -40559 0
41426 41895 0
-41426 -41895 0
41291 41953 0
-41291 -41953 0
41054 41904 0
-41054 -41904 0
42010 41907 0
-42010 -41907 0
42013 41910 0
-42013 -41910 0
41427 41913 0
-41427 -41913 0
42019 41916 0
-42019 -41916 0
42022 41919 0
-42022 -41919 0
42082 41922 0
-42082 -41922 0
41127 41968 0
-41127 -41968 0
41308 41928 0
-41308 -41928 0
42037 41931 0
-42037 -41931 0
41181 41934 0
-41181 -41934 0
41385 41983 0
-41385 -41983 0
42052 41940 0
-42052 -41940 0
42233 41943 0
-42233 -41943 0
42067 41946 0
-42067 -41946 0
40597 41969 0
-40597 -41969 0
41393 40597 0
-41393 -40597 0
42313 41967 0
-42313 -41967 0
40603 40808 0
-40603 -40808 0
41442 40603 0
-41442 -40603 0
40607 41045 0
-40607 -41045 0
41496 40607 0
-41496 -40607 0
42224 42021 0
-42224 -42021 0
40610 41301 0
-40610 -41301 0
40612 41510 0
-40612 -41510 0
41717 42223 0
-41717 -42223 0
40616 41590 0
-40616 -41590 0
40618 42276 0
-40618 -42276 0
40620 42285 0
-40620 -42285 0
40622 41711 0
-40622 -41711 0
40624 42379 0
-40624 -42379 0
40626 41731 0
-40626 -41731 0
40628 42396 0
-40628 -42396 0
40630 41795 0
-40630 -41795 0
40632 41799 0
-40632 -41799 0
40634 42427 0
-40634 -42427 0
40636 42439 0
-40636 -42439 0
40638 42451 0
-40638 -42451 0
40640 42461 0
-40640 -42461 0
40659 42465 0
-40659 -42465 0
40644 42469 0
-40644 -42469 0
40661 42472 0
-40661 -42472 0
40663 42476 0
-40663 -42476 0
40667 42481 0
-40667 -42481 0
40669 42486 0
-40669 -42486 0
40654 42491 0
-40654 -42491 0
40671 42494 0
-40671 -42494 0
41851 40659 0
-41851 -40659 0
41854 40661 0
-41854 -40661 0
41857 40663 0
-41857 -40663 0
40664 42498 0
-40664 -42498 0
41860 40667 0
-41860 -40667 0
41863 40669 0
-41863 -40669 0
41866 40671 0
-41866 -40671 0
40672 42504 0
-40672 -42504 0
-41965 42225 0
-41965 41971 0
41965 -42225 -41971 0
-41975 42225 0
-41975 41971 0
41975 -42225 -41971 0
-42016 42025 0
-42016 42225 0
-42016 41971 0
42016 -42025 -42225 -41971 0
-41992 42025 0
-41992 41969 0
41992 -42025 -41969 0
-41977 41932 0
-41977 41969 0
41977 -41932 -41969 0
-42077 41932 0
-42077 41969 0
42077 -41932 -41969 0
-42007 42002 0
-42007 41969 0
42007 -42002 -41969 0
-42241 42225 0
-42241 41969 0
42241 -42225 -41969 0
-41951 41902 0
-41951 42404 0
41951 -41902 -42404 0
-41956 41896 0
-41956 41903 0
41956 -41896 -41903 0
-41305 41570 0
-41305 41905 0
-41305 41971 0
41305 -41570 -41905 -41971 0
-41960 41932 0
-41960 41914 0
-41960 41969 0
41960 -41932 -41914 -41969 0
-41995 41903 0
-41995 41905 0
-41995 41914 0
-41995 42404 0
41995 -41903 -41905 -41914 -42404 0
-42020 41914 0
-42020 41969 0
42020 -41914 -41969 0
-42095 41914 0
-42095 42225 0
-42095 42404 0
42095 -41914 -42225 -42404 0
-42011 41914 0
-42011 42225 0
-42011 41971 0
42011 -41914 -42225 -41971 0
-40948 41902 0
-40948 41351 0
-40948 41905 0
-40948 41914 0
40948 -41902 -41351 -41905 -41914 0
-41959 41929 0
-41959 42025 0
-41959 42222 0
41959 -41929 -42025 -42222 0
-41962 42222 0
-41962 41969 0
41962 -42222 -41969 0
-41981 41896 0
-41981 42222 0
41981 -41896 -42222 0
-42104 41905 0
-42104 41914 0
-42104 42222 0
42104 -41905 -41914 -42222 0
-41309 41873 0
-41309 42025 0
-41309 42222 0
41309 -41873 -42025 -42222 0
-41966 41914 0
-41966 42014 0
41966 -41914 -42014 0
-42080 41902 0
-42080 42014 0
-42080 42404 0
42080 -41902 -42014 -42404 0
-42113 41914 0
-42113 42014 0
-42113 41969 0
42113 -41914 -42014 -41969 0
-42101 42014 0
-42101 42404 0
42101 -42014 -42404 0
-42135 41610 0
-42135 42225 0
-42135 42014 0
42135 -41610 -42225 -42014 0
-41984 41914 0
-41984 42014 0
41984 -41914 -42014 0
-42375 42025 0
-42375 41969 0
-42375 41874 0
42375 -42025 -41969 -41874 0
-41978 41971 0
-41978 42062 0
41978 -41971 -42062 0
-41987 41351 0
-41987 42062 0
41987 -41351 -42062 0
-41044 41905 0
-41044 42225 0
-41044 42062 0
41044 -41905 -42225 -42062 0
-42038 42222 0
-42038 42062 0
42038 -42222 -42062 0
-42074 41914 0
-42074 42062 0
42074 -41914 -42062 0
-42168 41971 0
-42168 42062 0
42168 -41971 -42062 0
-42068 42225 0
-42068 42062 0
42068 -42225 -42062 0
-42086 41971 0
-42086 42062 0
42086 -41971 -42062 0
-42034 41971 0
-42034 42062 0
42034 -41971 -42062 0
-42403 41971 0
-42403 42062 0
42403 -41971 -42062 0
-40808 42025 0
-40808 41877 0
40808 -42025 -41877 0
-42089 41877 0
-42089 42404 0
42089 -41877 -42404 0
-41993 41905 0
-41993 42129 0
41993 -41905 -42129 0
-41996 42025 0
-41996 42129 0
41996 -42025 -42129 0
-42165 41905 0
-42165 42225 0
-42165 42014 0
-42165 42129 0
42165 -41905 -42225 -42014 -42129 0
-42171 41914 0
-42171 42225 0
-42171 42062 0
-42171 42129 0
42171 -41914 -42225 -42062 -42129 0
-42047 41914 0
-42047 42062 0
-42047 42129 0
42047 -41914 -42062 -42129 0
-42201 41914 0
-42201 42225 0
-42201 42014 0
-42201 42129 0
42201 -41914 -42225 -42014 -42129 0
-42050 41893 0
-42050 42062 0
-42050 42129 0
42050 -41893 -42062 -42129 0
-42177 41914 0
-42177 42062 0
-42177 42129 0
42177 -41914 -42062 -42129 0
-42065 41570 0
-42065 42014 0
-42065 42129 0
42065 -41570 -42014 -42129 0
-42059 42014 0
-42059 42129 0
42059 -42014 -42129 0
-42210 41874 0
-42210 42129 0
42210 -41874 -42129 0
-42071 41914 0
-42071 42225 0
-42071 42062 0
-42071 42129 0
42071 -41914 -42225 -42062 -42129 0
-42056 42062 0
-42056 42129 0
42056 -42062 -42129 0
-42219 41871 0
-42219 42129 0
-42219 41874 0
42219 -41871 -42129 -41874 0
-42186 41903 0
-42186 42062 0
-42186 42129 0
42186 -41903 -42062 -42129 0
-42239 42129 0
-42239 41877 0
42239 -42129 -41877 0
-42352 41873 0
-42352 42129 0
42352 -41873 -42129 0
-42123 41880 0
-42123 41969 0
42123 -41880 -41969 0
-41998 41886 0
-41998 42062 0
41998 -41886 -42062 0
-42005 42014 0
-42005 41892 0
42005 -42014 -41892 0
-42008 41895 0
-42008 42062 0
42008 -41895 -42062 0
-42029 41898 0
-42029 42062 0
-42029 42129 0
42029 -41898 -42062 -42129 0
-42207 41904 0
-42207 41893 0
-42207 42225 0
-42207 42129 0
42207 -41904 -41893 -42225 -42129 0
-42017 41913 0
-42017 42014 0
42017 -41913 -42014 0
-42032 41969 0
-42032 41916 0
42032 -41969 -41916 0
-42026 41922 0
-42026 41969 0
42026 -41922 -41969 0
-42126 42025 0
-42126 41968 0
42126 -42025 -41968 0
-42028 41969 0
-42028 41968 0
42028 -41969 -41968 0
-42031 41928 0
-42031 42062 0
42031 -41928 -42062 0
-42035 41969 0
-42035 41928 0
42035 -41969 -41928 0
-42119 41903 0
-42119 41914 0
-42119 42404 0
-42119 41974 0
42119 -41903 -41914 -42404 -41974 0
-42424 42025 0
-42424 42129 0
-42424 41974 0
42424 -42025 -42129 -41974 0
-42044 42225 0
-42044 42404 0
-42044 41934 0
42044 -42225 -42404 -41934 0
-42405 42025 0
-42405 40936 0
42405 -42025 -40936 0
-42291 42225 0
-42291 41983 0
42291 -42225 -41983 0
-42150 41351 0
-42150 42404 0
-42150 42132 0
42150 -41351 -42404 -42132 0
-42141 42225 0
-42141 42129 0
-42141 42132 0
-42141 40948 0
42141 -42225 -42129 -42132 -40948 0
-42144 41914 0
-42144 42222 0
-42144 42132 0
42144 -41914 -42222 -42132 0
-42213 42225 0
-42213 42132 0
42213 -42225 -42132 0
-42043 41570 0
-42043 42129 0
-42043 42132 0
42043 -41570 -42129 -42132 0
-42326 41903 0
-42326 42225 0
-42326 42129 0
-42326 42132 0
42326 -41903 -42225 -42129 -42132 0
-42274 42225 0
-42274 42404 0
-42274 42132 0
42274 -42225 -42404 -42132 0
-41269 41905 0
-41269 41914 0
-41269 42132 0
41269 -41905 -41914 -42132 0
-42055 41940 0
-42055 42222 0
42055 -41940 -42222 0
-42228 41974 0
-42228 41940 0
42228 -41974 -41940 0
-42058 41943 0
-42058 42222 0
42058 -41943 -42222 0
-42116 41946 0
-42116 42014 0
42116 -41946 -42014 0
-42091 41914 0
-42091 41971 0
-42091 41565 0
42091 -41914 -41971 -41565 0
-42319 42062 0
-42319 41565 0
42319 -42062 -41565 0
-42482 42025 0
-42482 41971 0
-42482 41565 0
42482 -42025 -41971 -41565 0
-42070 41949 0
-42070 42025 0
-42070 41969 0
42070 -41949 -42025 -41969 0
-42216 41399 0
-42216 41874 0
42216 -41399 -41874 0
-42073 42025 0
-42073 41969 0
-42073 42361 0
42073 -42025 -41969 -42361 0
-42098 41914 0
-42098 42222 0
-42098 42062 0
-42098 42361 0
42098 -41914 -42222 -42062 -42361 0
-42076 42014 0
-42076 42361 0
42076 -42014 -42361 0
-42079 42025 0
-42079 42129 0
-42079 42361 0
42079 -42025 -42129 -42361 0
-42083 42225 0
-42083 42361 0
42083 -42225 -42361 0
-42173 41565 0
-42173 42361 0
42173 -41565 -42361 0
-42283 41914 0
-42283 42222 0
-42283 42132 0
-42283 42361 0
42283 -41914 -42222 -42132 -42361 0
-42316 42062 0
-42316 41565 0
-42316 42361 0
42316 -42062 -41565 -42361 0
-42280 42129 0
-42280 41974 0
-42280 42361 0
42280 -42129 -41974 -42361 0
-42247 41910 0
-42247 42361 0
42247 -41910 -42361 0
-42161 42129 0
-42161 41426 0
-42161 41044 0
42161 -42129 -41426 -41044 0
-41045 41570 0
-41045 42404 0
-41045 41952 0
41045 -41570 -42404 -41952 0
-42085 41955 0
-42085 42014 0
42085 -41955 -42014 0
-42088 42129 0
-42088 41054 0
42088 -42129 -41054 0
-42092 42225 0
-42092 41969 0
-42092 42010 0
42092 -42225 -41969 -42010 0
-42138 41929 0
-42138 41873 0
-42138 42010 0
42138 -41929 -41873 -42010 0
-42094 41929 0
-42094 42129 0
-42094 42013 0
42094 -41929 -42129 -42013 0
-42152 42404 0
-42152 42013 0
42152 -42404 -42013 0
-42194 42129 0
-42194 42013 0
42194 -42129 -42013 0
-42155 41883 0
-42155 42013 0
42155 -41883 -42013 0
-42097 42002 0
-42097 41427 0
42097 -42002 -41427 0
-42100 42129 0
-42100 41427 0
42100 -42129 -41427 0
-42103 41969 0
-42103 41427 0
42103 -41969 -41427 0
-42107 42025 0
-42107 42019 0
42107 -42025 -42019 0
-42110 42025 0
-42110 41969 0
-42110 42019 0
42110 -42025 -41969 -42019 0
-42300 42025 0
-42300 41969 0
-42300 42019 0
42300 -42025 -41969 -42019 0
-42401 42025 0
-42401 41969 0
-42401 42019 0
42401 -42025 -41969 -42019 0
-42378 41905 0
-42378 41971 0
-42378 41958 0
42378 -41905 -41971 -41958 0
-42367 42014 0
-42367 41961 0
42367 -42014 -41961 0
-42106 41914 0
-42106 42222 0
-42106 42022 0
42106 -41914 -42222 -42022 0
-42109 41914 0
-42109 42222 0
-42109 42022 0
42109 -41914 -42222 -42022 0
-42112 42013 0
-42112 42082 0
42112 -42013 -42082 0
-42115 42404 0
-42115 42082 0
42115 -42404 -42082 0
-42118 41351 0
-42118 41127 0
-42118 41427 0
42118 -41351 -41127 -41427 0
-42179 41931 0
-42179 41127 0
42179 -41931 -41127 0
-42297 41967 0
-42297 42225 0
42297 -41967 -42225 0
-42125 42129 0
-42125 41308 0
42125 -42129 -41308 0
-42146 42062 0
-42146 41308 0
42146 -42062 -41308 0
-42329 42062 0
-42329 42129 0
-42329 41308 0
42329 -42062 -42129 -41308 0
-42460 41970 0
-42460 42002 0
-42460 42025 0
-42460 41969 0
42460 -41970 -42002 -42025 -41969 0
-42305 41973 0
-42305 41914 0
-42305 41969 0
42305 -41973 -41914 -41969 0
-42128 42222 0
-42128 41181 0
42128 -42222 -41181 0
-42131 41954 0
-42131 41181 0
42131 -41954 -41181 0
-42197 42225 0
-42197 41181 0
42197 -42225 -41181 0
-42134 42222 0
-42134 41181 0
42134 -42222 -41181 0
-42137 41893 0
-42137 41905 0
-42137 41914 0
-42137 41181 0
42137 -41893 -41905 -41914 -41181 0
-42140 42025 0
-42140 42222 0
-42140 41181 0
42140 -42025 -42222 -41181 0
-42143 41932 0
-42143 41953 0
-42143 42025 0
-42143 41181 0
42143 -41932 -41953 -42025 -41181 0
-42158 42222 0
-42158 41181 0
42158 -42222 -41181 0
-42244 41914 0
-42244 41181 0
42244 -41914 -41181 0
-42147 42040 0
-42147 41914 0
42147 -42040 -41914 0
-42149 41932 0
-42149 41971 0
-42149 41385 0
42149 -41932 -41971 -41385 0
-42153 41914 0
-42153 42225 0
-42153 41385 0
42153 -41914 -42225 -41385 0
-42204 41971 0
-42204 41385 0
42204 -41971 -41385 0
-42156 41914 0
-42156 41385 0
42156 -41914 -41385 0
-42293 42014 0
-42293 41385 0
42293 -42014 -41385 0
-42258 41971 0
-42258 41385 0
42258 -41971 -41385 0
-42349 41907 0
-42349 42225 0
-42349 41385 0
42349 -41907 -42225 -41385 0
-42310 42225 0
-42310 41971 0
-42310 41385 0
42310 -42225 -41971 -41385 0
-42255 41914 0
-42255 42014 0
-42255 41385 0
42255 -41914 -42014 -41385 0
-42336 41902 0
-42336 42225 0
-42336 41385 0
42336 -41902 -42225 -41385 0
-42230 42222 0
-42230 41385 0
-42230 42361 0
-42230 42022 0
42230 -42222 -41385 -42361 -42022 0
-42364 41914 0
-42364 42014 0
-42364 41385 0
42364 -41914 -42014 -41385 0
-42390 42225 0
-42390 41971 0
-42390 41385 0
42390 -42225 -41971 -41385 0
-42372 41385 0
-42372 41922 0
42372 -41385 -41922 0
-42357 42225 0
-42357 42014 0
-42357 41385 0
42357 -42225 -42014 -41385 0
-42380 41914 0
-42380 42014 0
-42380 41385 0
42380 -41914 -42014 -41385 0
-42387 41964 0
-42387 41385 0
42387 -41964 -41385 0
-42456 41974 0
-42456 41385 0
42456 -41974 -41385 0
-42270 41979 0
-42270 42014 0
42270 -41979 -42014 0
-42236 42225 0
-42236 41982 0
42236 -42225 -41982 0
-42159 41985 0
-42159 42014 0
42159 -41985 -42014 0
-42381 41988 0
-42381 42025 0
42381 -41988 -42025 0
-42463 42025 0
-42463 41988 0
42463 -42025 -41988 0
-42492 41565 0
-42492 42361 0
-42492 41269 0
42492 -41565 -42361 -41269 0
-42162 42002 0
-42162 41873 0
-42162 42222 0
-42162 42052 0
42162 -42002 -41873 -42222 -42052 0
-42164 41873 0
-42164 42025 0
-42164 42052 0
-42164 42082 0
42164 -41873 -42025 -42052 -42082 0
-42167 42014 0
-42167 42052 0
42167 -42014 -42052 0
-42170 41929 0
-42170 42025 0
-42170 42052 0
42170 -41929 -42025 -42052 0
-42174 41570 0
-42174 42025 0
-42174 42052 0
-42174 41291 0
42174 -41570 -42025 -42052 -41291 0
-42176 41351 0
-42176 42052 0
42176 -41351 -42052 0
-42180 42014 0
-42180 42052 0
42180 -42014 -42052 0
-42188 42025 0
-42188 42052 0
42188 -42025 -42052 0
-41301 42052 0
-41301 41427 0
-41301 41953 0
-41301 41305 0
41301 -42052 -41427 -41953 -41305 0
-42286 42052 0
-42286 41308 0
-42286 41309 0
42286 -42052 -41308 -41309 0
-42183 42014 0
-42183 42052 0
42183 -42014 -42052 0
-42307 42225 0
-42307 41971 0
-42307 42052 0
42307 -42225 -41971 -42052 0
-42339 41610 0
-42339 42014 0
-42339 42052 0
42339 -41610 -42014 -42052 0
-42185 41952 0
-42185 41570 0
-42185 42052 0
42185 -41952 -41570 -42052 0
-42423 42225 0
-42423 42052 0
42423 -42225 -42052 0
-42189 41610 0
-42189 41991 0
42189 -41610 -41991 0
-42191 41896 0
-42191 42233 0
42191 -41896 -42233 0
-42267 42062 0
-42267 42233 0
42267 -42062 -42233 0
-42252 42062 0
-42252 42233 0
42252 -42062 -42233 0
-42449 42225 0
-42449 42062 0
-42449 42233 0
42449 -42225 -42062 -42233 0
-42395 42062 0
-42395 42233 0
42395 -42062 -42233 0
-42195 41896 0
-42195 41994 0
42195 -41896 -41994 0
-42198 41351 0
-42198 42132 0
-42198 42067 0
42198 -41351 -42132 -42067 0
-42200 42062 0
-42200 42067 0
42200 -42062 -42067 0
-42203 41873 0
-42203 42067 0
42203 -41873 -42067 0
-42206 41873 0
-42206 41971 0
-42206 42067 0
42206 -41873 -41971 -42067 0
-42209 42014 0
-42209 42067 0
42209 -42014 -42067 0
-42212 41934 0
-42212 42067 0
42212 -41934 -42067 0
-42215 41971 0
-42215 42067 0
42215 -41971 -42067 0
-42218 41971 0
-42218 42067 0
42218 -41971 -42067 0
-42264 41873 0
-42264 42025 0
-42264 42067 0
42264 -41873 -42025 -42067 0
-42333 41997 0
-42333 42222 0
42333 -41997 -42222 0
-42221 42000 0
-42221 41385 0
42221 -42000 -41385 0
-42234 42003 0
-42234 42062 0
42234 -42003 -42062 0
-42250 42025 0
-42250 42006 0
42250 -42025 -42006 0
-42474 41393 0
-42474 41873 0
-42474 42225 0
-42474 42129 0
42474 -41393 -41873 -42225 -42129 0
-42418 42009 0
-42418 41399 0
42418 -42009 -41399 0
-42324 42012 0
-42324 42404 0
42324 -42012 -42404 0
-42346 41873 0
-42346 42129 0
-42346 42015 0
42346 -41873 -42129 -42015 0
-42368 42018 0
-42368 41892 0
42368 -42018 -41892 0
-42464 41873 0
-42464 42129 0
-42464 42024 0
42464 -41873 -42129 -42024 0
-42227 42225 0
-42227 42313 0
42227 -42225 -42313 0
-42277 41873 0
-42277 42313 0
-42277 41427 0
42277 -41873 -42313 -41427 0
-42261 42222 0
-42261 42313 0
42261 -42222 -42313 0
-42384 42313 0
-42384 41426 0
-42384 41427 0
42384 -42313 -41426 -41427 0
-42231 42027 0
-42231 42225 0
42231 -42027 -42225 0
-42235 42025 0
-42235 42030 0
42235 -42025 -42030 0
-42238 42222 0
-42238 42033 0
42238 -42222 -42033 0
-42242 41905 0
-42242 42036 0
42242 -41905 -42036 0
-42245 41873 0
-42245 41442 0
42245 -41873 -41442 0
-42248 42039 0
-42248 41914 0
42248 -42039 -41914 0
-42410 42025 0
-42410 42042 0
42410 -42025 -42042 0
-42323 41896 0
-42323 42045 0
42323 -41896 -42045 0
-42253 42048 0
-42253 42014 0
42253 -42048 -42014 0
-42334 42051 0
-42334 42014 0
42334 -42051 -42014 0
-42256 42054 0
-42256 42025 0
-42256 41971 0
42256 -42054 -42025 -41971 0
-42355 42057 0
-42355 41873 0
-42355 42062 0
42355 -42057 -41873 -42062 0
-42259 42060 0
-42259 42014 0
42259 -42060 -42014 0
-42477 42063 0
-42477 42013 0
42477 -42063 -42013 0
-42440 42066 0
-42440 42010 0
42440 -42066 -42010 0
-42262 42069 0
-42262 42014 0
42262 -42069 -42014 0
-42265 42072 0
-42265 41905 0
-42265 42225 0
-42265 42129 0
42265 -42072 -41905 -42225 -42129 0
-42268 42075 0
-42268 42129 0
42268 -42075 -42129 0
-42343 41905 0
-42343 41969 0
-42343 42078 0
42343 -41905 -41969 -42078 0
-42271 41929 0
-42271 42129 0
-42271 42081 0
42271 -41929 -42129 -42081 0
-42272 42225 0
-42272 41496 0
42272 -42225 -41496 0
-42298 42084 0
-42298 42404 0
42298 -42084 -42404 0
-42275 42087 0
-42275 42222 0
42275 -42087 -42222 0
-42448 42090 0
-42448 41889 0
42448 -42090 -41889 0
-42278 42093 0
-42278 41905 0
-42278 42014 0
42278 -42093 -41905 -42014 0
-41510 42096 0
-41510 41905 0
-41510 42014 0
-41510 42129 0
41510 -42096 -41905 -42014 -42129 0
-42281 41896 0
-42281 42099 0
42281 -41896 -42099 0
-42303 42102 0
-42303 42361 0
42303 -42102 -42361 0
-42284 42105 0
-42284 41868 0
-42284 41969 0
42284 -42105 -41868 -41969 0
-42416 41892 0
-42416 42108 0
-42416 42129 0
42416 -41892 -42108 -42129 0
-42490 41873 0
-42490 42129 0
-42490 42111 0
42490 -41873 -42129 -42111 0
-42473 42114 0
-42473 42013 0
42473 -42114 -42013 0
-42287 42117 0
-42287 41570 0
-42287 41905 0
-42287 42062 0
42287 -42117 -41570 -41905 -42062 0
-42290 41914 0
-42290 42120 0
42290 -41914 -42120 0
-42289 42124 0
-42289 42062 0
42289 -42124 -42062 0
-42294 42127 0
-42294 42025 0
42294 -42127 -42025 0
-42296 42129 0
-42296 42130 0
-42296 42361 0
42296 -42129 -42130 -42361 0
-42301 41914 0
-42301 42222 0
-42301 42130 0
42301 -41914 -42222 -42130 0
-42437 41914 0
-42437 42129 0
-42437 42133 0
42437 -41914 -42129 -42133 0
-42452 41954 0
-42452 42136 0
-42452 41565 0
42452 -41954 -42136 -41565 0
-42483 41929 0
-42483 42139 0
42483 -41929 -42139 0
-42432 41570 0
-42432 42142 0
-42432 42404 0
42432 -41570 -42142 -42404 0
-42304 41905 0
-42304 42145 0
-42304 42222 0
42304 -41905 -42145 -42222 0
-42308 42148 0
-42308 42222 0
42308 -42148 -42222 0
-42488 42151 0
-42488 42014 0
42488 -42151 -42014 0
-42311 42154 0
-42311 42014 0
42311 -42154 -42014 0
-42421 41914 0
-42421 42404 0
-42421 42157 0
42421 -41914 -42404 -42157 0
-41590 42160 0
-41590 42025 0
-41590 41971 0
41590 -42160 -42025 -41971 0
-42489 42002 0
-42489 42163 0
42489 -42002 -42163 0
-42314 42166 0
-42314 41914 0
42314 -42166 -41914 0
-42436 42225 0
-42436 42166 0
42436 -42225 -42166 0
-42317 41610 0
-42317 42169 0
42317 -41610 -42169 0
-42320 41954 0
-42320 42172 0
42320 -41954 -42172 0
-42322 41610 0
-42322 42175 0
42322 -41610 -42175 0
-42327 42178 0
-42327 42222 0
42327 -42178 -42222 0
-42330 42181 0
-42330 41914 0
42330 -42181 -41914 0
-42332 42184 0
-42332 42225 0
42332 -42184 -42225 0
-42337 42187 0
-42337 42222 0
42337 -42187 -42222 0
-42340 42190 0
-42340 41914 0
42340 -42190 -41914 0
-42495 42193 0
-42495 41974 0
42495 -42193 -41974 0
-42434 41914 0
-42434 42196 0
42434 -41914 -42196 0
-42393 41903 0
-42393 42199 0
42393 -41903 -42199 0
-42342 42202 0
-42342 42025 0
42342 -42202 -42025 0
-42345 41929 0
-42345 42025 0
-42345 42205 0
42345 -41929 -42025 -42205 0
-42348 42208 0
-42348 42013 0
42348 -42208 -42013 0
-42468 41873 0
-42468 42211 0
-42468 42025 0
42468 -41873 -42211 -42025 0
-42351 42214 0
-42351 41969 0
42351 -42214 -41969 0
-42354 42217 0
-42354 41969 0
42354 -42217 -41969 0
-42358 42220 0
-42358 41971 0
42358 -42220 -41971 0
-42362 42223 0
-42362 41914 0
42362 -42223 -41914 0
-42365 42226 0
-42365 42025 0
42365 -42226 -42025 0
-42413 41914 0
-42413 42229 0
42413 -41914 -42229 0
-42398 41905 0
-42398 42232 0
42398 -41905 -42232 0
-42371 42025 0
-42371 42237 0
42371 -42025 -42237 0
-42374 42240 0
-42374 41971 0
42374 -42240 -41971 0
-42377 42243 0
-42377 42225 0
42377 -42243 -42225 0
-42382 41905 0
-42382 42246 0
42382 -41905 -42246 0
-42385 42251 0
-42385 41914 0
-42385 42222 0
42385 -42251 -41914 -42222 0
-42441 41873 0
-42441 42254 0
42441 -41873 -42254 0
-42388 42025 0
-42388 42257 0
42388 -42025 -42257 0
-42408 42002 0
-42408 42260 0
42408 -42002 -42260 0
-42466 41929 0
-42466 42263 0
42466 -41929 -42263 0
-42391 42266 0
-42391 42222 0
42391 -42266 -42222 0
-42394 42025 0
-42394 42269 0
42394 -42025 -42269 0
-42397 42273 0
-42397 42025 0
42397 -42273 -42025 0
-42420 42279 0
-42420 42062 0
42420 -42279 -42062 0
-41711 42282 0
-41711 41905 0
-41711 42129 0
41711 -42282 -41905 -42129 0
-42400 41914 0
-42400 41717 0
42400 -41914 -41717 0
-42445 41873 0
-42445 42292 0
42445 -41873 -42292 0
-42425 42295 0
-42425 41914 0
42425 -42295 -41914 0
-41798 42299 0
-41798 41894 0
-41798 41893 0
41798 -42299 -41894 -41893 0
-42429 42302 0
-42429 42129 0
42429 -42302 -42129 0
-41731 42306 0
-41731 41905 0
-41731 41914 0
41731 -42306 -41905 -41914 0
-42485 41873 0
-42485 42309 0
42485 -41873 -42309 0
-42502 42312 0
-42502 42222 0
42502 -42312 -42222 0
-42409 42315 0
-42409 42014 0
42409 -42315 -42014 0
-42431 42318 0
-42431 41971 0
42431 -42318 -41971 0
-42412 42321 0
-42412 42225 0
42412 -42321 -42225 0
-42447 41914 0
-42447 42325 0
42447 -41914 -42325 0
-42415 42328 0
-42415 42222 0
42415 -42328 -42222 0
-42419 42025 0
-42419 42331 0
42419 -42025 -42331 0
-42507 42335 0
-42507 41971 0
42507 -42335 -41971 0
-42426 42002 0
-42426 42338 0
42426 -42002 -42338 0
-42479 41929 0
-42479 42341 0
42479 -41929 -42341 0
-42453 42344 0
-42453 41969 0
42453 -42344 -41969 0
-42470 42347 0
-42470 41873 0
42470 -42347 -41873 0
-42500 42025 0
-42500 42350 0
42500 -42025 -42350 0
-42428 42025 0
-42428 42353 0
42428 -42025 -42353 0
-42433 42025 0
-42433 42356 0
42433 -42025 -42356 0
-42505 42363 0
-42505 41873 0
42505 -42363 -41873 0
-42442 41905 0
-42442 42366 0
42442 -41905 -42366 0
-42496 41873 0
-42496 42370 0
42496 -41873 -42370 0
-42444 42373 0
-42444 42129 0
42444 -42373 -42129 0
-41795 41905 0
-41795 42129 0
-41795 41798 0
41795 -41905 -42129 -41798 0
-41799 42376 0
-41799 42129 0
41799 -42376 -42129 0
-42454 41905 0
-42454 42383 0
42454 -41905 -42383 0
-42480 41873 0
-42480 42386 0
42480 -41873 -42386 0
-42457 41905 0
-42457 42389 0
42457 -41905 -42389 0
-42459 42399 0
-42459 42361 0
42459 -42399 -42361 0
-42462 41905 0
-42462 42402 0
42462 -41905 -42402 0
-42467 42411 0
-42467 41905 0
42467 -42411 -41905 0
-42471 42414 0
-42471 41905 0
42471 -42414 -41905 0
-42475 41905 0
-42475 42417 0
42475 -41905 -42417 0
-42478 42422 0
-42478 41905 0
42478 -42422 -41905 0
-42484 42430 0
-42484 41905 0
42484 -42430 -41905 0
-42487 42435 0
-42487 41905 0
42487 -42435 -41905 0
-42493 42443 0
-42493 42002 0
42493 -42443 -42002 0
-42497 41905 0
-42497 42446 0
42497 -41905 -42446 0
-42499 42455 0
-42499 41914 0
42499 -42455 -41914 0
-42503 42458 0
-42503 42129 0
42503 -42458 -42129 0
-42506 41905 0
-42506 42501 0
42506 -41905 -42501 0
-42519 41851 0
-42519 41867 0
42519 -41851 -41867 0
-42513 41854 0
-42513 41867 0
42513 -41854 -41867 0
-42517 41857 0
-42517 41867 0
42517 -41857 -41867 0
-42509 41860 0
-42509 41867 0
42509 -41860 -41867 0
-42511 41863 0
-42511 41867 0
42511 -41863 -41867 0
-42515 41866 0
-42515 41867 0
42515 -41866 -41867 0
41868 -41869 0
41868 -41894 0
-41868 41869 41894 0
41871 -42002 0
41871 -41873 0
-41871 42002 41873 0
41874 -42225 0
41874 -41971 0
-41874 42225 41971 0
41877 -41971 0
41877 -41969 0
-41877 41971 41969 0
41880 -41932 0
41880 -42404 0
-41880 41932 42404 0
41883 -42225 0
41883 -42404 0
-41883 42225 42404 0
41886 -41929 0
41886 -42404 0
-41886 41929 42404 0
41889 -41890 0
41889 -41893 0
-41889 41890 41893 0
41892 -41893 0
41892 -41894 0
-41892 41893 41894 0
41895 -41896 0
41895 -41903 0
-41895 41896 41903 0
41898 -41903 0
41898 -41971 0
-41898 41903 41971 0
41953 -41902 0
41953 -41903 0
-41953 41902 41903 0
41904 -41905 0
41904 -41971 0
-41904 41905 41971 0
41907 -41914 0
41907 -41971 0
-41907 41914 41971 0
41910 -41914 0
41910 -41969 0
-41910 41914 41969 0
41913 -41914 0
41913 -42222 0
-41913 41914 42222 0
41916 -42222 0
41916 -42002 0
-41916 42222 42002 0
41919 -41932 0
41919 -42014 0
-41919 41932 42014 0
41922 -42014 0
41922 -42225 0
-41922 42014 42225 0
41968 -42014 0
41968 -42404 0
-41968 42014 42404 0
41928 -41929 0
41928 -42014 0
-41928 41929 42014 0
41931 -41932 0
41931 -42062 0
-41931 41932 42062 0
41934 -42014 0
41934 -42062 0
-41934 42014 42062 0
41983 -42062 0
41983 -42404 0
-41983 42062 42404 0
41940 -42062 0
41940 -42129 0
-41940 42062 42129 0
41943 -42014 0
41943 -42129 0
-41943 42014 42129 0
41946 -42225 0
41946 -42129 0
-41946 42225 42129 0
41949 -42225 0
41949 -41951 0
-41949 42225 41951 0
41952 -41953 0
41952 -41954 0
-41952 41953 41954 0
41955 -41956 0
41955 -41969 0
-41955 41956 41969 0
41958 -41959 0
41958 -41960 0
-41958 41959 41960 0
41961 -41962 0
41961 -42404 0
-41961 41962 42404 0
41964 -41965 0
41964 -41966 0
-41964 41965 41966 0
41967 -41968 0
41967 -41969 0
-41967 41968 41969 0
41970 -41971 0
41970 -41972 0
-41970 41971 41972 0
41973 -41974 0
41973 -41975 0
-41973 41974 41975 0
42040 -41977 0
42040 -41978 0
-42040 41977 41978 0
41979 -41983 0
41979 -41981 0
-41979 41983 41981 0
41982 -41983 0
41982 -41984 0
-41982 41983 41984 0
41985 -42225 0
41985 -41987 0
-41985 42225 41987 0
41988 -42132 0
41988 -42222 0
-41988 42132 42222 0
41991 -41992 0
41991 -41993 0
-41991 41992 41993 0
41994 -41995 0
41994 -41996 0
-41994 41995 41996 0
41997 -41998 0
41997 -41999 0
-41997 41998 41999 0
42000 -42361 0
42000 -42002 0
-42000 42361 42002 0
42003 -42404 0
42003 -42005 0
-42003 42404 42005 0
42006 -42007 0
42006 -42008 0
-42006 42007 42008 0
42009 -42010 0
42009 -42011 0
-42009 42010 42011 0
42012 -42013 0
42012 -42014 0
-42012 42013 42014 0
42015 -42016 0
42015 -42017 0
-42015 42016 42017 0
42018 -42019 0
42018 -42020 0
-42018 42019 42020 0
42021 -42022 0
42021 -42062 0
-42021 42022 42062 0
42024 -42025 0
42024 -42026 0
-42024 42025 42026 0
42027 -42028 0
42027 -42029 0
-42027 42028 42029 0
42030 -42031 0
42030 -42032 0
-42030 42031 42032 0
42033 -42034 0
42033 -42035 0
-42033 42034 42035 0
42036 -42037 0
42036 -42038 0
-42036 42037 42038 0
42039 -42040 0
42039 -42225 0
-42039 42040 42225 0
42042 -42043 0
42042 -42044 0
-42042 42043 42044 0
42045 -42052 0
42045 -42047 0
-42045 42052 42047 0
42048 -42052 0
42048 -42050 0
-42048 42052 42050 0
42051 -42052 0
42051 -42053 0
-42051 42052 42053 0
42054 -42055 0
42054 -42056 0
-42054 42055 42056 0
42057 -42058 0
42057 -42059 0
-42057 42058 42059 0
42060 -42067 0
42060 -42062 0
-42060 42067 42062 0
42063 -42067 0
42063 -42065 0
-42063 42067 42065 0
42066 -42067 0
42066 -42068 0
-42066 42067 42068 0
42069 -42070 0
42069 -42071 0
-42069 42070 42071 0
42072 -42073 0
42072 -42074 0
-42072 42073 42074 0
42075 -42076 0
42075 -42077 0
-42075 42076 42077 0
42078 -42079 0
42078 -42080 0
-42078 42079 42080 0
42081 -42082 0
42081 -42083 0
-42081 42082 42083 0
42084 -42085 0
42084 -42086 0
-42084 42085 42086 0
42087 -42088 0
42087 -42089 0
-42087 42088 42089 0
42090 -42091 0
42090 -42092 0
-42090 42091 42092 0
42093 -42094 0
42093 -42095 0
-42093 42094 42095 0
42096 -42097 0
42096 -42098 0
-42096 42097 42098 0
42099 -42100 0
42099 -42101 0
-42099 42100 42101 0
42102 -42103 0
42102 -42104 0
-42102 42103 42104 0
42105 -42106 0
42105 -42107 0
-42105 42106 42107 0
42108 -42109 0
42108 -42110 0
-42108 42109 42110 0
42111 -42112 0
42111 -42113 0
-42111 42112 42113 0
42114 -42115 0
42114 -42116 0
-42114 42115 42116 0
42117 -42118 0
42117 -42119 0
-42117 42118 42119 0
42120 -42313 0
42120 -42225 0
42120 -42123 0
-42120 42313 42225 42123 0
42124 -42125 0
42124 -42126 0
-42124 42125 42126 0
42127 -42128 0
42127 -42129 0
-42127 42128 42129 0
42130 -42131 0
42130 -42132 0
-42130 42131 42132 0
42133 -42134 0
42133 -42135 0
-42133 42134 42135 0
42136 -42137 0
42136 -42138 0
-42136 42137 42138 0
42139 -42140 0
42139 -42141 0
-42139 42140 42141 0
42142 -42143 0
42142 -42144 0
-42142 42143 42144 0
42145 -42146 0
42145 -42147 0
-42145 42146 42147 0
42148 -42149 0
42148 -42150 0
-42148 42149 42150 0
42151 -42152 0
42151 -42153 0
-42151 42152 42153 0
42154 -42155 0
42154 -42156 0
-42154 42155 42156 0
42157 -42158 0
42157 -42159 0
-42157 42158 42159 0
42160 -42161 0
42160 -42162 0
-42160 42161 42162 0
42163 -42164 0
42163 -42165 0
-42163 42164 42165 0
42166 -42167 0
42166 -42168 0
-42166 42167 42168 0
42169 -42170 0
42169 -42171 0
-42169 42170 42171 0
42172 -42173 0
42172 -42174 0
-42172 42173 42174 0
42175 -42176 0
42175 -42177 0
-42175 42176 42177 0
42178 -42179 0
42178 -42180 0
-42178 42179 42180 0
42181 -42313 0
42181 -42183 0
-42181 42313 42183 0
42184 -42185 0
42184 -42186 0
-42184 42185 42186 0
42187 -42188 0
42187 -42189 0
-42187 42188 42189 0
42190 -42191 0
42190 -42225 0
-42190 42191 42225 0
42193 -42194 0
42193 -42195 0
-42193 42194 42195 0
42196 -42197 0
42196 -42198 0
-42196 42197 42198 0
42199 -42200 0
42199 -42201 0
-42199 42200 42201 0
42202 -42203 0
42202 -42204 0
-42202 42203 42204 0
42205 -42206 0
42205 -42207 0
-42205 42206 42207 0
42208 -42209 0
42208 -42210 0
-42208 42209 42210 0
42211 -42212 0
42211 -42213 0
-42211 42212 42213 0
42214 -42215 0
42214 -42216 0
-42214 42215 42216 0
42217 -42218 0
42217 -42219 0
-42217 42218 42219 0
42220 -42221 0
42220 -42222 0
-42220 42221 42222 0
42223 -42224 0
42223 -42225 0
-42223 42224 42225 0
42226 -42227 0
42226 -42228 0
-42226 42227 42228 0
42229 -42230 0
42229 -42231 0
-42229 42230 42231 0
42232 -42233 0
42232 -42234 0
42232 -42235 0
42232 -42236 0
-42232 42233 42234 42235 42236 0
42237 -42238 0
42237 -42239 0
-42237 42238 42239 0
42240 -42241 0
42240 -42242 0
-42240 42241 42242 0
42243 -42244 0
42243 -42245 0
-42243 42244 42245 0
42246 -42247 0
42246 -42248 0
42246 -42404 0
42246 -42250 0
-42246 42247 42248 42404 42250 0
42251 -42252 0
42251 -42253 0
-42251 42252 42253 0
42254 -42255 0
42254 -42256 0
-42254 42255 42256 0
42257 -42258 0
42257 -42259 0
-42257 42258 42259 0
42260 -42261 0
42260 -42262 0
-42260 42261 42262 0
42263 -42264 0
42263 -42265 0
-42263 42264 42265 0
42266 -42267 0
42266 -42268 0
-42266 42267 42268 0
42269 -42270 0
42269 -42271 0
42269 -42272 0
-42269 42270 42271 42272 0
42273 -42274 0
42273 -42275 0
-42273 42274 42275 0
42276 -42277 0
42276 -42278 0
-42276 42277 42278 0
42279 -42280 0
42279 -42281 0
-42279 42280 42281 0
42282 -42283 0
42282 -42284 0
-42282 42283 42284 0
42285 -42286 0
42285 -42287 0
-42285 42286 42287 0
42369 -42289 0
42369 -42290 0
42369 -42291 0
-42369 42289 42290 42291 0
42292 -42293 0
42292 -42294 0
-42292 42293 42294 0
42295 -42296 0
42295 -42297 0
42295 -42298 0
-42295 42296 42297 42298 0
42299 -42300 0
42299 -42301 0
-42299 42300 42301 0
42302 -42303 0
42302 -42304 0
42302 -42305 0
-42302 42303 42304 42305 0
42306 -42307 0
42306 -42308 0
-42306 42307 42308 0
42309 -42310 0
42309 -42311 0
-42309 42310 42311 0
42312 -42313 0
42312 -42314 0
-42312 42313 42314 0
42315 -42316 0
42315 -42317 0
-42315 42316 42317 0
42318 -42319 0
42318 -42320 0
-42318 42319 42320 0
42321 -42322 0
42321 -42323 0
42321 -42324 0
-42321 42322 42323 42324 0
42325 -42326 0
42325 -42327 0
-42325 42326 42327 0
42328 -42329 0
42328 -42330 0
-42328 42329 42330 0
42331 -42332 0
42331 -42333 0
42331 -42334 0
-42331 42332 42333 42334 0
42335 -42336 0
42335 -42337 0
-42335 42336 42337 0
42338 -42339 0
42338 -42340 0
-42338 42339 42340 0
42341 -42342 0
42341 -42343 0
-42341 42342 42343 0
42344 -42345 0
42344 -42346 0
-42344 42345 42346 0
42347 -42348 0
42347 -42349 0
-42347 42348 42349 0
42350 -42351 0
42350 -42352 0
-42350 42351 42352 0
42353 -42354 0
42353 -42355 0
-42353 42354 42355 0
42356 -42357 0
42356 -42358 0
-42356 42357 42358 0
42406 -42360 0
42406 -42361 0
42406 -42362 0
-42406 42360 42361 42362 0
42363 -42364 0
42363 -42365 0
-42363 42364 42365 0
42366 -42367 0
42366 -42368 0
42366 -42369 0
-42366 42367 42368 42369 0
42370 -42371 0
42370 -42372 0
-42370 42371 42372 0
42373 -42374 0
42373 -42375 0
-42373 42374 42375 0
42376 -42377 0
42376 -42378 0
-42376 42377 42378 0
42379 -42380 0
42379 -42381 0
42379 -42382 0
-42379 42380 42381 42382 0
42383 -42384 0
42383 -42385 0
-42383 42384 42385 0
42386 -42387 0
42386 -42388 0
-42386 42387 42388 0
42389 -42390 0
42389 -42391 0
-42389 42390 42391 0
42438 -42393 0
42438 -42394 0
42438 -42395 0
-42438 42393 42394 42395 0
42396 -42397 0
42396 -42398 0
-42396 42397 42398 0
42399 -42400 0
42399 -42401 0
-42399 42400 42401 0
42402 -42403 0
42402 -42404 0
42402 -42405 0
42402 -42406 0
-42402 42403 42404 42405 42406 0
42450 -42408 0
42450 -42409 0
42450 -42410 0
-42450 42408 42409 42410 0
42411 -42412 0
42411 -42413 0
-42411 42412 42413 0
42414 -42415 0
42414 -42416 0
-42414 42415 42416 0
42417 -42418 0
42417 -42419 0
42417 -42420 0
42417 -42421 0
-42417 42418 42419 42420 42421 0
42422 -42423 0
42422 -42424 0
42422 -42425 0
42422 -42426 0
-42422 42423 42424 42425 42426 0
42427 -42428 0
42427 -42429 0
-42427 42428 42429 0
42430 -42431 0
42430 -42432 0
42430 -42433 0
42430 -42434 0
-42430 42431 42432 42433 42434 0
42435 -42436 0
42435 -42437 0
42435 -42438 0
-42435 42436 42437 42438 0
42439 -42440 0
42439 -42441 0
42439 -42442 0
-42439 42440 42441 42442 0
42443 -42444 0
42443 -42445 0
-42443 42444 42445 0
42446 -42447 0
42446 -42448 0
42446 -42449 0
42446 -42450 0
-42446 42447 42448 42449 42450 0
42451 -42452 0
42451 -42453 0
42451 -42454 0
-42451 42452 42453 42454 0
42455 -42456 0
42455 -42457 0
-42455 42456 42457 0
42458 -42459 0
42458 -42460 0
-42458 42459 42460 0
42461 -42462 0
42461 -42463 0
42461 -42464 0
-42461 42462 42463 42464 0
42465 -42466 0
42465 -42467 0
42465 -42468 0
-42465 42466 42467 42468 0
42469 -42470 0
42469 -42471 0
-42469 42470 42471 0
42472 -42473 0
42472 -42474 0
42472 -42475 0
-42472 42473 42474 42475 0
42476 -42477 0
42476 -42478 0
42476 -42479 0
42476 -42480 0
-42476 42477 42478 42479 42480 0
42481 -42482 0
42481 -42483 0
42481 -42484 0
42481 -42485 0
-42481 42482 42483 42484 42485 0
42486 -42487 0
42486 -42488 0
42486 -42489 0
42486 -42490 0
-42486 42487 42488 42489 42490 0
42491 -42492 0
42491 -42493 0
-42491 42492 42493 0
42494 -42495 0
42494 -42496 0
42494 -42497 0
-42494 42495 42496 42497 0
42498 -42499 0
42498 -42500 0
-42498 42499 42500 0
42501 -42502 0
42501 -42503 0
-42501 42502 42503 0
42504 -42505 0
42504 -42506 0
42504 -42507 0
-42504 42505 42506 42507 0
-42509 44418 0
42509 -44418 0
-42511 43983 0
42511 -43983 0
-42513 43985 0
42513 -43985 0
-42515 44239 0
42515 -44239 0
-42517 44039 0
42517 -44039 0
-42519 43887 0
42519 -43887 0
43968 43946 0
-43968 -43946 0
43624 43916 0
-43624 -43916 0
43943 44016 0
-43943 -44016 0
43910 43584 0
-43910 -43584 0
43904 43908 0
-43904 -43908 0
43907 43883 0
-43907 -43883 0
43917 43365 0
-43917 -43365 0
43919 43887 0
-43919 -43887 0
43928 44039 0
-43928 -44039 0
44236 44239 0
-44236 -44239 0
44028 43985 0
-44028 -43985 0
44076 43983 0
-44076 -43983 0
44143 44418 0
-44143 -44418 0
44374 43882 0
-44374 -43882 0
42551 44239 0
-42551 -44239 0
43986 42551 0
-43986 -42551 0
43988 43888 0
-43988 -43888 0
42557 44016 0
-42557 -44016 0
42950 42557 0
-42950 -42557 0
44146 43891 0
-44146 -43891 0
42563 44028 0
-42563 -44028 0
44013 42563 0
-44013 -42563 0
43579 43897 0
-43579 -43897 0
43413 43900 0
-43413 -43900 0
44375 43903 0
-44375 -43903 0
42573 43903 0
-42573 -43903 0
44067 42573 0
-44067 -42573 0
43440 43909 0
-43440 -43909 0
43305 43967 0
-43305 -43967 0
43068 43918 0
-43068 -43918 0
44024 43921 0
-44024 -43921 0
44027 43924 0
-44027 -43924 0
43441 43927 0
-43441 -43927 0
44033 43930 0
-44033 -43930 0
44036 43933 0
-44036 -43933 0
44096 43936 0
-44096 -43936 0
43141 43982 0
-43141 -43982 0
43322 43942 0
-43322 -43942 0
44051 43945 0
-44051 -43945 0
43195 43948 0
-43195 -43948 0
43399 43997 0
-43399 -43997 0
44066 43954 0
-44066 -43954 0
44247 43957 0
-44247 -43957 0
44081 43960 0
-44081 -43960 0
42611 43983 0
-42611 -43983 0
43407 42611 0
-43407 -42611 0
44327 43981 0
-44327 -43981 0
42617 42822 0
-42617 -42822 0
43456 42617 0
-43456 -42617 0
42621 43059 0
-42621 -43059 0
43510 42621 0
-43510 -42621 0
44238 44035 0
-44238 -44035 0
42624 43315 0
-42624 -43315 0
42626 43524 0
-42626 -43524 0
43731 44237 0
-43731 -44237 0
42630 43604 0
-42630 -43604 0
42632 44290 0
-42632 -44290 0
42634 44299 0
-42634 -44299 0
42636 43725 0
-42636 -43725 0
42638 44393 0
-42638 -44393 0
42640 43745 0
-42640 -43745 0
42642 44410 0
-42642 -44410 0
42644 43809 0
-42644 -43809 0
42646 43813 0
-42646 -43813 0
42648 44441 0
-42648 -44441 0
42650 44453 0
-42650 -44453 0
42652 44465 0
-42652 -44465 0
42654 44475 0
-42654 -44475 0
42673 44479 0
-42673 -44479 0
42658 44483 0
-42658 -44483 0
42675 44486 0
-42675 -44486 0
42677 44490 0
-42677 -44490 0
42681 44495 0
-42681 -44495 0
42683 44500 0
-42683 -44500 0
42668 44505 0
-42668 -44505 0
42685 44508 0
-42685 -44508 0
43865 42673 0
-43865 -42673 0
43868 42675 0
-43868 -42675 0
43871 42677 0
-43871 -42677 0
42678 44512 0
-42678 -44512 0
43874 42681 0
-43874 -42681 0
43877 42683 0
-43877 -42683 0
43880 42685 0
-43880 -42685 0
42686 44518 0
-42686 -44518 0
-43979 44239 0
-43979 43985 0
43979 -44239 -43985 0
-43989 44239 0
-43989 43985 0
43989 -44239 -43985 0
-44030 44039 0
-44030 44239 0
-44030 43985 0
44030 -44039 -44239 -43985 0
-44006 44039 0
-44006 43983 0
44006 -44039 -43983 0
-43991 43946 0
-43991 43983 0
43991 -43946 -43983 0
-44091 43946 0
-44091 43983 0
44091 -43946 -43983 0
-44021 44016 0
-44021 43983 0
44021 -44016 -43983 0
-44255 44239 0
-44255 43983 0
44255 -44239 -43983 0
-43965 43916 0
-43965 44418 0
43965 -43916 -44418 0
-43970 43910 0
-43970 43917 0
43970 -43910 -43917 0
-43319 43584 0
-43319 43919 0
-43319 43985 0
43319 -43584 -43919 -43985 0
-43974 43946 0
-43974 43928 0
-43974 43983 0
43974 -43946 -43928 -43983 0
-44009 43917 0
-44009 43919 0
-44009 43928 0
-44009 44418 0
44009 -43917 -43919 -43928 -44418 0
-44034 43928 0
-44034 43983 0
44034 -43928 -43983 0
-44109 43928 0
-44109 44239 0
-44109 44418 0
44109 -43928 -44239 -44418 0
-44025 43928 0
-44025 44239 0
-44025 43985 0
44025 -43928 -44239 -43985 0
-42962 43916 0
-42962 43365 0
-42962 43919 0
-42962 43928 0
42962 -43916 -43365 -43919 -43928 0
-43973 43943 0
-43973 44039 0
-43973 44236 0
43973 -43943 -44039 -44236 0
-43976 44236 0
-43976 43983 0
43976 -44236 -43983 0
-43995 43910 0
-43995 44236 0
43995 -43910 -44236 0
-44118 43919 0
-44118 43928 0
-44118 44236 0
44118 -43919 -43928 -44236 0
-43323 43887 0
-43323 44039 0
-43323 44236 0
43323 -43887 -44039 -44236 0
-43980 43928 0
-43980 44028 0
43980 -43928 -44028 0
-44094 43916 0
-44094 44028 0
-44094 44418 0
44094 -43916 -44028 -44418 0
-44127 43928 0
-44127 44028 0
-44127 43983 0
44127 -43928 -44028 -43983 0
-44115 44028 0
-44115 44418 0
44115 -44028 -44418 0
-44149 43624 0
-44149 44239 0
-44149 44028 0
44149 -43624 -44239 -44028 0
-43998 43928 0
-43998 44028 0
43998 -43928 -44028 0
-44389 44039 0
-44389 43983 0
-44389 43888 0
44389 -44039 -43983 -43888 0
-43992 43985 0
-43992 44076 0
43992 -43985 -44076 0
-44001 43365 0
-44001 44076 0
44001 -43365 -44076 0
-43058 43919 0
-43058 44239 0
-43058 44076 0
43058 -43919 -44239 -44076 0
-44052 44236 0
-44052 44076 0
44052 -44236 -44076 0
-44088 43928 0
-44088 44076 0
44088 -43928 -44076 0
-44182 43985 0
-44182 44076 0
44182 -43985 -44076 0
-44082 44239 0
-44082 44076 0
44082 -44239 -44076 0
-44100 43985 0
-44100 44076 0
44100 -43985 -44076 0
-44048 43985 0
-44048 44076 0
44048 -43985 -44076 0
-44417 43985 0
-44417 44076 0
44417 -43985 -44076 0
-42822 44039 0
-42822 43891 0
42822 -44039 -43891 0
-44103 43891 0
-44103 44418 0
44103 -43891 -44418 0
-44007 43919 0
-44007 44143 0
44007 -43919 -44143 0
-44010 44039 0
-44010 44143 0
44010 -44039 -44143 0
-44179 43919 0
-44179 44239 0
-44179 44028 0
-44179 44143 0
44179 -43919 -44239 -44028 -44143 0
-44185 43928 0
-44185 44239 0
-44185 44076 0
-44185 44143 0
44185 -43928 -44239 -44076 -44143 0
-44061 43928 0
-44061 44076 0
-44061 44143 0
44061 -43928 -44076 -44143 0
-44215 43928 0
-44215 44239 0
-44215 44028 0
-44215 44143 0
44215 -43928 -44239 -44028 -44143 0
-44064 43907 0
-44064 44076 0
-44064 44143 0
44064 -43907 -44076 -44143 0
-44191 43928 0
-44191 44076 0
-44191 44143 0
44191 -43928 -44076 -44143 0
-44079 43584 0
-44079 44028 0
-44079 44143 0
44079 -43584 -44028 -44143 0
-44073 44028 0
-44073 44143 0
44073 -44028 -44143 0
-44224 43888 0
-44224 44143 0
44224 -43888 -44143 0
-44085 43928 0
-44085 44239 0
-44085 44076 0
-44085 44143 0
44085 -43928 -44239 -44076 -44143 0
-44070 44076 0
-44070 44143 0
44070 -44076 -44143 0
-44233 43885 0
-44233 44143 0
-44233 43888 0
44233 -43885 -44143 -43888 0
-44200 43917 0
-44200 44076 0
-44200 44143 0
44200 -43917 -44076 -44143 0
-44253 44143 0
-44253 43891 0
44253 -44143 -43891 0
-44366 43887 0
-44366 44143 0
44366 -43887 -44143 0
-44137 43894 0
-44137 43983 0
44137 -43894 -43983 0
-44012 43900 0
-44012 44076 0
44012 -43900 -44076 0
-44019 44028 0
-44019 43906 0
44019 -44028 -43906 0
-44022 43909 0
-44022 44076 0
44022 -43909 -44076 0
-44043 43912 0
-44043 44076 0
-44043 44143 0
44043 -43912 -44076 -44143 0
-44221 43918 0
-44221 43907 0
-44221 44239 0
-44221 44143 0
44221 -43918 -43907 -44239 -44143 0
-44031 43927 0
-44031 44028 0
44031 -43927 -44028 0
-44046 43983 0
-44046 43930 0
44046 -43983 -43930 0
-44040 43936 0
-44040 43983 0
44040 -43936 -43983 0
-44140 44039 0
-44140 43982 0
44140 -44039 -43982 0
-44042 43983 0
-44042 43982 0
44042 -43983 -43982 0
-44045 43942 0
-44045 44076 0
44045 -43942 -44076 0
-44049 43983 0
-44049 43942 0
44049 -43983 -43942 0
-44133 43917 0
-44133 43928 0
-44133 44418 0
-44133 43988 0
44133 -43917 -43928 -44418 -43988 0
-44438 44039 0
-44438 44143 0
-44438 43988 0
44438 -44039 -44143 -43988 0
-44058 44239 0
-44058 44418 0
-44058 43948 0
44058 -44239 -44418 -43948 0
-44419 44039 0
-44419 42950 0
44419 -44039 -42950 0
-44305 44239 0
-44305 43997 0
44305 -44239 -43997 0
-44164 43365 0
-44164 44418 0
-44164 44146 0
44164 -43365 -44418 -44146 0
-44155 44239 0
-44155 44143 0
-44155 44146 0
-44155 42962 0
44155 -44239 -44143 -44146 -42962 0
-44158 43928 0
-44158 44236 0
-44158 44146 0
44158 -43928 -44236 -44146 0
-44227 44239 0
-44227 44146 0
44227 -44239 -44146 0
-44057 43584 0
-44057 44143 0
-44057 44146 0
44057 -43584 -44143 -44146 0
-44340 43917 0
-44340 44239 0
-44340 44143 0
-44340 44146 0
44340 -43917 -44239 -44143 -44146 0
-44288 44239 0
-44288 44418 0
-44288 44146 0
44288 -44239 -44418 -44146 0
-43283 43919 0
-43283 43928 0
-43283 44146 0
43283 -43919 -43928 -44146 0
-44069 43954 0
-44069 44236 0
44069 -43954 -44236 0
-44242 43988 0
-44242 43954 0
44242 -43988 -43954 0
-44072 43957 0
-44072 44236 0
44072 -43957 -44236 0
-44130 43960 0
-44130 44028 0
44130 -43960 -44028 0
-44105 43928 0
-44105 43985 0
-44105 43579 0
44105 -43928 -43985 -43579 0
-44333 44076 0
-44333 43579 0
44333 -44076 -43579 0
-44496 44039 0
-44496 43985 0
-44496 43579 0
44496 -44039 -43985 -43579 0
-44084 43963 0
-44084 44039 0
-44084 43983 0
44084 -43963 -44039 -43983 0
-44230 43413 0
-44230 43888 0
44230 -43413 -43888 0
-44087 44039 0
-44087 43983 0
-44087 44375 0
44087 -44039 -43983 -44375 0
-44112 43928 0
-44112 44236 0
-44112 44076 0
-44112 44375 0
44112 -43928 -44236 -44076 -44375 0
-44090 44028 0
-44090 44375 0
44090 -44028 -44375 0
-44093 44039 0
-44093 44143 0
-44093 44375 0
44093 -44039 -44143 -44375 0
-44097 44239 0
-44097 44375 0
44097 -44239 -44375 0
-44187 43579 0
-44187 44375 0
44187 -43579 -44375 0
-44297 43928 0
-44297 44236 0
-44297 44146 0
-44297 44375 0
44297 -43928 -44236 -44146 -44375 0
-44330 44076 0
-44330 43579 0
-44330 44375 0
44330 -44076 -43579 -44375 0
-44294 44143 0
-44294 43988 0
-44294 44375 0
44294 -44143 -43988 -44375 0
-44261 43924 0
-44261 44375 0
44261 -43924 -44375 0
-44175 44143 0
-44175 43440 0
-44175 43058 0
44175 -44143 -43440 -43058 0
-43059 43584 0
-43059 44418 0
-43059 43966 0
43059 -43584 -44418 -43966 0
-44099 43969 0
-44099 44028 0
44099 -43969 -44028 0
-44102 44143 0
-44102 43068 0
44102 -44143 -43068 0
-44106 44239 0
-44106 43983 0
-44106 44024 0
44106 -44239 -43983 -44024 0
-44152 43943 0
-44152 43887 0
-44152 44024 0
44152 -43943 -43887 -44024 0
-44108 43943 0
-44108 44143 0
-44108 44027 0
44108 -43943 -44143 -44027 0
-44166 44418 0
-44166 44027 0
44166 -44418 -44027 0
-44208 44143 0
-44208 44027 0
44208 -44143 -44027 0
-44169 43897 0
-44169 44027 0
44169 -43897 -44027 0
-44111 44016 0
-44111 43441 0
44111 -44016 -43441 0
-44114 44143 0
-44114 43441 0
44114 -44143 -43441 0
-44117 43983 0
-44117 43441 0
44117 -43983 -43441 0
-44121 44039 0
-44121 44033 0
44121 -44039 -44033 0
-44124 44039 0
-44124 43983 0
-44124 44033 0
44124 -44039 -43983 -44033 0
-44314 44039 0
-44314 43983 0
-44314 44033 0
44314 -44039 -43983 -44033 0
-44415 44039 0
-44415 43983 0
-44415 44033 0
44415 -44039 -43983 -44033 0
-44392 43919 0
-44392 43985 0
-44392 43972 0
44392 -43919 -43985 -43972 0
-44381 44028 0
-44381 43975 0
44381 -44028 -43975 0
-44120 43928 0
-44120 44236 0
-44120 44036 0
44120 -43928 -44236 -44036 0
-44123 43928 0
-44123 44236 0
-44123 44036 0
44123 -43928 -44236 -44036 0
-44126 44027 0
-44126 44096 0
44126 -44027 -44096 0
-44129 44418 0
-44129 44096 0
44129 -44418 -44096 0
-44132 43365 0
-44132 43141 0
-44132 43441 0
44132 -43365 -43141 -43441 0
-44193 43945 0
-44193 43141 0
44193 -43945 -43141 0
-44311 43981 0
-44311 44239 0
44311 -43981 -44239 0
-44139 44143 0
-44139 43322 0
44139 -44143 -43322 0
-44160 44076 0
-44160 43322 0
44160 -44076 -43322 0
-44343 44076 0
-44343 44143 0
-44343 43322 0
44343 -44076 -44143 -43322 0
-44474 43984 0
-44474 44016 0
-44474 44039 0
-44474 43983 0
44474 -43984 -44016 -44039 -43983 0
-44319 43987 0
-44319 43928 0
-44319 43983 0
44319 -43987 -43928 -43983 0
-44142 44236 0
-44142 43195 0
44142 -44236 -43195 0
-44145 43968 0
-44145 43195 0
44145 -43968 -43195 0
-44211 44239 0
-44211 43195 0
44211 -44239 -43195 0
-44148 44236 0
-44148 43195 0
44148 -44236 -43195 0
-44151 43907 0
-44151 43919 0
-44151 43928 0
-44151 43195 0
44151 -43907 -43919 -43928 -43195 0
-44154 44039 0
-44154 44236 0
-44154 43195 0
44154 -44039 -44236 -43195 0
-44157 43946 0
-44157 43967 0
-44157 44039 0
-44157 43195 0
44157 -43946 -43967 -44039 -43195 0
-44172 44236 0
-44172 43195 0
44172 -44236 -43195 0
-44258 43928 0
-44258 43195 0
44258 -43928 -43195 0
-44161 44054 0
-44161 43928 0
44161 -44054 -43928 0
-44163 43946 0
-44163 43985 0
-44163 43399 0
44163 -43946 -43985 -43399 0
-44167 43928 0
-44167 44239 0
-44167 43399 0
44167 -43928 -44239 -43399 0
-44218 43985 0
-44218 43399 0
44218 -43985 -43399 0
-44170 43928 0
-44170 43399 0
44170 -43928 -43399 0
-44307 44028 0
-44307 43399 0
44307 -44028 -43399 0
-44272 43985 0
-44272 43399 0
44272 -43985 -43399 0
-44363 43921 0
-44363 44239 0
-44363 43399 0
44363 -43921 -44239 -43399 0
-44324 44239 0
-44324 43985 0
-44324 43399 0
44324 -44239 -43985 -43399 0
-44269 43928 0
-44269 44028 0
-44269 43399 0
44269 -43928 -44028 -43399 0
-44350 43916 0
-44350 44239 0
-44350 43399 0
44350 -43916 -44239 -43399 0
-44244 44236 0
-44244 43399 0
-44244 44375 0
-44244 44036 0
44244 -44236 -43399 -44375 -44036 0
-44378 43928 0
-44378 44028 0
-44378 43399 0
44378 -43928 -44028 -43399 0
-44404 44239 0
-44404 43985 0
-44404 43399 0
44404 -44239 -43985 -43399 0
-44386 43399 0
-44386 43936 0
44386 -43399 -43936 0
-44371 44239 0
-44371 44028 0
-44371 43399 0
44371 -44239 -44028 -43399 0
-44394 43928 0
-44394 44028 0
-44394 43399 0
44394 -43928 -44028 -43399 0
-44401 43978 0
-44401 43399 0
44401 -43978 -43399 0
-44470 43988 0
-44470 43399 0
44470 -43988 -43399 0
-44284 43993 0
-44284 44028 0
44284 -43993 -44028 0
-44250 44239 0
-44250 43996 0
44250 -44239 -43996 0
-44173 43999 0
-44173 44028 0
44173 -43999 -44028 0
-44395 44002 0
-44395 44039 0
44395 -44002 -44039 0
-44477 44039 0
-44477 44002 0
44477 -44039 -44002 0
-44506 43579 0
-44506 44375 0
-44506 43283 0
44506 -43579 -44375 -43283 0
-44176 44016 0
-44176 43887 0
-44176 44236 0
-44176 44066 0
44176 -44016 -43887 -44236 -44066 0
-44178 43887 0
-44178 44039 0
-44178 44066 0
-44178 44096 0
44178 -43887 -44039 -44066 -44096 0
-44181 44028 0
-44181 44066 0
44181 -44028 -44066 0
-44184 43943 0
-44184 44039 0
-44184 44066 0
44184 -43943 -44039 -44066 0
-44188 43584 0
-44188 44039 0
-44188 44066 0
-44188 43305 0
44188 -43584 -44039 -44066 -43305 0
-44190 43365 0
-44190 44066 0
44190 -43365 -44066 0
-44194 44028 0
-44194 44066 0
44194 -44028 -44066 0
-44202 44039 0
-44202 44066 0
44202 -44039 -44066 0
-43315 44066 0
-43315 43441 0
-43315 43967 0
-43315 43319 0
43315 -44066 -43441 -43967 -43319 0
-44300 44066 0
-44300 43322 0
-44300 43323 0
44300 -44066 -43322 -43323 0
-44197 44028 0
-44197 44066 0
44197 -44028 -44066 0
-44321 44239 0
-44321 43985 0
-44321 44066 0
44321 -44239 -43985 -44066 0
-44353 43624 0
-44353 44028 0
-44353 44066 0
44353 -43624 -44028 -44066 0
-44199 43966 0
-44199 43584 0
-44199 44066 0
44199 -43966 -43584 -44066 0
-44437 44239 0
-44437 44066 0
44437 -44239 -44066 0
-44203 43624 0
-44203 44005 0
44203 -43624 -44005 0
-44205 43910 0
-44205 44247 0
44205 -43910 -44247 0
-44281 44076 0
-44281 44247 0
44281 -44076 -44247 0
-44266 44076 0
-44266 44247 0
44266 -44076 -44247 0
-44463 44239 0
-44463 44076 0
-44463 44247 0
44463 -44239 -44076 -44247 0
-44409 44076 0
-44409 44247 0
44409 -44076 -44247 0
-44209 43910 0
-44209 44008 0
44209 -43910 -44008 0
-44212 43365 0
-44212 44146 0
-44212 44081 0
44212 -43365 -44146 -44081 0
-44214 44076 0
-44214 44081 0
44214 -44076 -44081 0
-44217 43887 0
-44217 44081 0
44217 -43887 -44081 0
-44220 43887 0
-44220 43985 0
-44220 44081 0
44220 -43887 -43985 -44081 0
-44223 44028 0
-44223 44081 0
44223 -44028 -44081 0
-44226 43948 0
-44226 44081 0
44226 -43948 -44081 0
-44229 43985 0
-44229 44081 0
44229 -43985 -44081 0
-44232 43985 0
-44232 44081 0
44232 -43985 -44081 0
-44278 43887 0
-44278 44039 0
-44278 44081 0
44278 -43887 -44039 -44081 0
-44347 44011 0
-44347 44236 0
44347 -44011 -44236 0
-44235 44014 0
-44235 43399 0
44235 -44014 -43399 0
-44248 44017 0
-44248 44076 0
44248 -44017 -44076 0
-44264 44039 0
-44264 44020 0
44264 -44039 -44020 0
-44488 43407 0
-44488 43887 0
-44488 44239 0
-44488 44143 0
44488 -43407 -43887 -44239 -44143 0
-44432 44023 0
-44432 43413 0
44432 -44023 -43413 0
-44338 44026 0
-44338 44418 0
44338 -44026 -44418 0
-44360 43887 0
-44360 44143 0
-44360 44029 0
44360 -43887 -44143 -44029 0
-44382 44032 0
-44382 43906 0
44382 -44032 -43906 0
-44478 43887 0
-44478 44143 0
-44478 44038 0
44478 -43887 -44143 -44038 0
-44241 44239 0
-44241 44327 0
44241 -44239 -44327 0
-44291 43887 0
-44291 44327 0
-44291 43441 0
44291 -43887 -44327 -43441 0
-44275 44236 0
-44275 44327 0
44275 -44236 -44327 0
-44398 44327 0
-44398 43440 0
-44398 43441 0
44398 -44327 -43440 -43441 0
-44245 44041 0
-44245 44239 0
44245 -44041 -44239 0
-44249 44039 0
-44249 44044 0
44249 -44039 -44044 0
-44252 44236 0
-44252 44047 0
44252 -44236 -44047 0
-44256 43919 0
-44256 44050 0
44256 -43919 -44050 0
-44259 43887 0
-44259 43456 0
44259 -43887 -43456 0
-44262 44053 0
-44262 43928 0
44262 -44053 -43928 0
-44424 44039 0
-44424 44056 0
44424 -44039 -44056 0
-44337 43910 0
-44337 44059 0
44337 -43910 -44059 0
-44267 44062 0
-44267 44028 0
44267 -44062 -44028 0
-44348 44065 0
-44348 44028 0
44348 -44065 -44028 0
-44270 44068 0
-44270 44039 0
-44270 43985 0
44270 -44068 -44039 -43985 0
-44369 44071 0
-44369 43887 0
-44369 44076 0
44369 -44071 -43887 -44076 0
-44273 44074 0
-44273 44028 0
44273 -44074 -44028 0
-44491 44077 0
-44491 44027 0
44491 -44077 -44027 0
-44454 44080 0
-44454 44024 0
44454 -44080 -44024 0
-44276 44083 0
-44276 44028 0
44276 -44083 -44028 0
-44279 44086 0
-44279 43919 0
-44279 44239 0
-44279 44143 0
44279 -44086 -43919 -44239 -44143 0
-44282 44089 0
-44282 44143 0
44282 -44089 -44143 0
-44357 43919 0
-44357 43983 0
-44357 44092 0
44357 -43919 -43983 -44092 0
-44285 43943 0
-44285 44143 0
-44285 44095 0
44285 -43943 -44143 -44095 0
-44286 44239 0
-44286 43510 0
44286 -44239 -43510 0
-44312 44098 0
-44312 44418 0
44312 -44098 -44418 0
-44289 44101 0
-44289 44236 0
44289 -44101 -44236 0
-44462 44104 0
-44462 43903 0
44462 -44104 -43903 0
-44292 44107 0
-44292 43919 0
-44292 44028 0
44292 -44107 -43919 -44028 0
-43524 44110 0
-43524 43919 0
-43524 44028 0
-43524 44143 0
43524 -44110 -43919 -44028 -44143 0
-44295 43910 0
-44295 44113 0
44295 -43910 -44113 0
-44317 44116 0
-44317 44375 0
44317 -44116 -44375 0
-44298 44119 0
-44298 43882 0
-44298 43983 0
44298 -44119 -43882 -43983 0
-44430 43906 0
-44430 44122 0
-44430 44143 0
44430 -43906 -44122 -44143 0
-44504 43887 0
-44504 44143 0
-44504 44125 0
44504 -43887 -44143 -44125 0
-44487 44128 0
-44487 44027 0
44487 -44128 -44027 0
-44301 44131 0
-44301 43584 0
-44301 43919 0
-44301 44076 0
44301 -44131 -43584 -43919 -44076 0
-44304 43928 0
-44304 44134 0
44304 -43928 -44134 0
-44303 44138 0
-44303 44076 0
44303 -44138 -44076 0
-44308 44141 0
-44308 44039 0
44308 -44141 -44039 0
-44310 44143 0
-44310 44144 0
-44310 44375 0
44310 -44143 -44144 -44375 0
-44315 43928 0
-44315 44236 0
-44315 44144 0
44315 -43928 -44236 -44144 0
-44451 43928 0
-44451 44143 0
-44451 44147 0
44451 -43928 -44143 -44147 0
-44466 43968 0
-44466 44150 0
-44466 43579 0
44466 -43968 -44150 -43579 0
-44497 43943 0
-44497 44153 0
44497 -43943 -44153 0
-44446 43584 0
-44446 44156 0
-44446 44418 0
44446 -43584 -44156 -44418 0
-44318 43919 0
-44318 44159 0
-44318 44236 0
44318 -43919 -44159 -44236 0
-44322 44162 0
-44322 44236 0
44322 -44162 -44236 0
-44502 44165 0
-44502 44028 0
44502 -44165 -44028 0
-44325 44168 0
-44325 44028 0
44325 -44168 -44028 0
-44435 43928 0
-44435 44418 0
-44435 44171 0
44435 -43928 -44418 -44171 0
-43604 44174 0
-43604 44039 0
-43604 43985 0
43604 -44174 -44039 -43985 0
-44503 44016 0
-44503 44177 0
44503 -44016 -44177 0
-44328 44180 0
-44328 43928 0
44328 -44180 -43928 0
-44450 44239 0
-44450 44180 0
44450 -44239 -44180 0
-44331 43624 0
-44331 44183 0
44331 -43624 -44183 0
-44334 43968 0
-44334 44186 0
44334 -43968 -44186 0
-44336 43624 0
-44336 44189 0
44336 -43624 -44189 0
-44341 44192 0
-44341 44236 0
44341 -44192 -44236 0
-44344 44195 0
-44344 43928 0
44344 -44195 -43928 0
-44346 44198 0
-44346 44239 0
44346 -44198 -44239 0
-44351 44201 0
-44351 44236 0
44351 -44201 -44236 0
-44354 44204 0
-44354 43928 0
44354 -44204 -43928 0
-44509 44207 0
-44509 43988 0
44509 -44207 -43988 0
-44448 43928 0
-44448 44210 0
44448 -43928 -44210 0
-44407 43917 0
-44407 44213 0
44407 -43917 -44213 0
-44356 44216 0
-44356 44039 0
44356 -44216 -44039 0
-44359 43943 0
-44359 44039 0
-44359 44219 0
44359 -43943 -44039 -44219 0
-44362 44222 0
-44362 44027 0
44362 -44222 -44027 0
-44482 43887 0
-44482 44225 0
-44482 44039 0
44482 -43887 -44225 -44039 0
-44365 44228 0
-44365 43983 0
44365 -44228 -43983 0
-44368 44231 0
-44368 43983 0
44368 -44231 -43983 0
-44372 44234 0
-44372 43985 0
44372 -44234 -43985 0
-44376 44237 0
-44376 43928 0
44376 -44237 -43928 0
-44379 44240 0
-44379 44039 0
44379 -44240 -44039 0
-44427 43928 0
-44427 44243 0
44427 -43928 -44243 0
-44412 43919 0
-44412 44246 0
44412 -43919 -44246 0
-44385 44039 0
-44385 44251 0
44385 -44039 -44251 0
-44388 44254 0
-44388 43985 0
44388 -44254 -43985 0
-44391 44257 0
-44391 44239 0
44391 -44257 -44239 0
-44396 43919 0
-44396 44260 0
44396 -43919 -44260 0
-44399 44265 0
-44399 43928 0
-44399 44236 0
44399 -44265 -43928 -44236 0
-44455 43887 0
-44455 44268 0
44455 -43887 -44268 0
-44402 44039 0
-44402 44271 0
44402 -44039 -44271 0
-44422 44016 0
-44422 44274 0
44422 -44016 -44274 0
-44480 43943 0
-44480 44277 0
44480 -43943 -44277 0
-44405 44280 0
-44405 44236 0
44405 -44280 -44236 0
-44408 44039 0
-44408 44283 0
44408 -44039 -44283 0
-44411 44287 0
-44411 44039 0
44411 -44287 -44039 0
-44434 44293 0
-44434 44076 0
44434 -44293 -44076 0
-43725 44296 0
-43725 43919 0
-43725 44143 0
43725 -44296 -43919 -44143 0
-44414 43928 0
-44414 43731 0
44414 -43928 -43731 0
-44459 43887 0
-44459 44306 0
44459 -43887 -44306 0
-44439 44309 0
-44439 43928 0
44439 -44309 -43928 0
-43812 44313 0
-43812 43908 0
-43812 43907 0
43812 -44313 -43908 -43907 0
-44443 44316 0
-44443 44143 0
44443 -44316 -44143 0
-43745 44320 0
-43745 43919 0
-43745 43928 0
43745 -44320 -43919 -43928 0
-44499 43887 0
-44499 44323 0
44499 -43887 -44323 0
-44516 44326 0
-44516 44236 0
44516 -44326 -44236 0
-44423 44329 0
-44423 44028 0
44423 -44329 -44028 0
-44445 44332 0
-44445 43985 0
44445 -44332 -43985 0
-44426 44335 0
-44426 44239 0
44426 -44335 -44239 0
-44461 43928 0
-44461 44339 0
44461 -43928 -44339 0
-44429 44342 0
-44429 44236 0
44429 -44342 -44236 0
-44433 44039 0
-44433 44345 0
44433 -44039 -44345 0
-44521 44349 0
-44521 43985 0
44521 -44349 -43985 0
-44440 44016 0
-44440 44352 0
44440 -44016 -44352 0
-44493 43943 0
-44493 44355 0
44493 -43943 -44355 0
-44467 44358 0
-44467 43983 0
44467 -44358 -43983 0
-44484 44361 0
-44484 43887 0
44484 -44361 -43887 0
-44514 44039 0
-44514 44364 0
44514 -44039 -44364 0
-44442 44039 0
-44442 44367 0
44442 -44039 -44367 0
-44447 44039 0
-44447 44370 0
44447 -44039 -44370 0
-44519 44377 0
-44519 43887 0
44519 -44377 -43887 0
-44456 43919 0
-44456 44380 0
44456 -43919 -44380 0
-44510 43887 0
-44510 44384 0
44510 -43887 -44384 0
-44458 44387 0
-44458 44143 0
44458 -44387 -44143 0
-43809 43919 0
-43809 44143 0
-43809 43812 0
43809 -43919 -44143 -43812 0
-43813 44390 0
-43813 44143 0
43813 -44390 -44143 0
-44468 43919 0
-44468 44397 0
44468 -43919 -44397 0
-44494 43887 0
-44494 44400 0
44494 -43887 -44400 0
-44471 43919 0
-44471 44403 0
44471 -43919 -44403 0
-44473 44413 0
-44473 44375 0
44473 -44413 -44375 0
-44476 43919 0
-44476 44416 0
44476 -43919 -44416 0
-44481 44425 0
-44481 43919 0
44481 -44425 -43919 0
-44485 44428 0
-44485 43919 0
44485 -44428 -43919 0
-44489 43919 0
-44489 44431 0
44489 -43919 -44431 0
-44492 44436 0
-44492 43919 0
44492 -44436 -43919 0
-44498 44444 0
-44498 43919 0
44498 -44444 -43919 0
-44501 44449 0
-44501 43919 0
44501 -44449 -43919 0
-44507 44457 0
-44507 44016 0
44507 -44457 -44016 0
-44511 43919 0
-44511 44460 0
44511 -43919 -44460 0
-44513 44469 0
-44513 43928 0
44513 -44469 -43928 0
-44517 44472 0
-44517 44143 0
44517 -44472 -44143 0
-44520 43919 0
-44520 44515 0
44520 -43919 -44515 0
-44533 43865 0
-44533 43881 0
44533 -43865 -43881 0
-44527 43868 0
-44527 43881 0
44527 -43868 -43881 0
-44531 43871 0
-44531 43881 0
44531 -43871 -43881 0
-44523 43874 0
-44523 43881 0
44523 -43874 -43881 0
-44525 43877 0
-44525 43881 0
44525 -43877 -43881 0
-44529 43880 0
-44529 43881 0
44529 -43880 -43881 0
43882 -43883 0
43882 -43908 0
-43882 43883 43908 0
43885 -44016 0
43885 -43887 0
-43885 44016 43887 0
43888 -44239 0
43888 -43985 0
-43888 44239 43985 0
43891 -43985 0
43891 -43983 0
-43891 43985 43983 0
43894 -43946 0
43894 -44418 0
-43894 43946 44418 0
43897 -44239 0
43897 -44418 0
-43897 44239 44418 0
43900 -43943 0
43900 -44418 0
-43900 43943 44418 0
43903 -43904 0
43903 -43907 0
-43903 43904 43907 0
43906 -43907 0
43906 -43908 0
-43906 43907 43908 0
43909 -43910 0
43909 -43917 0
-43909 43910 43917 0
43912 -43917 0
43912 -43985 0
-43912 43917 43985 0
43967 -43916 0
43967 -43917 0
-43967 43916 43917 0
43918 -43919 0
43918 -43985 0
-43918 43919 43985 0
43921 -43928 0
43921 -43985 0
-43921 43928 43985 0
43924 -43928 0
43924 -43983 0
-43924 43928 43983 0
43927 -43928 0
43927 -44236 0
-43927 43928 44236 0
43930 -44236 0
43930 -44016 0
-43930 44236 44016 0
43933 -43946 0
43933 -44028 0
-43933 43946 44028 0
43936 -44028 0
43936 -44239 0
-43936 44028 44239 0
43982 -44028 0
43982 -44418 0
-43982 44028 44418 0
43942 -43943 0
43942 -44028 0
-43942 43943 44028 0
43945 -43946 0
43945 -44076 0
-43945 43946 44076 0
43948 -44028 0
43948 -44076 0
-43948 44028 44076 0
43997 -44076 0
43997 -44418 0
-43997 44076 44418 0
43954 -44076 0
43954 -44143 0
-43954 44076 44143 0
43957 -44028 0
43957 -44143 0
-43957 44028 44143 0
43960 -44239 0
43960 -44143 0
-43960 44239 44143 0
43963 -44239 0
43963 -43965 0
-43963 44239 43965 0
43966 -43967 0
43966 -43968 0
-43966 43967 43968 0
43969 -43970 0
43969 -43983 0
-43969 43970 43983 0
43972 -43973 0
43972 -43974 0
-43972 43973 43974 0
43975 -43976 0
43975 -44418 0
-43975 43976 44418 0
43978 -43979 0
43978 -43980 0
-43978 43979 43980 0
43981 -43982 0
43981 -43983 0
-43981 43982 43983 0
43984 -43985 0
43984 -43986 0
-43984 43985 43986 0
43987 -43988 0
43987 -43989 0
-43987 43988 43989 0
44054 -43991 0
44054 -43992 0
-44054 43991 43992 0
43993 -43997 0
43993 -43995 0
-43993 43997 43995 0
43996 -43997 0
43996 -43998 0
-43996 43997 43998 0
43999 -44239 0
43999 -44001 0
-43999 44239 44001 0
44002 -44146 0
44002 -44236 0
-44002 44146 44236 0
44005 -44006 0
44005 -44007 0
-44005 44006 44007 0
44008 -44009 0
44008 -44010 0
-44008 44009 44010 0
44011 -44012 0
44011 -44013 0
-44011 44012 44013 0
44014 -44375 0
44014 -44016 0
-44014 44375 44016 0
44017 -44418 0
44017 -44019 0
-44017 44418 44019 0
44020 -44021 0
44020 -44022 0
-44020 44021 44022 0
44023 -44024 0
44023 -44025 0
-44023 44024 44025 0
44026 -44027 0
44026 -44028 0
-44026 44027 44028 0
44029 -44030 0
44029 -44031 0
-44029 44030 44031 0
44032 -44033 0
44032 -44034 0
-44032 44033 44034 0
44035 -44036 0
44035 -44076 0
-44035 44036 44076 0
44038 -44039 0
44038 -44040 0
-44038 44039 44040 0
44041 -44042 0
44041 -44043 0
-44041 44042 44043 0
44044 -44045 0
44044 -44046 0
-44044 44045 44046 0
44047 -44048 0
44047 -44049 0
-44047 44048 44049 0
44050 -44051 0
44050 -44052 0
-44050 44051 44052 0
44053 -44054 0
44053 -44239 0
-44053 44054 44239 0
44056 -44057 0
44056 -44058 0
-44056 44057 44058 0
44059 -44066 0
44059 -44061 0
-44059 44066 44061 0
44062 -44066 0
44062 -44064 0
-44062 44066 44064 0
44065 -44066 0
44065 -44067 0
-44065 44066 44067 0
44068 -44069 0
44068 -44070 0
-44068 44069 44070 0
44071 -44072 0
44071 -44073 0
-44071 44072 44073 0
44074 -44081 0
44074 -44076 0
-44074 44081 44076 0
44077 -44081 0
44077 -44079 0
-44077 44081 44079 0
44080 -44081 0
44080 -44082 0
-44080 44081 44082 0
44083 -44084 0
44083 -44085 0
-44083 44084 44085 0
44086 -44087 0
44086 -44088 0
-44086 44087 44088 0
44089 -44090 0
44089 -44091 0
-44089 44090 44091 0
44092 -44093 0
44092 -44094 0
-44092 44093 44094 0
44095 -44096 0
44095 -44097 0
-44095 44096 44097 0
44098 -44099 0
44098 -44100 0
-44098 44099 44100 0
44101 -44102 0
44101 -44103 0
-44101 44102 44103 0
44104 -44105 0
44104 -44106 0
-44104 44105 44106 0
44107 -44108 0
44107 -44109 0
-44107 44108 44109 0
44110 -44111 0
44110 -44112 0
-44110 44111 44112 0
44113 -44114 0
44113 -44115 0
-44113 44114 44115 0
44116 -44117 0
44116 -44118 0
-44116 44117 44118 0
44119 -44120 0
44119 -44121 0
-44119 44120 44121 0
44122 -44123 0
44122 -44124 0
-44122 44123 44124 0
44125 -44126 0
44125 -44127 0
-44125 44126 44127 0
44128 -44129 0
44128 -44130 0
-44128 44129 44130 0
44131 -44132 0
44131 -44133 0
-44131 44132 44133 0
44134 -44327 0
44134 -44239 0
44134 -44137 0
-44134 44327 44239 44137 0
44138 -44139 0
44138 -44140 0
-44138 44139 44140 0
44141 -44142 0
44141 -44143 0
-44141 44142 44143 0
44144 -44145 0
44144 -44146 0
-44144 44145 44146 0
44147 -44148 0
44147 -44149 0
-44147 44148 44149 0
44150 -44151 0
44150 -44152 0
-44150 44151 44152 0
44153 -44154 0
44153 -44155 0
-44153 44154 44155 0
44156 -44157 0
44156 -44158 0
-44156 44157 44158 0
44159 -44160 0
44159 -44161 0
-44159 44160 44161 0
44162 -44163 0
44162 -44164 0
-44162 44163 44164 0
44165 -44166 0
44165 -44167 0
-44165 44166 44167 0
44168 -44169 0
44168 -44170 0
-44168 44169 44170 0
44171 -44172 0
44171 -44173 0
-44171 44172 44173 0
44174 -44175 0
44174 -44176 0
-44174 44175 44176 0
44177 -44178 0
44177 -44179 0
-44177 44178 44179 0
44180 -44181 0
44180 -44182 0
-44180 44181 44182 0
44183 -44184 0
44183 -44185 0
-44183 44184 44185 0
44186 -44187 0
44186 -44188 0
-44186 44187 44188 0
44189 -44190 0
44189 -44191 0
-44189 44190 44191 0
44192 -44193 0
44192 -44194 0
-44192 44193 44194 0
44195 -44327 0
44195 -44197 0
-44195 44327 44197 0
44198 -44199 0
44198 -44200 0
-44198 44199 44200 0
44201 -44202 0
44201 -44203 0
-44201 44202 44203 0
44204 -44205 0
44204 -44239 0
-44204 44205 44239 0
44207 -44208 0
44207 -44209 0
-44207 44208 44209 0
44210 -44211 0
44210 -44212 0
-44210 44211 44212 0
44213 -44214 0
44213 -44215 0
-44213 44214 44215 0
44216 -44217 0
44216 -44218 0
-44216 44217 44218 0
44219 -44220 0
44219 -44221 0
-44219 44220 44221 0
44222 -44223 0
44222 -44224 0
-44222 44223 44224 0
44225 -44226 0
44225 -44227 0
-44225 44226 44227 0
44228 -44229 0
44228 -44230 0
-44228 44229 44230 0
44231 -44232 0
44231 -44233 0
-44231 44232 44233 0
44234 -44235 0
44234 -44236 0
-44234 44235 44236 0
44237 -44238 0
44237 -44239 0
-44237 44238 44239 0
44240 -44241 0
44240 -44242 0
-44240 44241 44242 0
44243 -44244 0
44243 -44245 0
-44243 44244 44245 0
44246 -44247 0
44246 -44248 0
44246 -44249 0
44246 -44250 0
-44246 44247 44248 44249 44250 0
44251 -44252 0
44251 -44253 0
-44251 44252 44253 0
44254 -44255 0
44254 -44256 0
-44254 44255 44256 0
44257 -44258 0
44257 -44259 0
-44257 44258 44259 0
44260 -44261 0
44260 -44262 0
44260 -44418 0
44260 -44264 0
-44260 44261 44262 44418 44264 0
44265 -44266 0
44265 -44267 0
-44265 44266 44267 0
44268 -44269 0
44268 -44270 0
-44268 44269 44270 0
44271 -44272 0
44271 -44273 0
-44271 44272 44273 0
44274 -44275 0
44274 -44276 0
-44274 44275 44276 0
44277 -44278 0
44277 -44279 0
-44277 44278 44279 0
44280 -44281 0
44280 -44282 0
-44280 44281 44282 0
44283 -44284 0
44283 -44285 0
44283 -44286 0
-44283 44284 44285 44286 0
44287 -44288 0
44287 -44289 0
-44287 44288 44289 0
44290 -44291 0
44290 -44292 0
-44290 44291 44292 0
44293 -44294 0
44293 -44295 0
-44293 44294 44295 0
44296 -44297 0
44296 -44298 0
-44296 44297 44298 0
44299 -44300 0
44299 -44301 0
-44299 44300 44301 0
44383 -44303 0
44383 -44304 0
44383 -44305 0
-44383 44303 44304 44305 0
44306 -44307 0
44306 -44308 0
-44306 44307 44308 0
44309 -44310 0
44309 -44311 0
44309 -44312 0
-44309 44310 44311 44312 0
44313 -44314 0
44313 -44315 0
-44313 44314 44315 0
44316 -44317 0
44316 -44318 0
44316 -44319 0
-44316 44317 44318 44319 0
44320 -44321 0
44320 -44322 0
-44320 44321 44322 0
44323 -44324 0
44323 -44325 0
-44323 44324 44325 0
44326 -44327 0
44326 -44328 0
-44326 44327 44328 0
44329 -44330 0
44329 -44331 0
-44329 44330 44331 0
44332 -44333 0
44332 -44334 0
-44332 44333 44334 0
44335 -44336 0
44335 -44337 0
44335 -44338 0
-44335 44336 44337 44338 0
44339 -44340 0
44339 -44341 0
-44339 44340 44341 0
44342 -44343 0
44342 -44344 0
-44342 44343 44344 0
44345 -44346 0
44345 -44347 0
44345 -44348 0
-44345 44346 44347 44348 0
44349 -44350 0
44349 -44351 0
-44349 44350 44351 0
44352 -44353 0
44352 -44354 0
-44352 44353 44354 0
44355 -44356 0
44355 -44357 0
-44355 44356 44357 0
44358 -44359 0
44358 -44360 0
-44358 44359 44360 0
44361 -44362 0
44361 -44363 0
-44361 44362 44363 0
44364 -44365 0
44364 -44366 0
-44364 44365 44366 0
44367 -44368 0
44367 -44369 0
-44367 44368 44369 0
44370 -44371 0
44370 -44372 0
-44370 44371 44372 0
44420 -44374 0
44420 -44375 0
44420 -44376 0
-44420 44374 44375 44376 0
44377 -44378 0
44377 -44379 0
-44377 44378 44379 0
44380 -44381 0
44380 -44382 0
44380 -44383 0
-44380 44381 44382 44383 0
44384 -44385 0
44384 -44386 0
-44384 44385 44386 0
44387 -44388 0
44387 -44389 0
-44387 44388 44389 0
44390 -44391 0
44390 -44392 0
-44390 44391 44392 0
44393 -44394 0
44393 -44395 0
44393 -44396 0
-44393 44394 44395 44396 0
44397 -44398 0
44397 -44399 0
-44397 44398 44399 0
44400 -44401 0
44400 -44402 0
-44400 44401 44402 0
44403 -44404 0
44403 -44405 0
-44403 44404 44405 0
44452 -44407 0
44452 -44408 0
44452 -44409 0
-44452 44407 44408 44409 0
44410 -44411 0
44410 -44412 0
-44410 44411 44412 0
44413 -44414 0
44413 -44415 0
-44413 44414 44415 0
44416 -44417 0
44416 -44418 0
44416 -44419 0
44416 -44420 0
-44416 44417 44418 44419 44420 0
44464 -44422 0
44464 -44423 0
44464 -44424 0
-44464 44422 44423 44424 0
44425 -44426 0
44425 -44427 0
-44425 44426 44427 0
44428 -44429 0
44428 -44430 0
-44428 44429 44430 0
44431 -44432 0
44431 -44433 0
44431 -44434 0
44431 -44435 0
-44431 44432 44433 44434 44435 0
44436 -44437 0
44436 -44438 0
44436 -44439 0
44436 -44440 0
-44436 44437 44438 44439 44440 0
44441 -44442 0
44441 -44443 0
-44441 44442 44443 0
44444 -44445 0
44444 -44446 0
44444 -44447 0
44444 -44448 0
-44444 44445 44446 44447 44448 0
44449 -44450 0
44449 -44451 0
44449 -44452 0
-44449 44450 44451 44452 0
44453 -44454 0
44453 -44455 0
44453 -44456 0
-44453 44454 44455 44456 0
44457 -44458 0
44457 -44459 0
-44457 44458 44459 0
44460 -44461 0
44460 -44462 0
44460 -44463 0
44460 -44464 0
-44460 44461 44462 44463 44464 0
44465 -44466 0
44465 -44467 0
44465 -44468 0
-44465 44466 44467 44468 0
44469 -44470 0
44469 -44471 0
-44469 44470 44471 0
44472 -44473 0
44472 -44474 0
-44472 44473 44474 0
44475 -44476 0
44475 -44477 0
44475 -44478 0
-44475 44476 44477 44478 0
44479 -44480 0
44479 -44481 0
44479 -44482 0
-44479 44480 44481 44482 0
44483 -44484 0
44483 -44485 0
-44483 44484 44485 0
44486 -44487 0
44486 -44488 0
44486 -44489 0
-44486 44487 44488 44489 0
44490 -44491 0
44490 -44492 0
44490 -44493 0
44490 -44494 0
-44490 44491 44492 44493 44494 0
44495 -44496 0
44495 -44497 0
44495 -44498 0
44495 -44499 0
-44495 44496 44497 44498 44499 0
44500 -44501 0
44500 -44502 0
44500 -44503 0
44500 -44504 0
-44500 44501 44502 44503 44504 0
44505 -44506 0
44505 -44507 0
-44505 44506 44507 0
44508 -44509 0
44508 -44510 0
44508 -44511 0
-44508 44509 44510 44511 0
44512 -44513 0
44512 -44514 0
-44512 44513 44514 0
44515 -44516 0
44515 -44517 0
-44515 44516 44517 0
44518 -44519 0
44518 -44520 0
44518 -44521 0
-44518 44519 44520 44521 0
-44523 46432 0
44523 -46432 0
-44525 45997 0
44525 -45997 0
-44527 45999 0
44527 -45999 0
-44529 46253 0
44529 -46253 0
-44531 46053 0
44531 -46053 0
-44533 45901 0
44533 -45901 0
45982 45960 0
-45982 -45960 0
45638 45930 0
-45638 -45930 0
45957 46030 0
-45957 -46030 0
45924 45598 0
-45924 -45598 0
45918 45922 0
-45918 -45922 0
45921 45897 0
-45921 -45897 0
45931 45379 0
-45931 -45379 0
45933 45901 0
-45933 -45901 0
45942 46053 0
-45942 -46053 0
46250 46253 0
-46250 -46253 0
46042 45999 0
-46042 -45999 0
46090 45997 0
-46090 -45997 0
46157 46432 0
-46157 -46432 0
46388 45896 0
-46388 -45896 0
44565 46253 0
-44565 -46253 0
46000 44565 0
-46000 -44565 0
46002 45902 0
-46002 -45902 0
44571 46030 0
-44571 -46030 0
44964 44571 0
-44964 -44571 0
46160 45905 0
-46160 -45905 0
44577 46042 0
-44577 -46042 0
46027 44577 0
-46027 -44577 0
45593 45911 0
-45593 -45911 0
45427 45914 0
-45427 -45914 0
46389 45917 0
-46389 -45917 0
44587 45917 0
-44587 -45917 0
46081 44587 0
-46081 -44587 0
45454 45923 0
-45454 -45923 0
45319 45981 0
-45319 -45981 0
45082 45932 0
-45082 -45932 0
46038 45935 0
-46038 -45935 0
46041 45938 0
-46041 -45938 0
45455 45941 0
-45455 -45941 0
46047 45944 0
-46047 -45944 0
46050 45947 0
-46050 -45947 0
46110 45950 0
-46110 -45950 0
45155 45996 0
-45155 -45996 0
45336 45956 0
-45336 -45956 0
46065 45959 0
-46065 -45959 0
45209 45962 0
-45209 -45962 0
45413 46011 0
-45413 -46011 0
46080 45968 0
-46080 -45968 0
46261 45971 0
-46261 -45971 0
46095 45974 0
-46095 -45974 0
44625 45997 0
-44625 -45997 0
45421 44625 0
-45421 -44625 0
46341 45995 0
-46341 -45995 0
44631 44836 0
-44631 -44836 0
45470 44631 0
-45470 -44631 0
44635 45073 0
-44635 -45073 0
45524 44635 0
-45524 -44635 0
46252 46049 0
-46252 -46049 0
44638 45329 0
-44638 -45329 0
44640 45538 0
-44640 -45538 0
45745 46251 0
-45745 -46251 0
44644 45618 0
-44644 -45618 0
44646 46304 0
-44646 -46304 0
44648 46313 0
-44648 -46313 0
44650 45739 0
-44650 -45739 0
44652 46407 0
-44652 -46407 0
44654 45759 0
-44654 -45759 0
44656 46424 0
-44656 -46424 0
44658 45823 0
-44658 -45823 0
44660 45827 0
-44660 -45827 0
44662 46455 0
-44662 -46455 0
44664 46467 0
-44664 -46467 0
44666 46479 0
-44666 -46479 0
44668 46489 0
-44668 -46489 0
44687 46493 0
-44687 -46493 0
44672 46497 0
-44672 -46497 0
44689 46500 0
-44689 -46500 0
44691 46504 0
-44691 -46504 0
44695 46509 0
-44695 -46509 0
44697 46514 0
-44697 -46514 0
44682 46519 0
-44682 -46519 0
44699 46522 0
-44699 -46522 0
45879 44687 0
-45879 -44687 0
45882 44689 0
-45882 -44689 0
45885 44691 0
-45885 -44691 0
44692 46526 0
-44692 -46526 0
45888 44695 0
-45888 -44695 0
45891 44697 0
-45891 -44697 0
45894 44699 0
-45894 -44699 0
44700 46532 0
-44700 -46532 0
-45993 46253 0
-45993 45999 0
45993 -46253 -45999 0
-46003 46253 0
-46003 45999 0
46003 -46253 -45999 0
-46044 46053 0
-46044 46253 0
-46044 45999 0
46044 -46053 -46253 -45999 0
-46020 46053 0
-46020 45997 0
46020 -46053 -45997 0
-46005 45960 0
-46005 45997 0
46005 -45960 -45997 0
-46105 45960 0
-46105 45997 0
46105 -45960 -45997 0
-46035 46030 0
-46035 45997 0
46035 -46030 -45997 0
-46269 46253 0
-46269 45997 0
46269 -46253 -45997 0
-45979 45930 0
-45979 46432 0
45979 -45930 -46432 0
-45984 45924 0
-45984 45931 0
45984 -45924 -45931 0
-45333 45598 0
-45333 45933 0
-45333 45999 0
45333 -45598 -45933 -45999 0
-45988 45960 0
-45988 45942 0
-45988 45997 0
45988 -45960 -45942 -45997 0
-46023 45931 0
-46023 45933 0
-46023 45942 0
-46023 46432 0
46023 -45931 -45933 -45942 -46432 0
-46048 45942 0
-46048 45997 0
46048 -45942 -45997 0
-46123 45942 0
-46123 46253 0
-46123 46432 0
46123 -45942 -46253 -46432 0
-46039 45942 0
-46039 46253 0
-46039 45999 0
46039 -45942 -46253 -45999 0
-44976 45930 0
-44976 45379 0
-44976 45933 0
-44976 45942 0
44976 -45930 -45379 -45933 -45942 0
-45987 45957 0
-45987 46053 0
-45987 46250 0
45987 -45957 -46053 -46250 0
-45990 46250 0
-45990 45997 0
45990 -46250 -45997 0
-46009 45924 0
-46009 46250 0
46009 -45924 -46250 0
-46132 45933 0
-46132 45942 0
-46132 46250 0
46132 -45933 -45942 -46250 0
-45337 45901 0
-45337 46053 0
-45337 46250 0
45337 -45901 -46053 -46250 0
-45994 45942 0
-45994 46042 0
45994 -45942 -46042 0
-46108 45930 0
-46108 46042 0
-46108 46432 0
46108 -45930 -46042 -46432 0
-46141 45942 0
-46141 46042 0
-46141 45997 0
46141 -45942 -46042 -45997 0
-46129 46042 0
-46129 46432 0
46129 -46042 -46432 0
-46163 45638 0
-46163 46253 0
-46163 46042 0
46163 -45638 -46253 -46042 0
-46012 45942 0
-46012 46042 0
46012 -45942 -46042 0
-46403 46053 0
-46403 45997 0
-46403 45902 0
46403 -46053 -45997 -45902 0
-46006 45999 0
-46006 46090 0
46006 -45999 -46090 0
-46015 45379 0
-46015 46090 0
46015 -45379 -46090 0
-45072 45933 0
-45072 46253 0
-45072 46090 0
45072 -45933 -46253 -46090 0
-46066 46250 0
-46066 46090 0
46066 -46250 -46090 0
-46102 45942 0
-46102 46090 0
46102 -45942 -46090 0
-46196 45999 0
-46196 46090 0
46196 -45999 -46090 0
-46096 46253 0
-46096 46090 0
46096 -46253 -46090 0
-46114 45999 0
-46114 46090 0
46114 -45999 -46090 0
-46062 45999 0
-46062 46090 0
46062 -45999 -46090 0
-46431 45999 0
-46431 46090 0
46431 -45999 -46090 0
-44836 46053 0
-44836 45905 0
44836 -46053 -45905 0
-46117 45905 0
-46117 46432 0
46117 -45905 -46432 0
-46021 45933 0
-46021 46157 0
46021 -45933 -46157 0
-46024 46053 0
-46024 46157 0
46024 -46053 -46157 0
-46193 45933 0
-46193 46253 0
-46193 46042 0
-46193 46157 0
46193 -45933 -46253 -46042 -46157 0
-46199 45942 0
-46199 46253 0
-46199 46090 0
-46199 46157 0
46199 -45942 -46253 -46090 -46157 0
-46075 45942 0
-46075 46090 0
-46075 46157 0
46075 -45942 -46090 -46157 0
-46229 45942 0
-46229 46253 0
-46229 46042 0
-46229 46157 0
46229 -45942 -46253 -46042 -46157 0
-46078 45921 0
-46078 46090 0
-46078 46157 0
46078 -45921 -46090 -46157 0
-46205 45942 0
-46205 46090 0
-46205 46157 0
46205 -45942 -46090 -46157 0
-46093 45598 0
-46093 46042 0
-46093 46157 0
46093 -45598 -46042 -46157 0
-46087 46042 0
-46087 46157 0
46087 -46042 -46157 0
-46238 45902 0
-46238 46157 0
46238 -45902 -46157 0
-46099 45942 0
-46099 46253 0
-46099 46090 0
-46099 46157 0
46099 -45942 -46253 -46090 -46157 0
-46084 46090 0
-46084 46157 0
46084 -46090 -46157 0
-46247 45899 0
-46247 46157 0
-46247 45902 0
46247 -45899 -46157 -45902 0
-46214 45931 0
-46214 46090 0
-46214 46157 0
46214 -45931 -46090 -46157 0
-46267 46157 0
-46267 45905 0
46267 -46157 -45905 0
-46380 45901 0
-46380 46157 0
46380 -45901 -46157 0
-46151 45908 0
-46151 45997 0
46151 -45908 -45997 0
-46026 45914 0
-46026 46090 0
46026 -45914 -46090 0
-46033 46042 0
-46033 45920 0
46033 -46042 -45920 0
-46036 45923 0
-46036 46090 0
46036 -45923 -46090 0
-46057 45926 0
-46057 46090 0
-46057 46157 0
46057 -45926 -46090 -46157 0
-46235 45932 0
-46235 45921 0
-46235 46253 0
-46235 46157 0
46235 -45932 -45921 -46253 -46157 0
-46045 45941 0
-46045 46042 0
46045 -45941 -46042 0
-46060 45997 0
-46060 45944 0
46060 -45997 -45944 0
-46054 45950 0
-46054 45997 0
46054 -45950 -45997 0
-46154 46053 0
-46154 45996 0
46154 -46053 -45996 0
-46056 45997 0
-46056 45996 0
46056 -45997 -45996 0
-46059 45956 0
-46059 46090 0
46059 -45956 -46090 0
-46063 45997 0
-46063 45956 0
46063 -45997 -45956 0
-46147 45931 0
-46147 45942 0
-46147 46432 0
-46147 46002 0
46147 -45931 -45942 -46432 -46002 0
-46452 46053 0
-46452 46157 0
-46452 46002 0
46452 -46053 -46157 -46002 0
-46072 46253 0
-46072 46432 0
-46072 45962 0
46072 -46253 -46432 -45962 0
-46433 46053 0
-46433 44964 0
46433 -46053 -44964 0
-46319 46253 0
-46319 46011 0
46319 -46253 -46011 0
-46178 45379 0
-46178 46432 0
-46178 46160 0
46178 -45379 -46432 -46160 0
-46169 46253 0
-46169 46157 0
-46169 46160 0
-46169 44976 0
46169 -46253 -46157 -46160 -44976 0
-46172 45942 0
-46172 46250 0
-46172 46160 0
46172 -45942 -46250 -46160 0
-46241 46253 0
-46241 46160 0
46241 -46253 -46160 0
-46071 45598 0
-46071 46157 0
-46071 46160 0
46071 -45598 -46157 -46160 0
-46354 45931 0
-46354 46253 0
-46354 46157 0
-46354 46160 0
46354 -45931 -46253 -46157 -46160 0
-46302 46253 0
-46302 46432 0
-46302 46160 0
46302 -46253 -46432 -46160 0
-45297 45933 0
-45297 45942 0
-45297 46160 0
45297 -45933 -45942 -46160 0
-46083 45968 0
-46083 46250 0
46083 -45968 -46250 0
-46256 46002 0
-46256 45968 0
46256 -46002 -45968 0
-46086 45971 0
-46086 46250 0
46086 -45971 -46250 0
-46144 45974 0
-46144 46042 0
46144 -45974 -46042 0
-46119 45942 0
-46119 45999 0
-46119 45593 0
46119 -45942 -45999 -45593 0
-46347 46090 0
-46347 45593 0
46347 -46090 -45593 0
-46510 46053 0
-46510 45999 0
-46510 45593 0
46510 -46053 -45999 -45593 0
-46098 45977 0
-46098 46053 0
-46098 45997 0
46098 -45977 -46053 -45997 0
-46244 45427 0
-46244 45902 0
46244 -45427 -45902 0
-46101 46053 0
-46101 45997 0
-46101 46389 0
46101 -46053 -45997 -46389 0
-46126 45942 0
-46126 46250 0
-46126 46090 0
-46126 46389 0
46126 -45942 -46250 -46090 -46389 0
-46104 46042 0
-46104 46389 0
46104 -46042 -46389 0
-46107 46053 0
-46107 46157 0
-46107 46389 0
46107 -46053 -46157 -46389 0
-46111 46253 0
-46111 46389 0
46111 -46253 -46389 0
-46201 45593 0
-46201 46389 0
46201 -45593 -46389 0
-46311 45942 0
-46311 46250 0
-46311 46160 0
-46311 46389 0
46311 -45942 -46250 -46160 -46389 0
-46344 46090 0
-46344 45593 0
-46344 46389 0
46344 -46090 -45593 -46389 0
-46308 46157 0
-46308 46002 0
-46308 46389 0
46308 -46157 -46002 -46389 0
-46275 45938 0
-46275 46389 0
46275 -45938 -46389 0
-46189 46157 0
-46189 45454 0
-46189 45072 0
46189 -46157 -45454 -45072 0
-45073 45598 0
-45073 46432 0
-45073 45980 0
45073 -45598 -46432 -45980 0
-46113 45983 0
-46113 46042 0
46113 -45983 -46042 0
-46116 46157 0
-46116 45082 0
46116 -46157 -45082 0
-46120 46253 0
-46120 45997 0
-46120 46038 0
46120 -46253 -45997 -46038 0
-46166 45957 0
-46166 45901 0
-46166 46038 0
46166 -45957 -45901 -46038 0
-46122 45957 0
-46122 46157 0
-46122 46041 0
46122 -45957 -46157 -46041 0
-46180 46432 0
-46180 46041 0
46180 -46432 -46041 0
-46222 46157 0
-46222 46041 0
46222 -46157 -46041 0
-46183 45911 0
-46183 46041 0
46183 -45911 -46041 0
-46125 46030 0
-46125 45455 0
46125 -46030 -45455 0
-46128 46157 0
-46128 45455 0
46128 -46157 -45455 0
-46131 45997 0
-46131 45455 0
46131 -45997 -45455 0
-46135 46053 0
-46135 46047 0
46135 -46053 -46047 0
-46138 46053 0
-46138 45997 0
-46138 46047 0
46138 -46053 -45997 -46047 0
-46328 46053 0
-46328 45997 0
-46328 46047 0
46328 -46053 -45997 -46047 0
-46429 46053 0
-46429 45997 0
-46429 46047 0
46429 -46053 -45997 -46047 0
-46406 45933 0
-46406 45999 0
-46406 45986 0
46406 -45933 -45999 -45986 0
-46395 46042 0
-46395 45989 0
46395 -46042 -45989 0
-46134 45942 0
-46134 46250 0
-46134 46050 0
46134 -45942 -46250 -46050 0
-46137 45942 0
-46137 46250 0
-46137 46050 0
46137 -45942 -46250 -46050 0
-46140 46041 0
-46140 46110 0
46140 -46041 -46110 0
-46143 46432 0
-46143 46110 0
46143 -46432 -46110 0
-46146 45379 0
-46146 45155 0
-46146 45455 0
46146 -45379 -45155 -45455 0
-46207 45959 0
-46207 45155 0
46207 -45959 -45155 0
-46325 45995 0
-46325 46253 0
46325 -45995 -46253 0
-46153 46157 0
-46153 45336 0
46153 -46157 -45336 0
-46174 46090 0
-46174 45336 0
46174 -46090 -45336 0
-46357 46090 0
-46357 46157 0
-46357 45336 0
46357 -46090 -46157 -45336 0
-46488 45998 0
-46488 46030 0
-46488 46053 0
-46488 45997 0
46488 -45998 -46030 -46053 -45997 0
-46333 46001 0
-46333 45942 0
-46333 45997 0
46333 -46001 -45942 -45997 0
-46156 46250 0
-46156 45209 0
46156 -46250 -45209 0
-46159 45982 0
-46159 45209 0
46159 -45982 -45209 0
-46225 46253 0
-46225 45209 0
46225 -46253 -45209 0
-46162 46250 0
-46162 45209 0
46162 -46250 -45209 0
-46165 45921 0
-46165 45933 0
-46165 45942 0
-46165 45209 0
46165 -45921 -45933 -45942 -45209 0
-46168 46053 0
-46168 46250 0
-46168 45209 0
46168 -46053 -46250 -45209 0
-46171 45960 0
-46171 45981 0
-46171 46053 0
-46171 45209 0
46171 -45960 -45981 -46053 -45209 0
-46186 46250 0
-46186 45209 0
46186 -46250 -45209 0
-46272 45942 0
-46272 45209 0
46272 -45942 -45209 0
-46175 46068 0
-46175 45942 0
46175 -46068 -45942 0
-46177 45960 0
-46177 45999 0
-46177 45413 0
46177 -45960 -45999 -45413 0
-46181 45942 0
-46181 46253 0
-46181 45413 0
46181 -45942 -46253 -45413 0
-46232 45999 0
-46232 45413 0
46232 -45999 -45413 0
-46184 45942 0
-46184 45413 0
46184 -45942 -45413 0
-46321 46042 0
-46321 45413 0
46321 -46042 -45413 0
-46286 45999 0
-46286 45413 0
46286 -45999 -45413 0
-46377 45935 0
-46377 46253 0
-46377 45413 0
46377 -45935 -46253 -45413 0
-46338 46253 0
-46338 45999 0
-46338 45413 0
46338 -46253 -45999 -45413 0
-46283 45942 0
-46283 46042 0
-46283 45413 0
46283 -45942 -46042 -45413 0
-46364 45930 0
-46364 46253 0
-46364 45413 0
46364 -45930 -46253 -45413 0
-46258 46250 0
-46258 45413 0
-46258 46389 0
-46258 46050 0
46258 -46250 -45413 -46389 -46050 0
-46392 45942 0
-46392 46042 0
-46392 45413 0
46392 -45942 -46042 -45413 0
-46418 46253 0
-46418 45999 0
-46418 45413 0
46418 -46253 -45999 -45413 0
-46400 45413 0
-46400 45950 0
46400 -45413 -45950 0
-46385 46253 0
-46385 46042 0
-46385 45413 0
46385 -46253 -46042 -45413 0
-46408 45942 0
-46408 46042 0
-46408 45413 0
46408 -45942 -46042 -45413 0
-46415 45992 0
-46415 45413 0
46415 -45992 -45413 0
-46484 46002 0
-46484 45413 0
46484 -46002 -45413 0
-46298 46007 0
-46298 46042 0
46298 -46007 -46042 0
-46264 46253 0
-46264 46010 0
46264 -46253 -46010 0
-46187 46013 0
-46187 46042 0
46187 -46013 -46042 0
-46409 46016 0
-46409 46053 0
46409 -46016 -46053 0
-46491 46053 0
-46491 46016 0
46491 -46053 -46016 0
-46520 45593 0
-46520 46389 0
-46520 45297 0
46520 -45593 -46389 -45297 0
-46190 46030 0
-46190 45901 0
-46190 46250 0
-46190 46080 0
46190 -46030 -45901 -46250 -46080 0
-46192 45901 0
-46192 46053 0
-46192 46080 0
-46192 46110 0
46192 -45901 -46053 -46080 -46110 0
-46195 46042 0
-46195 46080 0
46195 -46042 -46080 0
-46198 45957 0
-46198 46053 0
-46198 46080 0
46198 -45957 -46053 -46080 0
-46202 45598 0
-46202 46053 0
-46202 46080 0
-46202 45319 0
46202 -45598 -46053 -46080 -45319 0
-46204 45379 0
-46204 46080 0
46204 -45379 -46080 0
-46208 46042 0
-46208 46080 0
46208 -46042 -46080 0
-46216 46053 0
-46216 46080 0
46216 -46053 -46080 0
-45329 46080 0
-45329 45455 0
-45329 45981 0
-45329 45333 0
45329 -46080 -45455 -45981 -45333 0
-46314 46080 0
-46314 45336 0
-46314 45337 0
46314 -46080 -45336 -45337 0
-46211 46042 0
-46211 46080 0
46211 -46042 -46080 0
-46335 46253 0
-46335 45999 0
-46335 46080 0
46335 -46253 -45999 -46080 0
-46367 45638 0
-46367 46042 0
-46367 46080 0
46367 -45638 -46042 -46080 0
-46213 45980 0
-46213 45598 0
-46213 46080 0
46213 -45980 -45598 -46080 0
-46451 46253 0
-46451 46080 0
46451 -46253 -46080 0
-46217 45638 0
-46217 46019 0
46217 -45638 -46019 0
-46219 45924 0
-46219 46261 0
46219 -45924 -46261 0
-46295 46090 0
-46295 46261 0
46295 -46090 -46261 0
-46280 46090 0
-46280 46261 0
46280 -46090 -46261 0
-46477 46253 0
-46477 46090 0
-46477 46261 0
46477 -46253 -46090 -46261 0
-46423 46090 0
-46423 46261 0
46423 -46090 -46261 0
-46223 45924 0
-46223 46022 0
46223 -45924 -46022 0
-46226 45379 0
-46226 46160 0
-46226 46095 0
46226 -45379 -46160 -46095 0
-46228 46090 0
-46228 46095 0
46228 -46090 -46095 0
-46231 45901 0
-46231 46095 0
46231 -45901 -46095 0
-46234 45901 0
-46234 45999 0
-46234 46095 0
46234 -45901 -45999 -46095 0
-46237 46042 0
-46237 46095 0
46237 -46042 -46095 0
-46240 45962 0
-46240 46095 0
46240 -45962 -46095 0
-46243 45999 0
-46243 46095 0
46243 -45999 -46095 0
-46246 45999 0
-46246 46095 0
46246 -45999 -46095 0
-46292 45901 0
-46292 46053 0
-46292 46095 0
46292 -45901 -46053 -46095 0
-46361 46025 0
-46361 46250 0
46361 -46025 -46250 0
-46249 46028 0
-46249 45413 0
46249 -46028 -45413 0
-46262 46031 0
-46262 46090 0
46262 -46031 -46090 0
-46278 46053 0
-46278 46034 0
46278 -46053 -46034 0
-46502 45421 0
-46502 45901 0
-46502 46253 0
-46502 46157 0
46502 -45421 -45901 -46253 -46157 0
-46446 46037 0
-46446 45427 0
46446 -46037 -45427 0
-46352 46040 0
-46352 46432 0
46352 -46040 -46432 0
-46374 45901 0
-46374 46157 0
-46374 46043 0
46374 -45901 -46157 -46043 0
-46396 46046 0
-46396 45920 0
46396 -46046 -45920 0
-46492 45901 0
-46492 46157 0
-46492 46052 0
46492 -45901 -46157 -46052 0
-46255 46253 0
-46255 46341 0
46255 -46253 -46341 0
-46305 45901 0
-46305 46341 0
-46305 45455 0
46305 -45901 -46341 -45455 0
-46289 46250 0
-46289 46341 0
46289 -46250 -46341 0
-46412 46341 0
-46412 45454 0
-46412 45455 0
46412 -46341 -45454 -45455 0
-46259 46055 0
-46259 46253 0
46259 -46055 -46253 0
-46263 46053 0
-46263 46058 0
46263 -46053 -46058 0
-46266 46250 0
-46266 46061 0
46266 -46250 -46061 0
-46270 45933 0
-46270 46064 0
46270 -45933 -46064 0
-46273 45901 0
-46273 45470 0
46273 -45901 -45470 0
-46276 46067 0
-46276 45942 0
46276 -46067 -45942 0
-46438 46053 0
-46438 46070 0
46438 -46053 -46070 0
-46351 45924 0
-46351 46073 0
46351 -45924 -46073 0
-46281 46076 0
-46281 46042 0
46281 -46076 -46042 0
-46362 46079 0
-46362 46042 0
46362 -46079 -46042 0
-46284 46082 0
-46284 46053 0
-46284 45999 0
46284 -46082 -46053 -45999 0
-46383 46085 0
-46383 45901 0
-46383 46090 0
46383 -46085 -45901 -46090 0
-46287 46088 0
-46287 46042 0
46287 -46088 -46042 0
-46505 46091 0
-46505 46041 0
46505 -46091 -46041 0
-46468 46094 0
-46468 46038 0
46468 -46094 -46038 0
-46290 46097 0
-46290 46042 0
46290 -46097 -46042 0
-46293 46100 0
-46293 45933 0
-46293 46253 0
-46293 46157 0
46293 -46100 -45933 -46253 -46157 0
-46296 46103 0
-46296 46157 0
46296 -46103 -46157 0
-46371 45933 0
-46371 45997 0
-46371 46106 0
46371 -45933 -45997 -46106 0
-46299 45957 0
-46299 46157 0
-46299 46109 0
46299 -45957 -46157 -46109 0
-46300 46253 0
-46300 45524 0
46300 -46253 -45524 0
-46326 46112 0
-46326 46432 0
46326 -46112 -46432 0
-46303 46115 0
-46303 46250 0
46303 -46115 -46250 0
-46476 46118 0
-46476 45917 0
46476 -46118 -45917 0
-46306 46121 0
-46306 45933 0
-46306 46042 0
46306 -46121 -45933 -46042 0
-45538 46124 0
-45538 45933 0
-45538 46042 0
-45538 46157 0
45538 -46124 -45933 -46042 -46157 0
-46309 45924 0
-46309 46127 0
46309 -45924 -46127 0
-46331 46130 0
-46331 46389 0
46331 -46130 -46389 0
-46312 46133 0
-46312 45896 0
-46312 45997 0
46312 -46133 -45896 -45997 0
-46444 45920 0
-46444 46136 0
-46444 46157 0
46444 -45920 -46136 -46157 0
-46518 45901 0
-46518 46157 0
-46518 46139 0
46518 -45901 -46157 -46139 0
-46501 46142 0
-46501 46041 0
46501 -46142 -46041 0
-46315 46145 0
-46315 45598 0
-46315 45933 0
-46315 46090 0
46315 -46145 -45598 -45933 -46090 0
-46318 45942 0
-46318 46148 0
46318 -45942 -46148 0
-46317 46152 0
-46317 46090 0
46317 -46152 -46090 0
-46322 46155 0
-46322 46053 0
46322 -46155 -46053 0
-46324 46157 0
-46324 46158 0
-46324 46389 0
46324 -46157 -46158 -46389 0
-46329 45942 0
-46329 46250 0
-46329 46158 0
46329 -45942 -46250 -46158 0
-46465 45942 0
-46465 46157 0
-46465 46161 0
46465 -45942 -46157 -46161 0
-46480 45982 0
-46480 46164 0
-46480 45593 0
46480 -45982 -46164 -45593 0
-46511 45957 0
-46511 46167 0
46511 -45957 -46167 0
-46460 45598 0
-46460 46170 0
-46460 46432 0
46460 -45598 -46170 -46432 0
-46332 45933 0
-46332 46173 0
-46332 46250 0
46332 -45933 -46173 -46250 0
-46336 46176 0
-46336 46250 0
46336 -46176 -46250 0
-46516 46179 0
-46516 46042 0
46516 -46179 -46042 0
-46339 46182 0
-46339 46042 0
46339 -46182 -46042 0
-46449 45942 0
-46449 46432 0
-46449 46185 0
46449 -45942 -46432 -46185 0
-45618 46188 0
-45618 46053 0
-45618 45999 0
45618 -46188 -46053 -45999 0
-46517 46030 0
-46517 46191 0
46517 -46030 -46191 0
-46342 46194 0
-46342 45942 0
46342 -46194 -45942 0
-46464 46253 0
-46464 46194 0
46464 -46253 -46194 0
-46345 45638 0
-46345 46197 0
46345 -45638 -46197 0
-46348 45982 0
-46348 46200 0
46348 -45982 -46200 0
-46350 45638 0
-46350 46203 0
46350 -45638 -46203 0
-46355 46206 0
-46355 46250 0
46355 -46206 -46250 0
-46358 46209 0
-46358 45942 0
46358 -46209 -45942 0
-46360 46212 0
-46360 46253 0
46360 -46212 -46253 0
-46365 46215 0
-46365 46250 0
46365 -46215 -46250 0
-46368 46218 0
-46368 45942 0
46368 -46218 -45942 0
-46523 46221 0
-46523 46002 0
46523 -46221 -46002 0
-46462 45942 0
-46462 46224 0
46462 -45942 -46224 0
-46421 45931 0
-46421 46227 0
46421 -45931 -46227 0
-46370 46230 0
-46370 46053 0
46370 -46230 -46053 0
-46373 45957 0
-46373 46053 0
-46373 46233 0
46373 -45957 -46053 -46233 0
-46376 46236 0
-46376 46041 0
46376 -46236 -46041 0
-46496 45901 0
-46496 46239 0
-46496 46053 0
46496 -45901 -46239 -46053 0
-46379 46242 0
-46379 45997 0
46379 -46242 -45997 0
-46382 46245 0
-46382 45997 0
46382 -46245 -45997 0
-46386 46248 0
-46386 45999 0
46386 -46248 -45999 0
-46390 46251 0
-46390 45942 0
46390 -46251 -45942 0
-46393 46254 0
-46393 46053 0
46393 -46254 -46053 0
-46441 45942 0
-46441 46257 0
46441 -45942 -46257 0
-46426 45933 0
-46426 46260 0
46426 -45933 -46260 0
-46399 46053 0
-46399 46265 0
46399 -46053 -46265 0
-46402 46268 0
-46402 45999 0
46402 -46268 -45999 0
-46405 46271 0
-46405 46253 0
46405 -46271 -46253 0
-46410 45933 0
-46410 46274 0
46410 -45933 -46274 0
-46413 46279 0
-46413 45942 0
-46413 46250 0
46413 -46279 -45942 -46250 0
-46469 45901 0
-46469 46282 0
46469 -45901 -46282 0
-46416 46053 0
-46416 46285 0
46416 -46053 -46285 0
-46436 46030 0
-46436 46288 0
46436 -46030 -46288 0
-46494 45957 0
-46494 46291 0
46494 -45957 -46291 0
-46419 46294 0
-46419 46250 0
46419 -46294 -46250 0
-46422 46053 0
-46422 46297 0
46422 -46053 -46297 0
-46425 46301 0
-46425 46053 0
46425 -46301 -46053 0
-46448 46307 0
-46448 46090 0
46448 -46307 -46090 0
-45739 46310 0
-45739 45933 0
-45739 46157 0
45739 -46310 -45933 -46157 0
-46428 45942 0
-46428 45745 0
46428 -45942 -45745 0
-46473 45901 0
-46473 46320 0
46473 -45901 -46320 0
-46453 46323 0
-46453 45942 0
46453 -46323 -45942 0
-45826 46327 0
-45826 45922 0
-45826 45921 0
45826 -46327 -45922 -45921 0
-46457 46330 0
-46457 46157 0
46457 -46330 -46157 0
-45759 46334 0
-45759 45933 0
-45759 45942 0
45759 -46334 -45933 -45942 0
-46513 45901 0
-46513 46337 0
46513 -45901 -46337 0
-46530 46340 0
-46530 46250 0
46530 -46340 -46250 0
-46437 46343 0
-46437 46042 0
46437 -46343 -46042 0
-46459 46346 0
-46459 45999 0
46459 -46346 -45999 0
-46440 46349 0
-46440 46253 0
46440 -46349 -46253 0
-46475 45942 0
-46475 46353 0
46475 -45942 -46353 0
-46443 46356 0
-46443 46250 0
46443 -46356 -46250 0
-46447 46053 0
-46447 46359 0
46447 -46053 -46359 0
-46535 46363 0
-46535 45999 0
46535 -46363 -45999 0
-46454 46030 0
-46454 46366 0
46454 -46030 -46366 0
-46507 45957 0
-46507 46369 0
46507 -45957 -46369 0
-46481 46372 0
-46481 45997 0
46481 -46372 -45997 0
-46498 46375 0
-46498 45901 0
46498 -46375 -45901 0
-46528 46053 0
-46528 46378 0
46528 -46053 -46378 0
-46456 46053 0
-46456 46381 0
46456 -46053 -46381 0
-46461 46053 0
-46461 46384 0
46461 -46053 -46384 0
-46533 46391 0
-46533 45901 0
46533 -46391 -45901 0
-46470 45933 0
-46470 46394 0
46470 -45933 -46394 0
-46524 45901 0
-46524 46398 0
46524 -45901 -46398 0
-46472 46401 0
-46472 46157 0
46472 -46401 -46157 0
-45823 45933 0
-45823 46157 0
-45823 45826 0
45823 -45933 -46157 -45826 0
-45827 46404 0
-45827 46157 0
45827 -46404 -46157 0
-46482 45933 0
-46482 46411 0
46482 -45933 -46411 0
-46508 45901 0
-46508 46414 0
46508 -45901 -46414 0
-46485 45933 0
-46485 46417 0
46485 -45933 -46417 0
-46487 46427 0
-46487 46389 0
46487 -46427 -46389 0
-46490 45933 0
-46490 46430 0
46490 -45933 -46430 0
-46495 46439 0
-46495 45933 0
46495 -46439 -45933 0
-46499 46442 0
-46499 45933 0
46499 -46442 -45933 0
-46503 45933 0
-46503 46445 0
46503 -45933 -46445 0
-46506 46450 0
-46506 45933 0
46506 -46450 -45933 0
-46512 46458 0
-46512 45933 0
46512 -46458 -45933 0
-46515 46463 0
-46515 45933 0
46515 -46463 -45933 0
-46521 46471 0
-46521 46030 0
46521 -46471 -46030 0
-46525 45933 0
-46525 46474 0
46525 -45933 -46474 0
-46527 46483 0
-46527 45942 0
46527 -46483 -45942 0
-46531 46486 0
-46531 46157 0
46531 -46486 -46157 0
-46534 45933 0
-46534 46529 0
46534 -45933 -46529 0
-46547 45879 0
-46547 45895 0
46547 -45879 -45895 0
-46541 45882 0
-46541 45895 0
46541 -45882 -45895 0
-46545 45885 0
-46545 45895 0
46545 -45885 -45895 0
-46537 45888 0
-46537 45895 0
46537 -45888 -45895 0
-46539 45891 0
-46539 45895 0
46539 -45891 -45895 0
-46543 45894 0
-46543 45895 0
46543 -45894 -45895 0
45896 -45897 0
45896 -45922 0
-45896 45897 45922 0
45899 -46030 0
45899 -45901 0
-45899 46030 45901 0
45902 -46253 0
45902 -45999 0
-45902 46253 45999 0
45905 -45999 0
45905 -45997 0
-45905 45999 45997 0
45908 -45960 0
45908 -46432 0
-45908 45960 46432 0
45911 -46253 0
45911 -46432 0
-45911 46253 46432 0
45914 -45957 0
45914 -46432 0
-45914 45957 46432 0
45917 -45918 0
45917 -45921 0
-45917 45918 45921 0
45920 -45921 0
45920 -45922 0
-45920 45921 45922 0
45923 -45924 0
45923 -45931 0
-45923 45924 45931 0
45926 -45931 0
45926 -45999 0
-45926 45931 45999 0
45981 -45930 0
45981 -45931 0
-45981 45930 45931 0
45932 -45933 0
45932 -45999 0
-45932 45933 45999 0
45935 -45942 0
45935 -45999 0
-45935 45942 45999 0
45938 -45942 0
45938 -45997 0
-45938 45942 45997 0
45941 -45942 0
45941 -46250 0
-45941 45942 46250 0
45944 -46250 0
45944 -46030 0
-45944 46250 46030 0
45947 -45960 0
45947 -46042 0
-45947 45960 46042 0
45950 -46042 0
45950 -46253 0
-45950 46042 46253 0
45996 -46042 0
45996 -46432 0
-45996 46042 46432 0
45956 -45957 0
45956 -46042 0
-45956 45957 46042 0
45959 -45960 0
45959 -46090 0
-45959 45960 46090 0
45962 -46042 0
45962 -46090 0
-45962 46042 46090 0
46011 -46090 0
46011 -46432 0
-46011 46090 46432 0
45968 -46090 0
45968 -46157 0
-45968 46090 46157 0
45971 -46042 0
45971 -46157 0
-45971 46042 46157 0
45974 -46253 0
45974 -46157 0
-45974 46253 46157 0
45977 -46253 0
45977 -45979 0
-45977 46253 45979 0
45980 -45981 0
45980 -45982 0
-45980 45981 45982 0
45983 -45984 0
45983 -45997 0
-45983 45984 45997 0
45986 -45987 0
45986 -45988 0
-45986 45987 45988 0
45989 -45990 0
45989 -46432 0
-45989 45990 46432 0
45992 -45993 0
45992 -45994 0
-45992 45993 45994 0
45995 -45996 0
45995 -45997 0
-45995 45996 45997 0
45998 -45999 0
45998 -46000 0
-45998 45999 46000 0
46001 -46002 0
46001 -46003 0
-46001 46002 46003 0
46068 -46005 0
46068 -46006 0
-46068 46005 46006 0
46007 -46011 0
46007 -46009 0
-46007 46011 46009 0
46010 -46011 0
46010 -46012 0
-46010 46011 46012 0
46013 -46253 0
46013 -46015 0
-46013 46253 46015 0
46016 -46160 0
46016 -46250 0
-46016 46160 46250 0
46019 -46020 0
46019 -46021 0
-46019 46020 46021 0
46022 -46023 0
46022 -46024 0
-46022 46023 46024 0
46025 -46026 0
46025 -46027 0
-46025 46026 46027 0
46028 -46389 0
46028 -46030 0
-46028 46389 46030 0
46031 -46432 0
46031 -46033 0
-46031 46432 46033 0
46034 -46035 0
46034 -46036 0
-46034 46035 46036 0
46037 -46038 0
46037 -46039 0
-46037 46038 46039 0
46040 -46041 0
46040 -46042 0
-46040 46041 46042 0
46043 -46044 0
46043 -46045 0
-46043 46044 46045 0
46046 -46047 0
46046 -46048 0
-46046 46047 46048 0
46049 -46050 0
46049 -46090 0
-46049 46050 46090 0
46052 -46053 0
46052 -46054 0
-46052 46053 46054 0
46055 -46056 0
46055 -46057 0
-46055 46056 46057 0
46058 -46059 0
46058 -46060 0
-46058 46059 46060 0
46061 -46062 0
46061 -46063 0
-46061 46062 46063 0
46064 -46065 0
46064 -46066 0
-46064 46065 46066 0
46067 -46068 0
46067 -46253 0
-46067 46068 46253 0
46070 -46071 0
46070 -46072 0
-46070 46071 46072 0
46073 -46080 0
46073 -46075 0
-46073 46080 46075 0
46076 -46080 0
46076 -46078 0
-46076 46080 46078 0
46079 -46080 0
46079 -46081 0
-46079 46080 46081 0
46082 -46083 0
46082 -46084 0
-46082 46083 46084 0
46085 -46086 0
46085 -46087 0
-46085 46086 46087 0
46088 -46095 0
46088 -46090 0
-46088 46095 46090 0
46091 -46095 0
46091 -46093 0
-46091 46095 46093 0
46094 -46095 0
46094 -46096 0
-46094 46095 46096 0
46097 -46098 0
46097 -46099 0
-46097 46098 46099 0
46100 -46101 0
46100 -46102 0
-46100 46101 46102 0
46103 -46104 0
46103 -46105 0
-46103 46104 46105 0
46106 -46107 0
46106 -46108 0
-46106 46107 46108 0
46109 -46110 0
46109 -46111 0
-46109 46110 46111 0
46112 -46113 0
46112 -46114 0
-46112 46113 46114 0
46115 -46116 0
46115 -46117 0
-46115 46116 46117 0
46118 -46119 0
46118 -46120 0
-46118 46119 46120 0
46121 -46122 0
46121 -46123 0
-46121 46122 46123 0
46124 -46125 0
46124 -46126 0
-46124 46125 46126 0
46127 -46128 0
46127 -46129 0
-46127 46128 46129 0
46130 -46131 0
46130 -46132 0
-46130 46131 46132 0
46133 -46134 0
46133 -46135 0
-46133 46134 46135 0
46136 -46137 0
46136 -46138 0
-46136 46137 46138 0
46139 -46140 0
46139 -46141 0
-46139 46140 46141 0
46142 -46143 0
46142 -46144 0
-46142 46143 46144 0
46145 -46146 0
46145 -46147 0
-46145 46146 46147 0
46148 -46341 0
46148 -46253 0
46148 -46151 0
-46148 46341 46253 46151 0
46152 -46153 0
46152 -46154 0
-46152 46153 46154 0
46155 -46156 0
46155 -46157 0
-46155 46156 46157 0
46158 -46159 0
46158 -46160 0
-46158 46159 46160 0
46161 -46162 0
46161 -46163 0
-46161 46162 46163 0
46164 -46165 0
46164 -46166 0
-46164 46165 46166 0
46167 -46168 0
46167 -46169 0
-46167 46168 46169 0
46170 -46171 0
46170 -46172 0
-46170 46171 46172 0
46173 -46174 0
46173 -46175 0
-46173 46174 46175 0
46176 -46177 0
46176 -46178 0
-46176 46177 46178 0
46179 -46180 0
46179 -46181 0
-46179 46180 46181 0
46182 -46183 0
46182 -46184 0
-46182 46183 46184 0
46185 -46186 0
46185 -46187 0
-46185 46186 46187 0
46188 -46189 0
46188 -46190 0
-46188 46189 46190 0
46191 -46192 0
46191 -46193 0
-46191 46192 46193 0
46194 -46195 0
46194 -46196 0
-46194 46195 46196 0
46197 -46198 0
46197 -46199 0
-46197 46198 46199 0
46200 -46201 0
46200 -46202 0
-46200 46201 46202 0
46203 -46204 0
46203 -46205 0
-46203 46204 46205 0
46206 -46207 0
46206 -46208 0
-46206 46207 46208 0
46209 -46341 0
46209 -46211 0
-46209 46341 46211 0
46212 -46213 0
46212 -46214 0
-46212 46213 46214 0
46215 -46216 0
46215 -46217 0
-46215 46216 46217 0
46218 -46219 0
46218 -46253 0
-46218 46219 46253 0
46221 -46222 0
46221 -46223 0
-46221 46222 46223 0
46224 -46225 0
46224 -46226 0
-46224 46225 46226 0
46227 -46228 0
46227 -46229 0
-46227 46228 46229 0
46230 -46231 0
46230 -46232 0
-46230 46231 46232 0
46233 -46234 0
46233 -46235 0
-46233 46234 46235 0
46236 -46237 0
46236 -46238 0
-46236 46237 46238 0
46239 -46240 0
46239 -46241 0
-46239 46240 46241 0
46242 -46243 0
46242 -46244 0
-46242 46243 46244 0
46245 -46246 0
46245 -46247 0
-46245 46246 46247 0
46248 -46249 0
46248 -46250 0
-46248 46249 46250 0
46251 -46252 0
46251 -46253 0
-46251 46252 46253 0
46254 -46255 0
46254 -46256 0
-46254 46255 46256 0
46257 -46258 0
46257 -46259 0
-46257 46258 46259 0
46260 -46261 0
46260 -46262 0
46260 -46263 0
46260 -46264 0
-46260 46261 46262 46263 46264 0
46265 -46266 0
46265 -46267 0
-46265 46266 46267 0
46268 -46269 0
46268 -46270 0
-46268 46269 46270 0
46271 -46272 0
46271 -46273 0
-46271 46272 46273 0
46274 -46275 0
46274 -46276 0
46274 -46432 0
46274 -46278 0
-46274 46275 46276 46432 46278 0
46279 -46280 0
46279 -46281 0
-46279 46280 46281 0
46282 -46283 0
46282 -46284 0
-46282 46283 46284 0
46285 -46286 0
46285 -46287 0
-46285 46286 46287 0
46288 -46289 0
46288 -46290 0
-46288 46289 46290 0
46291 -46292 0
46291 -46293 0
-46291 46292 46293 0
46294 -46295 0
46294 -46296 0
-46294 46295 46296 0
46297 -46298 0
46297 -46299 0
46297 -46300 0
-46297 46298 46299 46300 0
46301 -46302 0
46301 -46303 0
-46301 46302 46303 0
46304 -46305 0
46304 -46306 0
-46304 46305 46306 0
46307 -46308 0
46307 -46309 0
-46307 46308 46309 0
46310 -46311 0
46310 -46312 0
-46310 46311 46312 0
46313 -46314 0
46313 -46315 0
-46313 46314 46315 0
46397 -46317 0
46397 -46318 0
46397 -46319 0
-46397 46317 46318 46319 0
46320 -46321 0
46320 -46322 0
-46320 46321 46322 0
46323 -46324 0
46323 -46325 0
46323 -46326 0
-46323 46324 46325 46326 0
46327 -46328 0
46327 -46329 0
-46327 46328 46329 0
46330 -46331 0
46330 -46332 0
46330 -46333 0
-46330 46331 46332 46333 0
46334 -46335 0
46334 -46336 0
-46334 46335 46336 0
46337 -46338 0
46337 -46339 0
-46337 46338 46339 0
46340 -46341 0
46340 -46342 0
-46340 46341 46342 0
46343 -46344 0
46343 -46345 0
-46343 46344 46345 0
46346 -46347 0
46346 -46348 0
-46346 46347 46348 0
46349 -46350 0
46349 -46351 0
46349 -46352 0
-46349 46350 46351 46352 0
46353 -46354 0
46353 -46355 0
-46353 46354 46355 0
46356 -46357 0
46356 -46358 0
-46356 46357 46358 0
46359 -46360 0
46359 -46361 0
46359 -46362 0
-46359 46360 46361 46362 0
46363 -46364 0
46363 -46365 0
-46363 46364 46365 0
46366 -46367 0
46366 -46368 0
-46366 46367 46368 0
46369 -46370 0
46369 -46371 0
-46369 46370 46371 0
46372 -46373 0
46372 -46374 0
-46372 46373 46374 0
46375 -46376 0
46375 -46377 0
-46375 46376 46377 0
46378 -46379 0
46378 -46380 0
-46378 46379 46380 0
46381 -46382 0
46381 -46383 0
-46381 46382 46383 0
46384 -46385 0
46384 -46386 0
-46384 46385 46386 0
46434 -46388 0
46434 -46389 0
46434 -46390 0
-46434 46388 46389 46390 0
46391 -46392 0
46391 -46393 0
-46391 46392 46393 0
46394 -46395 0
46394 -46396 0
46394 -46397 0
-46394 46395 46396 46397 0
46398 -46399 0
46398 -46400 0
-46398 46399 46400 0
46401 -46402 0
46401 -46403 0
-46401 46402 46403 0
46404 -46405 0
46404 -46406 0
-46404 46405 46406 0
46407 -46408 0
46407 -46409 0
46407 -46410 0
-46407 46408 46409 46410 0
46411 -46412 0
46411 -46413 0
-46411 46412 46413 0
46414 -46415 0
46414 -46416 0
-46414 46415 46416 0
46417 -46418 0
46417 -46419 0
-46417 46418 46419 0
46466 -46421 0
46466 -46422 0
46466 -46423 0
-46466 46421 46422 46423 0
46424 -46425 0
46424 -46426 0
-46424 46425 46426 0
46427 -46428 0
46427 -46429 0
-46427 46428 46429 0
46430 -46431 0
46430 -46432 0
46430 -46433 0
46430 -46434 0
-46430 46431 46432 46433 46434 0
46478 -46436 0
46478 -46437 0
46478 -46438 0
-46478 46436 46437 46438 0
46439 -46440 0
46439 -46441 0
-46439 46440 46441 0
46442 -46443 0
46442 -46444 0
-46442 46443 46444 0
46445 -46446 0
46445 -46447 0
46445 -46448 0
46445 -46449 0
-46445 46446 46447 46448 46449 0
46450 -46451 0
46450 -46452 0
46450 -46453 0
46450 -46454 0
-46450 46451 46452 46453 46454 0
46455 -46456 0
46455 -46457 0
-46455 46456 46457 0
46458 -46459 0
46458 -46460 0
46458 -46461 0
46458 -46462 0
-46458 46459 46460 46461 46462 0
46463 -46464 0
46463 -46465 0
46463 -46466 0
-46463 46464 46465 46466 0
46467 -46468 0
46467 -46469 0
46467 -46470 0
-46467 46468 46469 46470 0
46471 -46472 0
46471 -46473 0
-46471 46472 46473 0
46474 -46475 0
46474 -46476 0
46474 -46477 0
46474 -46478 0
-46474 46475 46476 46477 46478 0
46479 -46480 0
46479 -46481 0
46479 -46482 0
-46479 46480 46481 46482 0
46483 -46484 0
46483 -46485 0
-46483 46484 46485 0
46486 -46487 0
46486 -46488 0
-46486 46487 46488 0
46489 -46490 0
46489 -46491 0
46489 -46492 0
-46489 46490 46491 46492 0
46493 -46494 0
46493 -46495 0
46493 -46496 0
-46493 46494 46495 46496 0
46497 -46498 0
46497 -46499 0
-46497 46498 46499 0
46500 -46501 0
46500 -46502 0
46500 -46503 0
-46500 46501 46502 46503 0
46504 -46505 0
46504 -46506 0
46504 -46507 0
46504 -46508 0
-46504 46505 46506 46507 46508 0
46509 -46510 0
46509 -46511 0
46509 -46512 0
46509 -46513 0
-46509 46510 46511 46512 46513 0
46514 -46515 0
46514 -46516 0
46514 -46517 0
46514 -46518 0
-46514 46515 46516 46517 46518 0
46519 -46520 0
46519 -46521 0
-46519 46520 46521 0
46522 -46523 0
46522 -46524 0
46522 -46525 0
-46522 46523 46524 46525 0
46526 -46527 0
46526 -46528 0
-46526 46527 46528 0
46529 -46530 0
46529 -46531 0
-46529 46530 46531 0
46532 -46533 0
46532 -46534 0
46532 -46535 0
-46532 46533 46534 46535 0
-46537 48446 0
46537 -48446 0
-46539 48011 0
46539 -48011 0
-46541 48013 0
46541 -48013 0
-46543 48267 0
46543 -48267 0
-46545 48067 0
46545 -48067 0
-46547 47915 0
46547 -47915 0
47996 47974 0
-47996 -47974 0
47652 47944 0
-47652 -47944 0
47971 48044 0
-47971 -48044 0
47938 47612 0
-47938 -47612 0
47932 47936 0
-47932 -47936 0
47935 47911 0
-47935 -47911 0
47945 47393 0
-47945 -47393 0
47947 47915 0
-47947 -47915 0
47956 48067 0
-47956 -48067 0
48264 48267 0
-48264 -48267 0
48056 48013 0
-48056 -48013 0
48104 48011 0
-48104 -48011 0
48171 48446 0
-48171 -48446 0
48402 47910 0
-48402 -47910 0
46579 48267 0
-46579 -48267 0
48014 46579 0
-48014 -46579 0
48016 47916 0
-48016 -47916 0
46585 48044 0
-46585 -48044 0
46978 46585 0
-46978 -46585 0
48174 47919 0
-48174 -47919 0
46591 48056 0
-46591 -48056 0
48041 46591 0
-48041 -46591 0
47607 47925 0
-47607 -47925 0
47441 47928 0
-47441 -47928 0
48403 47931 0
-48403 -47931 0
46601 47931 0
-46601 -47931 0
48095 46601 0
-48095 -46601 0
47468 47937 0
-47468 -47937 0
47333 47995 0
-47333 -47995 0
47096 47946 0
-47096 -47946 0
48052 47949 0
-48052 -47949 0
48055 47952 0
-48055 -47952 0
47469 47955 0
-47469 -47955 0
48061 47958 0
-48061 -47958 0
48064 47961 0
-48064 -47961 0
48124 47964 0
-48124 -47964 0
47169 48010 0
-47169 -48010 0
47350 47970 0
-47350 -47970 0
48079 47973 0
-48079 -47973 0
47223 47976 0
-47223 -47976 0
47427 48025 0
-47427 -48025 0
48094 47982 0
-48094 -47982 0
48275 47985 0
-48275 -47985 0
48109 47988 0
-48109 -47988 0
46639 48011 0
-46639 -48011 0
47435 46639 0
-47435 -46639 0
48355 48009 0
-48355 -48009 0
46645 46850 0
-46645 -46850 0
47484 46645 0
-47484 -46645 0
46649 47087 0
-46649 -47087 0
47538 46649 0
-47538 -46649 0
48266 48063 0
-48266 -48063 0
46652 47343 0
-46652 -47343 0
46654 47552 0
-46654 -47552 0
47759 48265 0
-47759 -48265 0
46658 47632 0
-46658 -47632 0
46660 48318 0
-46660 -48318 0
46662 48327 0
-46662 -48327 0
46664 47753 0
-46664 -47753 0
46666 48421 0
-46666 -48421 0
46668 47773 0
-46668 -47773 0
46670 48438 0
-46670 -48438 0
46672 47837 0
-46672 -47837 0
46674 47841 0
-46674 -47841 0
46676 48469 0
-46676 -48469 0
46678 48481 0
-46678 -48481 0
46680 48493 0
-46680 -48493 0
46682 48503 0
-46682 -48503 0
46701 48507 0
-46701 -48507 0
46686 48511 0
-46686 -48511 0
46703 48514 0
-46703 -48514 0
46705 48518 0
-46705 -48518 0
46709 48523 0
-46709 -48523 0
46711 48528 0
-46711 -48528 0
46696 48533 0
-46696 -48533 0
46713 48536 0
-46713 -48536 0
47893 46701 0
-47893 -46701 0
47896 46703 0
-47896 -46703 0
47899 46705 0
-47899 -46705 0
46706 48540 0
-46706 -48540 0
47902 46709 0
-47902 -46709 0
47905 46711 0
-47905 -46711 0
47908 46713 0
-47908 -46713 0
46714 48546 0
-46714 -48546 0
-48007 48267 0
-48007 48013 0
48007 -48267 -48013 0
-48017 48267 0
-48017 48013 0
48017 -48267 -48013 0
-48058 48067 0
-48058 48267 0
-48058 48013 0
48058 -48067 -48267 -48013 0
-48034 48067 0
-48034 48011 0
48034 -48067 -48011 0
-48019 47974 0
-48019 48011 0
48019 -47974 -48011 0
-48119 47974 0
-48119 48011 0
48119 -47974 -48011 0
-48049 48044 0
-48049 48011 0
48049 -48044 -48011 0
-48283 48267 0
-48283 48011 0
48283 -48267 -48011 0
-47993 47944 0
-47993 48446 0
47993 -47944 -48446 0
-47998 47938 0
-47998 47945 0
47998 -47938 -47945 0
-47347 47612 0
-47347 47947 0
-47347 48013 0
47347 -47612 -47947 -48013 0
-48002 47974 0
-48002 47956 0
-48002 48011 0
48002 -47974 -47956 -48011 0
-48037 47945 0
-48037 47947 0
-48037 47956 0
-48037 48446 0
48037 -47945 -47947 -47956 -48446 0
-48062 47956 0
-48062 48011 0
48062 -47956 -48011 0
-48137 47956 0
-48137 48267 0
-48137 48446 0
48137 -47956 -48267 -48446 0
-48053 47956 0
-48053 48267 0
-48053 48013 0
48053 -47956 -48267 -48013 0
-46990 47944 0
-46990 47393 0
-46990 47947 0
-46990 47956 0
46990 -47944 -47393 -47947 -47956 0
-48001 47971 0
-48001 48067 0
-48001 48264 0
48001 -47971 -48067 -48264 0
-48004 48264 0
-48004 48011 0
48004 -48264 -48011 0
-48023 47938 0
-48023 48264 0
48023 -47938 -48264 0
-48146 47947 0
-48146 47956 0
-48146 48264 0
48146 -47947 -47956 -48264 0
-47351 47915 0
-47351 48067 0
-47351 48264 0
47351 -47915 -48067 -48264 0
-48008 47956 0
-48008 48056 0
48008 -47956 -48056 0
-48122 47944 0
-48122 48056 0
-48122 48446 0
48122 -47944 -48056 -48446 0
-48155 47956 0
-48155 48056 0
-48155 48011 0
48155 -47956 -48056 -48011 0
-48143 48056 0
-48143 48446 0
48143 -48056 -48446 0
-48177 47652 0
-48177 48267 0
-48177 48056 0
48177 -47652 -48267 -48056 0
-48026 47956 0
-48026 48056 0
48026 -47956 -48056 0
-48417 48067 0
-48417 48011 0
-48417 47916 0
48417 -48067 -48011 -47916 0
-48020 48013 0
-48020 48104 0
48020 -48013 -48104 0
-48029 47393 0
-48029 48104 0
48029 -47393 -48104 0
-47086 47947 0
-47086 48267 0
-47086 48104 0
47086 -47947 -48267 -48104 0
-48080 48264 0
-48080 48104 0
48080 -48264 -48104 0
-48116 47956 0
-48116 48104 0
48116 -47956 -48104 0
-48210 48013 0
-48210 48104 0
48210 -48013 -48104 0
-48110 48267 0
-48110 48104 0
48110 -48267 -48104 0
-48128 48013 0
-48128 48104 0
48128 -48013 -48104 0
-48076 48013 0
-48076 48104 0
48076 -48013 -48104 0
-48445 48013 0
-48445 48104 0
48445 -48013 -48104 0
-46850 48067 0
-46850 47919 0
46850 -48067 -47919 0
-48131 47919 0
-48131 48446 0
48131 -47919 -48446 0
-48035 47947 0
-48035 48171 0
48035 -47947 -48171 0
-48038 48067 0
-48038 48171 0
48038 -48067 -48171 0
-48207 47947 0
-48207 48267 0
-48207 48056 0
-48207 48171 0
48207 -47947 -48267 -48056 -48171 0
-48213 47956 0
-48213 48267 0
-48213 48104 0
-48213 48171 0
48213 -47956 -48267 -48104 -48171 0
-48089 47956 0
-48089 48104 0
-48089 48171 0
48089 -47956 -48104 -48171 0
-48243 47956 0
-48243 48267 0
-48243 48056 0
-48243 48171 0
48243 -47956 -48267 -48056 -48171 0
-48092 47935 0
-48092 48104 0
-48092 48171 0
48092 -47935 -48104 -48171 0
-48219 47956 0
-48219 48104 0
-48219 48171 0
48219 -47956 -48104 -48171 0
-48107 47612 0
-48107 48056 0
-48107 48171 0
48107 -47612 -48056 -48171 0
-48101 48056 0
-48101 48171 0
48101 -48056 -48171 0
-48252 47916 0
-48252 48171 0
48252 -47916 -48171 0
-48113 47956 0
-48113 48267 0
-48113 48104 0
-48113 48171 0
48113 -47956 -48267 -48104 -48171 0
-48098 48104 0
-48098 48171 0
48098 -48104 -48171 0
-48261 47913 0
-48261 48171 0
-48261 47916 0
48261 -47913 -48171 -47916 0
-48228 47945 0
-48228 48104 0
-48228 48171 0
48228 -47945 -48104 -48171 0
-48281 48171 0
-48281 47919 0
48281 -48171 -47919 0
-48394 47915 0
-48394 48171 0
48394 -47915 -48171 0
-48165 47922 0
-48165 48011 0
48165 -47922 -48011 0
-48040 47928 0
-48040 48104 0
48040 -47928 -48104 0
-48047 48056 0
-48047 47934 0
48047 -48056 -47934 0
-48050 47937 0
-48050 48104 0
48050 -47937 -48104 0
-48071 47940 0
-48071 48104 0
-48071 48171 0
48071 -47940 -48104 -48171 0
-48249 47946 0
-48249 47935 0
-48249 48267 0
-48249 48171 0
48249 -47946 -47935 -48267 -48171 0
-48059 47955 0
-48059 48056 0
48059 -47955 -48056 0
-48074 48011 0
-48074 47958 0
48074 -48011 -47958 0
-48068 47964 0
-48068 48011 0
48068 -47964 -48011 0
-48168 48067 0
-48168 48010 0
48168 -48067 -48010 0
-48070 48011 0
-48070 48010 0
48070 -48011 -48010 0
-48073 47970 0
-48073 48104 0
48073 -47970 -48104 0
-48077 48011 0
-48077 47970 0
48077 -48011 -47970 0
-48161 47945 0
-48161 47956 0
-48161 48446 0
-48161 48016 0
48161 -47945 -47956 -48446 -48016 0
-48466 48067 0
-48466 48171 0
-48466 48016 0
48466 -48067 -48171 -48016 0
-48086 48267 0
-48086 48446 0
-48086 47976 0
48086 -48267 -48446 -47976 0
-48447 48067 0
-48447 46978 0
48447 -48067 -46978 0
-48333 48267 0
-48333 48025 0
48333 -48267 -48025 0
-48192 47393 0
-48192 48446 0
-48192 48174 0
48192 -47393 -48446 -48174 0
-48183 48267 0
-48183 48171 0
-48183 48174 0
-48183 46990 0
48183 -48267 -48171 -48174 -46990 0
-48186 47956 0
-48186 48264 0
-48186 48174 0
48186 -47956 -48264 -48174 0
-48255 48267 0
-48255 48174 0
48255 -48267 -48174 0
-48085 47612 0
-48085 48171 0
-48085 48174 0
48085 -47612 -48171 -48174 0
-48368 47945 0
-48368 48267 0
-48368 48171 0
-48368 48174 0
48368 -47945 -48267 -48171 -48174 0
-48316 48267 0
-48316 48446 0
-48316 48174 0
48316 -48267 -48446 -48174 0
-47311 47947 0
-47311 47956 0
-47311 48174 0
47311 -47947 -47956 -48174 0
-48097 47982 0
-48097 48264 0
48097 -47982 -48264 0
-48270 48016 0
-48270 47982 0
48270 -48016 -47982 0
-48100 47985 0
-48100 48264 0
48100 -47985 -48264 0
-48158 47988 0
-48158 48056 0
48158 -47988 -48056 0
-48133 47956 0
-48133 48013 0
-48133 47607 0
48133 -47956 -48013 -47607 0
-48361 48104 0
-48361 47607 0
48361 -48104 -47607 0
-48524 48067 0
-48524 48013 0
-48524 47607 0
48524 -48067 -48013 -47607 0
-48112 47991 0
-48112 48067 0
-48112 48011 0
48112 -47991 -48067 -48011 0
-48258 47441 0
-48258 47916 0
48258 -47441 -47916 0
-48115 48067 0
-48115 48011 0
-48115 48403 0
48115 -48067 -48011 -48403 0
-48140 47956 0
-48140 48264 0
-48140 48104 0
-48140 48403 0
48140 -47956 -48264 -48104 -48403 0
-48118 48056 0
-48118 48403 0
48118 -48056 -48403 0
-48121 48067 0
-48121 48171 0
-48121 48403 0
48121 -48067 -48171 -48403 0
-48125 48267 0
-48125 48403 0
48125 -48267 -48403 0
-48215 47607 0
-48215 48403 0
48215 -47607 -48403 0
-48325 47956 0
-48325 48264 0
-48325 48174 0
-48325 48403 0
48325 -47956 -48264 -48174 -48403 0
-48358 48104 0
-48358 47607 0
-48358 48403 0
48358 -48104 -47607 -48403 0
-48322 48171 0
-48322 48016 0
-48322 48403 0
48322 -48171 -48016 -48403 0
-48289 47952 0
-48289 48403 0
48289 -47952 -48403 0
-48203 48171 0
-48203 47468 0
-48203 47086 0
48203 -48171 -47468 -47086 0
-47087 47612 0
-47087 48446 0
-47087 47994 0
47087 -47612 -48446 -47994 0
-48127 47997 0
-48127 48056 0
48127 -47997 -48056 0
-48130 48171 0
-48130 47096 0
48130 -48171 -47096 0
-48134 48267 0
-48134 48011 0
-48134 48052 0
48134 -48267 -48011 -48052 0
-48180 47971 0
-48180 47915 0
-48180 48052 0
48180 -47971 -47915 -48052 0
-48136 47971 0
-48136 48171 0
-48136 48055 0
48136 -47971 -48171 -48055 0
-48194 48446 0
-48194 48055 0
48194 -48446 -48055 0
-48236 48171 0
-48236 48055 0
48236 -48171 -48055 0
-48197 47925 0
-48197 48055 0
48197 -47925 -48055 0
-48139 48044 0
-48139 47469 0
48139 -48044 -47469 0
-48142 48171 0
-48142 47469 0
48142 -48171 -47469 0
-48145 48011 0
-48145 47469 0
48145 -48011 -47469 0
-48149 48067 0
-48149 48061 0
48149 -48067 -48061 0
-48152 48067 0
-48152 48011 0
-48152 48061 0
48152 -48067 -48011 -48061 0
-48342 48067 0
-48342 48011 0
-48342 48061 0
48342 -48067 -48011 -48061 0
-48443 48067 0
-48443 48011 0
-48443 48061 0
48443 -48067 -48011 -48061 0
-48420 47947 0
-48420 48013 0
-48420 48000 0
48420 -47947 -48013 -48000 0
-48409 48056 0
-48409 48003 0
48409 -48056 -48003 0
-48148 47956 0
-48148 48264 0
-48148 48064 0
48148 -47956 -48264 -48064 0
-48151 47956 0
-48151 48264 0
-48151 48064 0
48151 -47956 -48264 -48064 0
-48154 48055 0
-48154 48124 0
48154 -48055 -48124 0
-48157 48446 0
-48157 48124 0
48157 -48446 -48124 0
-48160 47393 0
-48160 47169 0
-48160 47469 0
48160 -47393 -47169 -47469 0
-48221 47973 0
-48221 47169 0
48221 -47973 -47169 0
-48339 48009 0
-48339 48267 0
48339 -48009 -48267 0
-48167 48171 0
-48167 47350 0
48167 -48171 -47350 0
-48188 48104 0
-48188 47350 0
48188 -48104 -47350 0
-48371 48104 0
-48371 48171 0
-48371 47350 0
48371 -48104 -48171 -47350 0
-48502 48012 0
-48502 48044 0
-48502 48067 0
-48502 48011 0
48502 -48012 -48044 -48067 -48011 0
-48347 48015 0
-48347 47956 0
-48347 48011 0
48347 -48015 -47956 -48011 0
-48170 48264 0
-48170 47223 0
48170 -48264 -47223 0
-48173 47996 0
-48173 47223 0
48173 -47996 -47223 0
-48239 48267 0
-48239 47223 0
48239 -48267 -47223 0
-48176 48264 0
-48176 47223 0
48176 -48264 -47223 0
-48179 47935 0
-48179 47947 0
-48179 47956 0
-48179 47223 0
48179 -47935 -47947 -47956 -47223 0
-48182 48067 0
-48182 48264 0
-48182 47223 0
48182 -48067 -48264 -47223 0
-48185 47974 0
-48185 47995 0
-48185 48067 0
-48185 47223 0
48185 -47974 -47995 -48067 -47223 0
-48200 48264 0
-48200 47223 0
48200 -48264 -47223 0
-48286 47956 0
-48286 47223 0
48286 -47956 -47223 0
-48189 48082 0
-48189 47956 0
48189 -48082 -47956 0
-48191 47974 0
-48191 48013 0
-48191 47427 0
48191 -47974 -48013 -47427 0
-48195 47956 0
-48195 48267 0
-48195 47427 0
48195 -47956 -48267 -47427 0
-48246 48013 0
-48246 47427 0
48246 -48013 -47427 0
-48198 47956 0
-48198 47427 0
48198 -47956 -47427 0
-48335 48056 0
-48335 47427 0
48335 -48056 -47427 0
-48300 48013 0
-48300 47427 0
48300 -48013 -47427 0
-48391 47949 0
-48391 48267 0
-48391 47427 0
48391 -47949 -48267 -47427 0
-48352 48267 0
-48352 48013 0
-48352 47427 0
48352 -48267 -48013 -47427 0
-48297 47956 0
-48297 48056 0
-48297 47427 0
48297 -47956 -48056 -47427 0
-48378 47944 0
-48378 48267 0
-48378 47427 0
48378 -47944 -48267 -47427 0
-48272 48264 0
-48272 47427 0
-48272 48403 0
-48272 48064 0
48272 -48264 -47427 -48403 -48064 0
-48406 47956 0
-48406 48056 0
-48406 47427 0
48406 -47956 -48056 -47427 0
-48432 48267 0
-48432 48013 0
-48432 47427 0
48432 -48267 -48013 -47427 0
-48414 47427 0
-48414 47964 0
48414 -47427 -47964 0
-48399 48267 0
-48399 48056 0
-48399 47427 0
48399 -48267 -48056 -47427 0
-48422 47956 0
-48422 48056 0
-48422 47427 0
48422 -47956 -48056 -47427 0
-48429 48006 0
-48429 47427 0
48429 -48006 -47427 0
-48498 48016 0
-48498 47427 0
48498 -48016 -47427 0
-48312 48021 0
-48312 48056 0
48312 -48021 -48056 0
-48278 48267 0
-48278 48024 0
48278 -48267 -48024 0
-48201 48027 0
-48201 48056 0
48201 -48027 -48056 0
-48423 48030 0
-48423 48067 0
48423 -48030 -48067 0
-48505 48067 0
-48505 48030 0
48505 -48067 -48030 0
-48534 47607 0
-48534 48403 0
-48534 47311 0
48534 -47607 -48403 -47311 0
-48204 48044 0
-48204 47915 0
-48204 48264 0
-48204 48094 0
48204 -48044 -47915 -48264 -48094 0
-48206 47915 0
-48206 48067 0
-48206 48094 0
-48206 48124 0
48206 -47915 -48067 -48094 -48124 0
-48209 48056 0
-48209 48094 0
48209 -48056 -48094 0
-48212 47971 0
-48212 48067 0
-48212 48094 0
48212 -47971 -48067 -48094 0
-48216 47612 0
-48216 48067 0
-48216 48094 0
-48216 47333 0
48216 -47612 -48067 -48094 -47333 0
-48218 47393 0
-48218 48094 0
48218 -47393 -48094 0
-48222 48056 0
-48222 48094 0
48222 -48056 -48094 0
-48230 48067 0
-48230 48094 0
48230 -48067 -48094 0
-47343 48094 0
-47343 47469 0
-47343 47995 0
-47343 47347 0
47343 -48094 -47469 -47995 -47347 0
-48328 48094 0
-48328 47350 0
-48328 47351 0
48328 -48094 -47350 -47351 0
-48225 48056 0
-48225 48094 0
48225 -48056 -48094 0
-48349 48267 0
-48349 48013 0
-48349 48094 0
48349 -48267 -48013 -48094 0
-48381 47652 0
-48381 48056 0
-48381 48094 0
48381 -47652 -48056 -48094 0
-48227 47994 0
-48227 47612 0
-48227 48094 0
48227 -47994 -47612 -48094 0
-48465 48267 0
-48465 48094 0
48465 -48267 -48094 0
-48231 47652 0
-48231 48033 0
48231 -47652 -48033 0
-48233 47938 0
-48233 48275 0
48233 -47938 -48275 0
-48309 48104 0
-48309 48275 0
48309 -48104 -48275 0
-48294 48104 0
-48294 48275 0
48294 -48104 -48275 0
-48491 48267 0
-48491 48104 0
-48491 48275 0
48491 -48267 -48104 -48275 0
-48437 48104 0
-48437 48275 0
48437 -48104 -48275 0
-48237 47938 0
-48237 48036 0
48237 -47938 -48036 0
-48240 47393 0
-48240 48174 0
-48240 48109 0
48240 -47393 -48174 -48109 0
-48242 48104 0
-48242 48109 0
48242 -48104 -48109 0
-48245 47915 0
-48245 48109 0
48245 -47915 -48109 0
-48248 47915 0
-48248 48013 0
-48248 48109 0
48248 -47915 -48013 -48109 0
-48251 48056 0
-48251 48109 0
48251 -48056 -48109 0
-48254 47976 0
-48254 48109 0
48254 -47976 -48109 0
-48257 48013 0
-48257 48109 0
48257 -48013 -48109 0
-48260 48013 0
-48260 48109 0
48260 -48013 -48109 0
-48306 47915 0
-48306 48067 0
-48306 48109 0
48306 -47915 -48067 -48109 0
-48375 48039 0
-48375 48264 0
48375 -48039 -48264 0
-48263 48042 0
-48263 47427 0
48263 -48042 -47427 0
-48276 48045 0
-48276 48104 0
48276 -48045 -48104 0
-48292 48067 0
-48292 48048 0
48292 -48067 -48048 0
-48516 47435 0
-48516 47915 0
-48516 48267 0
-48516 48171 0
48516 -47435 -47915 -48267 -48171 0
-48460 48051 0
-48460 47441 0
48460 -48051 -47441 0
-48366 48054 0
-48366 48446 0
48366 -48054 -48446 0
-48388 47915 0
-48388 48171 0
-48388 48057 0
48388 -47915 -48171 -48057 0
-48410 48060 0
-48410 47934 0
48410 -48060 -47934 0
-48506 47915 0
-48506 48171 0
-48506 48066 0
48506 -47915 -48171 -48066 0
-48269 48267 0
-48269 48355 0
48269 -48267 -48355 0
-48319 47915 0
-48319 48355 0
-48319 47469 0
48319 -47915 -48355 -47469 0
-48303 48264 0
-48303 48355 0
48303 -48264 -48355 0
-48426 48355 0
-48426 47468 0
-48426 47469 0
48426 -48355 -47468 -47469 0
-48273 48069 0
-48273 48267 0
48273 -48069 -48267 0
-48277 48067 0
-48277 48072 0
48277 -48067 -48072 0
-48280 48264 0
-48280 48075 0
48280 -48264 -48075 0
-48284 47947 0
-48284 48078 0
48284 -47947 -48078 0
-48287 47915 0
-48287 47484 0
48287 -47915 -47484 0
-48290 48081 0
-48290 47956 0
48290 -48081 -47956 0
-48452 48067 0
-48452 48084 0
48452 -48067 -48084 0
-48365 47938 0
-48365 48087 0
48365 -47938 -48087 0
-48295 48090 0
-48295 48056 0
48295 -48090 -48056 0
-48376 48093 0
-48376 48056 0
48376 -48093 -48056 0
-48298 48096 0
-48298 48067 0
-48298 48013 0
48298 -48096 -48067 -48013 0
-48397 48099 0
-48397 47915 0
-48397 48104 0
48397 -48099 -47915 -48104 0
-48301 48102 0
-48301 48056 0
48301 -48102 -48056 0
-48519 48105 0
-48519 48055 0
48519 -48105 -48055 0
-48482 48108 0
-48482 48052 0
48482 -48108 -48052 0
-48304 48111 0
-48304 48056 0
48304 -48111 -48056 0
-48307 48114 0
-48307 47947 0
-48307 48267 0
-48307 48171 0
48307 -48114 -47947 -48267 -48171 0
-48310 48117 0
-48310 48171 0
48310 -48117 -48171 0
-48385 47947 0
-48385 48011 0
-48385 48120 0
48385 -47947 -48011 -48120 0
-48313 47971 0
-48313 48171 0
-48313 48123 0
48313 -47971 -48171 -48123 0
-48314 48267 0
-48314 47538 0
48314 -48267 -47538 0
-48340 48126 0
-48340 48446 0
48340 -48126 -48446 0
-48317 48129 0
-48317 48264 0
48317 -48129 -48264 0
-48490 48132 0
-48490 47931 0
48490 -48132 -47931 0
-48320 48135 0
-48320 47947 0
-48320 48056 0
48320 -48135 -47947 -48056 0
-47552 48138 0
-47552 47947 0
-47552 48056 0
-47552 48171 0
47552 -48138 -47947 -48056 -48171 0
-48323 47938 0
-48323 48141 0
48323 -47938 -48141 0
-48345 48144 0
-48345 48403 0
48345 -48144 -48403 0
-48326 48147 0
-48326 47910 0
-48326 48011 0
48326 -48147 -47910 -48011 0
-48458 47934 0
-48458 48150 0
-48458 48171 0
48458 -47934 -48150 -48171 0
-48532 47915 0
-48532 48171 0
-48532 48153 0
48532 -47915 -48171 -48153 0
-48515 48156 0
-48515 48055 0
48515 -48156 -48055 0
-48329 48159 0
-48329 47612 0
-48329 47947 0
-48329 48104 0
48329 -48159 -47612 -47947 -48104 0
-48332 47956 0
-48332 48162 0
48332 -47956 -48162 0
-48331 48166 0
-48331 48104 0
48331 -48166 -48104 0
-48336 48169 0
-48336 48067 0
48336 -48169 -48067 0
-48338 48171 0
-48338 48172 0
-48338 48403 0
48338 -48171 -48172 -48403 0
-48343 47956 0
-48343 48264 0
-48343 48172 0
48343 -47956 -48264 -48172 0
-48479 47956 0
-48479 48171 0
-48479 48175 0
48479 -47956 -48171 -48175 0
-48494 47996 0
-48494 48178 0
-48494 47607 0
48494 -47996 -48178 -47607 0
-48525 47971 0
-48525 48181 0
48525 -47971 -48181 0
-48474 47612 0
-48474 48184 0
-48474 48446 0
48474 -47612 -48184 -48446 0
-48346 47947 0
-48346 48187 0
-48346 48264 0
48346 -47947 -48187 -48264 0
-48350 48190 0
-48350 48264 0
48350 -48190 -48264 0
-48530 48193 0
-48530 48056 0
48530 -48193 -48056 0
-48353 48196 0
-48353 48056 0
48353 -48196 -48056 0
-48463 47956 0
-48463 48446 0
-48463 48199 0
48463 -47956 -48446 -48199 0
-47632 48202 0
-47632 48067 0
-47632 48013 0
47632 -48202 -48067 -48013 0
-48531 48044 0
-48531 48205 0
48531 -48044 -48205 0
-48356 48208 0
-48356 47956 0
48356 -48208 -47956 0
-48478 48267 0
-48478 48208 0
48478 -48267 -48208 0
-48359 47652 0
-48359 48211 0
48359 -47652 -48211 0
-48362 47996 0
-48362 48214 0
48362 -47996 -48214 0
-48364 47652 0
-48364 48217 0
48364 -47652 -48217 0
-48369 48220 0
-48369 48264 0
48369 -48220 -48264 0
-48372 48223 0
-48372 47956 0
48372 -48223 -47956 0
-48374 48226 0
-48374 48267 0
48374 -48226 -48267 0
-48379 48229 0
-48379 48264 0
48379 -48229 -48264 0
-48382 48232 0
-48382 47956 0
48382 -48232 -47956 0
-48537 48235 0
-48537 48016 0
48537 -48235 -48016 0
-48476 47956 0
-48476 48238 0
48476 -47956 -48238 0
-48435 47945 0
-48435 48241 0
48435 -47945 -48241 0
-48384 48244 0
-48384 48067 0
48384 -48244 -48067 0
-48387 47971 0
-48387 48067 0
-48387 48247 0
48387 -47971 -48067 -48247 0
-48390 48250 0
-48390 48055 0
48390 -48250 -48055 0
-48510 47915 0
-48510 48253 0
-48510 48067 0
48510 -47915 -48253 -48067 0
-48393 48256 0
-48393 48011 0
48393 -48256 -48011 0
-48396 48259 0
-48396 48011 0
48396 -48259 -48011 0
-48400 48262 0
-48400 48013 0
48400 -48262 -48013 0
-48404 48265 0
-48404 47956 0
48404 -48265 -47956 0
-48407 48268 0
-48407 48067 0
48407 -48268 -48067 0
-48455 47956 0
-48455 48271 0
48455 -47956 -48271 0
-48440 47947 0
-48440 48274 0
48440 -47947 -48274 0
-48413 48067 0
-48413 48279 0
48413 -48067 -48279 0
-48416 48282 0
-48416 48013 0
48416 -48282 -48013 0
-48419 48285 0
-48419 48267 0
48419 -48285 -48267 0
-48424 47947 0
-48424 48288 0
48424 -47947 -48288 0
-48427 48293 0
-48427 47956 0
-48427 48264 0
48427 -48293 -47956 -48264 0
-48483 47915 0
-48483 48296 0
48483 -47915 -48296 0
-48430 48067 0
-48430 48299 0
48430 -48067 -48299 0
-48450 48044 0
-48450 48302 0
48450 -48044 -48302 0
-48508 47971 0
-48508 48305 0
48508 -47971 -48305 0
-48433 48308 0
-48433 48264 0
48433 -48308 -48264 0
-48436 48067 0
-48436 48311 0
48436 -48067 -48311 0
-48439 48315 0
-48439 48067 0
48439 -48315 -48067 0
-48462 48321 0
-48462 48104 0
48462 -48321 -48104 0
-47753 48324 0
-47753 47947 0
-47753 48171 0
47753 -48324 -47947 -48171 0
-48442 47956 0
-48442 47759 0
48442 -47956 -47759 0
-48487 47915 0
-48487 48334 0
48487 -47915 -48334 0
-48467 48337 0
-48467 47956 0
48467 -48337 -47956 0
-47840 48341 0
-47840 47936 0
-47840 47935 0
47840 -48341 -47936 -47935 0
-48471 48344 0
-48471 48171 0
48471 -48344 -48171 0
-47773 48348 0
-47773 47947 0
-47773 47956 0
47773 -48348 -47947 -47956 0
-48527 47915 0
-48527 48351 0
48527 -47915 -48351 0
-48544 48354 0
-48544 48264 0
48544 -48354 -48264 0
-48451 48357 0
-48451 48056 0
48451 -48357 -48056 0
-48473 48360 0
-48473 48013 0
48473 -48360 -48013 0
-48454 48363 0
-48454 48267 0
48454 -48363 -48267 0
-48489 47956 0
-48489 48367 0
48489 -47956 -48367 0
-48457 48370 0
-48457 48264 0
48457 -48370 -48264 0
-48461 48067 0
-48461 48373 0
48461 -48067 -48373 0
-48549 48377 0
-48549 48013 0
48549 -48377 -48013 0
-48468 48044 0
-48468 48380 0
48468 -48044 -48380 0
-48521 47971 0
-48521 48383 0
48521 -47971 -48383 0
-48495 48386 0
-48495 48011 0
48495 -48386 -48011 0
-48512 48389 0
-48512 47915 0
48512 -48389 -47915 0
-48542 48067 0
-48542 48392 0
48542 -48067 -48392 0
-48470 48067 0
-48470 48395 0
48470 -48067 -48395 0
-48475 48067 0
-48475 48398 0
48475 -48067 -48398 0
-48547 48405 0
-48547 47915 0
48547 -48405 -47915 0
-48484 47947 0
-48484 48408 0
48484 -47947 -48408 0
-48538 47915 0
-48538 48412 0
48538 -47915 -48412 0
-48486 48415 0
-48486 48171 0
48486 -48415 -48171 0
-47837 47947 0
-47837 48171 0
-47837 47840 0
47837 -47947 -48171 -47840 0
-47841 48418 0
-47841 48171 0
47841 -48418 -48171 0
-48496 47947 0
-48496 48425 0
48496 -47947 -48425 0
-48522 47915 0
-48522 48428 0
48522 -47915 -48428 0
-48499 47947 0
-48499 48431 0
48499 -47947 -48431 0
-48501 48441 0
-48501 48403 0
48501 -48441 -48403 0
-48504 47947 0
-48504 48444 0
48504 -47947 -48444 0
-48509 48453 0
-48509 47947 0
48509 -48453 -47947 0
-48513 48456 0
-48513 47947 0
48513 -48456 -47947 0
-48517 47947 0
-48517 48459 0
48517 -47947 -48459 0
-48520 48464 0
-48520 47947 0
48520 -48464 -47947 0
-48526 48472 0
-48526 47947 0
48526 -48472 -47947 0
-48529 48477 0
-48529 47947 0
48529 -48477 -47947 0
-48535 48485 0
-48535 48044 0
48535 -48485 -48044 0
-48539 47947 0
-48539 48488 0
48539 -47947 -48488 0
-48541 48497 0
-48541 47956 0
48541 -48497 -47956 0
-48545 48500 0
-48545 48171 0
48545 -48500 -48171 0
-48548 47947 0
-48548 48543 0
48548 -47947 -48543 0
-48561 47893 0
-48561 47909 0
48561 -47893 -47909 0
-48555 47896 0
-48555 47909 0
48555 -47896 -47909 0
-48559 47899 0
-48559 47909 0
48559 -47899 -47909 0
-48551 47902 0
-48551 47909 0
48551 -47902 -47909 0
-48553 47905 0
-48553 47909 0
48553 -47905 -47909 0
-48557 47908 0
-48557 47909 0
48557 -47908 -47909 0
47910 -47911 0
47910 -47936 0
-47910 47911 47936 0
47913 -48044 0
47913 -47915 0
-47913 48044 47915 0
47916 -48267 0
47916 -48013 0
-47916 48267 48013 0
47919 -48013 0
47919 -48011 0
-47919 48013 48011 0
47922 -47974 0
47922 -48446 0
-47922 47974 48446 0
47925 -48267 0
47925 -48446 0
-47925 48267 48446 0
47928 -47971 0
47928 -48446 0
-47928 47971 48446 0
47931 -47932 0
47931 -47935 0
-47931 47932 47935 0
47934 -47935 0
47934 -47936 0
-47934 47935 47936 0
47937 -47938 0
47937 -47945 0
-47937 47938 47945 0
47940 -47945 0
47940 -48013 0
-47940 47945 48013 0
47995 -47944 0
47995 -47945 0
-47995 47944 47945 0
47946 -47947 0
47946 -48013 0
-47946 47947 48013 0
47949 -47956 0
47949 -48013 0
-47949 47956 48013 0
47952 -47956 0
47952 -48011 0
-47952 47956 48011 0
47955 -47956 0
47955 -48264 0
-47955 47956 48264 0
47958 -48264 0
47958 -48044 0
-47958 48264 48044 0
47961 -47974 0
47961 -48056 0
-47961 47974 48056 0
47964 -48056 0
47964 -48267 0
-47964 48056 48267 0
48010 -48056 0
48010 -48446 0
-48010 48056 48446 0
47970 -47971 0
47970 -48056 0
-47970 47971 48056 0
47973 -47974 0
47973 -48104 0
-47973 47974 48104 0
47976 -48056 0
47976 -48104 0
-47976 48056 48104 0
48025 -48104 0
48025 -48446 0
-48025 48104 48446 0
47982 -48104 0
47982 -48171 0
-47982 48104 48171 0
47985 -48056 0
47985 -48171 0
-47985 48056 48171 0
47988 -48267 0
47988 -48171 0
-47988 48267 48171 0
47991 -48267 0
47991 -47993 0
-47991 48267 47993 0
47994 -47995 0
47994 -47996 0
-47994 47995 47996 0
47997 -47998 0
47997 -48011 0
-47997 47998 48011 0
48000 -48001 0
48000 -48002 0
-48000 48001 48002 0
48003 -48004 0
48003 -48446 0
-48003 48004 48446 0
48006 -48007 0
48006 -48008 0
-48006 48007 48008 0
48009 -48010 0
48009 -48011 0
-48009 48010 48011 0
48012 -48013 0
48012 -48014 0
-48012 48013 48014 0
48015 -48016 0
48015 -48017 0
-48015 48016 48017 0
48082 -48019 0
48082 -48020 0
-48082 48019 48020 0
48021 -48025 0
48021 -48023 0
-48021 48025 48023 0
48024 -48025 0
48024 -48026 0
-48024 48025 48026 0
48027 -48267 0
48027 -48029 0
-48027 48267 48029 0
48030 -48174 0
48030 -48264 0
-48030 48174 48264 0
48033 -48034 0
48033 -48035 0
-48033 48034 48035 0
48036 -48037 0
48036 -48038 0
-48036 48037 48038 0
48039 -48040 0
48039 -48041 0
-48039 48040 48041 0
48042 -48403 0
48042 -48044 0
-48042 48403 48044 0
48045 -48446 0
48045 -48047 0
-48045 48446 48047 0
48048 -48049 0
48048 -48050 0
-48048 48049 48050 0
48051 -48052 0
48051 -48053 0
-48051 48052 48053 0
48054 -48055 0
48054 -48056 0
-48054 48055 48056 0
48057 -48058 0
48057 -48059 0
-48057 48058 48059 0
48060 -48061 0
48060 -48062 0
-48060 48061 48062 0
48063 -48064 0
48063 -48104 0
-48063 48064 48104 0
48066 -48067 0
48066 -48068 0
-48066 48067 48068 0
48069 -48070 0
48069 -48071 0
-48069 48070 48071 0
48072 -48073 0
48072 -48074 0
-48072 48073 48074 0
48075 -48076 0
48075 -48077 0
-48075 48076 48077 0
48078 -48079 0
48078 -48080 0
-48078 48079 48080 0
48081 -48082 0
48081 -48267 0
-48081 48082 48267 0
48084 -48085 0
48084 -48086 0
-48084 48085 48086 0
48087 -48094 0
48087 -48089 0
-48087 48094 48089 0
48090 -48094 0
48090 -48092 0
-48090 48094 48092 0
48093 -48094 0
48093 -48095 0
-48093 48094 48095 0
48096 -48097 0
48096 -48098 0
-48096 48097 48098 0
48099 -48100 0
48099 -48101 0
-48099 48100 48101 0
48102 -48109 0
48102 -48104 0
-48102 48109 48104 0
48105 -48109 0
48105 -48107 0
-48105 48109 48107 0
48108 -48109 0
48108 -48110 0
-48108 48109 48110 0
48111 -48112 0
48111 -48113 0
-48111 48112 48113 0
48114 -48115 0
48114 -48116 0
-48114 48115 48116 0
48117 -48118 0
48117 -48119 0
-48117 48118 48119 0
48120 -48121 0
48120 -48122 0
-48120 48121 48122 0
48123 -48124 0
48123 -48125 0
-48123 48124 48125 0
48126 -48127 0
48126 -48128 0
-48126 48127 48128 0
48129 -48130 0
48129 -48131 0
-48129 48130 48131 0
48132 -48133 0
48132 -48134 0
-48132 48133 48134 0
48135 -48136 0
48135 -48137 0
-48135 48136 48137 0
48138 -48139 0
48138 -48140 0
-48138 48139 48140 0
48141 -48142 0
48141 -48143 0
-48141 48142 48143 0
48144 -48145 0
48144 -48146 0
-48144 48145 48146 0
48147 -48148 0
48147 -48149 0
-48147 48148 48149 0
48150 -48151 0
48150 -48152 0
-48150 48151 48152 0
48153 -48154 0
48153 -48155 0
-48153 48154 48155 0
48156 -48157 0
48156 -48158 0
-48156 48157 48158 0
48159 -48160 0
48159 -48161 0
-48159 48160 48161 0
48162 -48355 0
48162 -48267 0
48162 -48165 0
-48162 48355 48267 48165 0
48166 -48167 0
48166 -48168 0
-48166 48167 48168 0
48169 -48170 0
48169 -48171 0
-48169 48170 48171 0
48172 -48173 0
48172 -48174 0
-48172 48173 48174 0
48175 -48176 0
48175 -48177 0
-48175 48176 48177 0
48178 -48179 0
48178 -48180 0
-48178 48179 48180 0
48181 -48182 0
48181 -48183 0
-48181 48182 48183 0
48184 -48185 0
48184 -48186 0
-48184 48185 48186 0
48187 -48188 0
48187 -48189 0
-48187 48188 48189 0
48190 -48191 0
48190 -48192 0
-48190 48191 48192 0
48193 -48194 0
48193 -48195 0
-48193 48194 48195 0
48196 -48197 0
48196 -48198 0
-48196 48197 48198 0
48199 -48200 0
48199 -48201 0
-48199 48200 48201 0
48202 -48203 0
48202 -48204 0
-48202 48203 48204 0
48205 -48206 0
48205 -48207 0
-48205 48206 48207 0
48208 -48209 0
48208 -48210 0
-48208 48209 48210 0
48211 -48212 0
48211 -48213 0
-48211 48212 48213 0
48214 -48215 0
48214 -48216 0
-48214 48215 48216 0
48217 -48218 0
48217 -48219 0
-48217 48218 48219 0
48220 -48221 0
48220 -48222 0
-48220 48221 48222 0
48223 -48355 0
48223 -48225 0
-48223 48355 48225 0
48226 -48227 0
48226 -48228 0
-48226 48227 48228 0
48229 -48230 0
48229 -48231 0
-48229 48230 48231 0
48232 -48233 0
48232 -48267 0
-48232 48233 48267 0
48235 -48236 0
48235 -48237 0
-48235 48236 48237 0
48238 -48239 0
48238 -48240 0
-48238 48239 48240 0
48241 -48242 0
48241 -48243 0
-48241 48242 48243 0
48244 -48245 0
48244 -48246 0
-48244 48245 48246 0
48247 -48248 0
48247 -48249 0
-48247 48248 48249 0
48250 -48251 0
48250 -48252 0
-48250 48251 48252 0
48253 -48254 0
48253 -48255 0
-48253 48254 48255 0
48256 -48257 0
48256 -48258 0
-48256 48257 48258 0
48259 -48260 0
48259 -48261 0
-48259 48260 48261 0
48262 -48263 0
48262 -48264 0
-48262 48263 48264 0
48265 -48266 0
48265 -48267 0
-48265 48266 48267 0
48268 -48269 0
48268 -48270 0
-48268 48269 48270 0
48271 -48272 0
48271 -48273 0
-48271 48272 48273 0
48274 -48275 0
48274 -48276 0
48274 -48277 0
48274 -48278 0
-48274 48275 48276 48277 48278 0
48279 -48280 0
48279 -48281 0
-48279 48280 48281 0
48282 -48283 0
48282 -48284 0
-48282 48283 48284 0
48285 -48286 0
48285 -48287 0
-48285 48286 48287 0
48288 -48289 0
48288 -48290 0
48288 -48446 0
48288 -48292 0
-48288 48289 48290 48446 48292 0
48293 -48294 0
48293 -48295 0
-48293 48294 48295 0
48296 -48297 0
48296 -48298 0
-48296 48297 48298 0
48299 -48300 0
48299 -48301 0
-48299 48300 48301 0
48302 -48303 0
48302 -48304 0
-48302 48303 48304 0
48305 -48306 0
48305 -48307 0
-48305 48306 48307 0
48308 -48309 0
48308 -48310 0
-48308 48309 48310 0
48311 -48312 0
48311 -48313 0
48311 -48314 0
-48311 48312 48313 48314 0
48315 -48316 0
48315 -48317 0
-48315 48316 48317 0
48318 -48319 0
48318 -48320 0
-48318 48319 48320 0
48321 -48322 0
48321 -48323 0
-48321 48322 48323 0
48324 -48325 0
48324 -48326 0
-48324 48325 48326 0
48327 -48328 0
48327 -48329 0
-48327 48328 48329 0
48411 -48331 0
48411 -48332 0
48411 -48333 0
-48411 48331 48332 48333 0
48334 -48335 0
48334 -48336 0
-48334 48335 48336 0
48337 -48338 0
48337 -48339 0
48337 -48340 0
-48337 48338 48339 48340 0
48341 -48342 0
48341 -48343 0
-48341 48342 48343 0
48344 -48345 0
48344 -48346 0
48344 -48347 0
-48344 48345 48346 48347 0
48348 -48349 0
48348 -48350 0
-48348 48349 48350 0
48351 -48352 0
48351 -48353 0
-48351 48352 48353 0
48354 -48355 0
48354 -48356 0
-48354 48355 48356 0
48357 -48358 0
48357 -48359 0
-48357 48358 48359 0
48360 -48361 0
48360 -48362 0
-48360 48361 48362 0
48363 -48364 0
48363 -48365 0
48363 -48366 0
-48363 48364 48365 48366 0
48367 -48368 0
48367 -48369 0
-48367 48368 48369 0
48370 -48371 0
48370 -48372 0
-48370 48371 48372 0
48373 -48374 0
48373 -48375 0
48373 -48376 0
-48373 48374 48375 48376 0
48377 -48378 0
48377 -48379 0
-48377 48378 48379 0
48380 -48381 0
48380 -48382 0
-48380 48381 48382 0
48383 -48384 0
48383 -48385 0
-48383 48384 48385 0
48386 -48387 0
48386 -48388 0
-48386 48387 48388 0
48389 -48390 0
48389 -48391 0
-48389 48390 48391 0
48392 -48393 0
48392 -48394 0
-48392 48393 48394 0
48395 -48396 0
48395 -48397 0
-48395 48396 48397 0
48398 -48399 0
48398 -48400 0
-48398 48399 48400 0
48448 -48402 0
48448 -48403 0
48448 -48404 0
-48448 48402 48403 48404 0
48405 -48406 0
48405 -48407 0
-48405 48406 48407 0
48408 -48409 0
48408 -48410 0
48408 -48411 0
-48408 48409 48410 48411 0
48412 -48413 0
48412 -48414 0
-48412 48413 48414 0
48415 -48416 0
48415 -48417 0
-48415 48416 48417 0
48418 -48419 0
48418 -48420 0
-48418 48419 48420 0
48421 -48422 0
48421 -48423 0
48421 -48424 0
-48421 48422 48423 48424 0
48425 -48426 0
48425 -48427 0
-48425 48426 48427 0
48428 -48429 0
48428 -48430 0
-48428 48429 48430 0
48431 -48432 0
48431 -48433 0
-48431 48432 48433 0
48480 -48435 0
48480 -48436 0
48480 -48437 0
-48480 48435 48436 48437 0
48438 -48439 0
48438 -48440 0
-48438 48439 48440 0
48441 -48442 0
48441 -48443 0
-48441 48442 48443 0
48444 -48445 0
48444 -48446 0
48444 -48447 0
48444 -48448 0
-48444 48445 48446 48447 48448 0
48492 -48450 0
48492 -48451 0
48492 -48452 0
-48492 48450 48451 48452 0
48453 -48454 0
48453 -48455 0
-48453 48454 48455 0
48456 -48457 0
48456 -48458 0
-48456 48457 48458 0
48459 -48460 0
48459 -48461 0
48459 -48462 0
48459 -48463 0
-48459 48460 48461 48462 48463 0
48464 -48465 0
48464 -48466 0
48464 -48467 0
48464 -48468 0
-48464 48465 48466 48467 48468 0
48469 -48470 0
48469 -48471 0
-48469 48470 48471 0
48472 -48473 0
48472 -48474 0
48472 -48475 0
48472 -48476 0
-48472 48473 48474 48475 48476 0
48477 -48478 0
48477 -48479 0
48477 -48480 0
-48477 48478 48479 48480 0
48481 -48482 0
48481 -48483 0
48481 -48484 0
-48481 48482 48483 48484 0
48485 -48486 0
48485 -48487 0
-48485 48486 48487 0
48488 -48489 0
48488 -48490 0
48488 -48491 0
48488 -48492 0
-48488 48489 48490 48491 48492 0
48493 -48494 0
48493 -48495 0
48493 -48496 0
-48493 48494 48495 48496 0
48497 -48498 0
48497 -48499 0
-48497 48498 48499 0
48500 -48501 0
48500 -48502 0
-48500 48501 48502 0
48503 -48504 0
48503 -48505 0
48503 -48506 0
-48503 48504 48505 48506 0
48507 -48508 0
48507 -48509 0
48507 -48510 0
-48507 48508 48509 48510 0
48511 -48512 0
48511 -48513 0
-48511 48512 48513 0
48514 -48515 0
48514 -48516 0
48514 -48517 0
-48514 48515 48516 48517 0
48518 -48519 0
48518 -48520 0
48518 -48521 0
48518 -48522 0
-48518 48519 48520 48521 48522 0
48523 -48524 0
48523 -48525 0
48523 -48526 0
48523 -48527 0
-48523 48524 48525 48526 48527 0
48528 -48529 0
48528 -48530 0
48528 -48531 0
48528 -48532 0
-48528 48529 48530 48531 48532 0
48533 -48534 0
48533 -48535 0
-48533 48534 48535 0
48536 -48537 0
48536 -48538 0
48536 -48539 0
-48536 48537 48538 48539 0
48540 -48541 0
48540 -48542 0
-48540 48541 48542 0
48543 -48544 0
48543 -48545 0
-48543 48544 48545 0
48546 -48547 0
48546 -48548 0
48546 -48549 0
-48546 48547 48548 48549 0
-48551 50460 0
48551 -50460 0
-48553 50025 0
48553 -50025 0
-48555 50027 0
48555 -50027 0
-48557 50281 0
48557 -50281 0
-48559 50081 0
48559 -50081 0
-48561 49929 0
48561 -49929 0
50010 49988 0
-50010 -49988 0
49666 49958 0
-49666 -49958 0
49985 50058 0
-49985 -50058 0
49952 49626 0
-49952 -49626 0
49946 49950 0
-49946 -49950 0
49949 49925 0
-49949 -49925 0
49959 49407 0
-49959 -49407 0
49961 49929 0
-49961 -49929 0
49970 50081 0
-49970 -50081 0
50278 50281 0
-50278 -50281 0
50070 50027 0
-50070 -50027 0
50118 50025 0
-50118 -50025 0
50185 50460 0
-50185 -50460 0
50416 49924 0
-50416 -49924 0
48593 50281 0
-48593 -50281 0
50028 48593 0
-50028 -48593 0
50030 49930 0
-50030 -49930 0
48599 50058 0
-48599 -50058 0
48992 48599 0
-48992 -48599 0
50188 49933 0
-50188 -49933 0
48605 50070 0
-48605 -50070 0
50055 48605 0
-50055 -48605 0
49621 49939 0
-49621 -49939 0
49455 49942 0
-49455 -49942 0
50417 49945 0
-50417 -49945 0
48615 49945 0
-48615 -49945 0
50109 48615 0
-50109 -48615 0
49482 49951 0
-49482 -49951 0
49347 50009 0
-49347 -50009 0
49110 49960 0
-49110 -49960 0
50066 49963 0
-50066 -49963 0
50069 49966 0
-50069 -49966 0
49483 49969 0
-49483 -49969 0
50075 49972 0
-50075 -49972 0
50078 49975 0
-50078 -49975 0
50138 49978 0
-50138 -49978 0
49183 50024 0
-49183 -50024 0
49364 49984 0
-49364 -49984 0
50093 49987 0
-50093 -49987 0
49237 49990 0
-49237 -49990 0
49441 50039 0
-49441 -50039 0
50108 49996 0
-50108 -49996 0
50289 49999 0
-50289 -49999 0
50123 50002 0
-50123 -50002 0
48653 50025 0
-48653 -50025 0
49449 48653 0
-49449 -48653 0
50369 50023 0
-50369 -50023 0
48659 48864 0
-48659 -48864 0
49498 48659 0
-49498 -48659 0
48663 49101 0
-48663 -49101 0
49552 48663 0
-49552 -48663 0
50280 50077 0
-50280 -50077 0
50565 49357 0
-50565 -49357 0
50567 49566 0
-50567 -49566 0
49773 50279 0
-49773 -50279 0
50569 49646 0
-50569 -49646 0
50571 50332 0
-50571 -50332 0
50573 50341 0
-50573 -50341 0
50575 49767 0
-50575 -49767 0
50577 50435 0
-50577 -50435 0
50579 49787 0
-50579 -49787 0
50581 50452 0
-50581 -50452 0
50583 49851 0
-50583 -49851 0
50585 49855 0
-50585 -49855 0
50587 50483 0
-50587 -50483 0
50589 50495 0
-50589 -50495 0
50591 50507 0
-50591 -50507 0
50593 50517 0
-50593 -50517 0
48715 50521 0
-48715 -50521 0
50595 50525 0
-50595 -50525 0
48717 50528 0
-48717 -50528 0
48719 50532 0
-48719 -50532 0
48723 50537 0
-48723 -50537 0
48725 50542 0
-48725 -50542 0
50597 50547 0
-50597 -50547 0
48727 50550 0
-48727 -50550 0
49907 48715 0
-49907 -48715 0
49910 48717 0
-49910 -48717 0
49913 48719 0
-49913 -48719 0
50599 50554 0
-50599 -50554 0
49916 48723 0
-49916 -48723 0
49919 48725 0
-49919 -48725 0
49922 48727 0
-49922 -48727 0
50601 50560 0
-50601 -50560 0
-50021 50281 0
-50021 50027 0
50021 -50281 -50027 0
-50031 50281 0
-50031 50027 0
50031 -50281 -50027 0
-50072 50081 0
-50072 50281 0
-50072 50027 0
50072 -50081 -50281 -50027 0
-50048 50081 0
-50048 50025 0
50048 -50081 -50025 0
-50033 49988 0
-50033 50025 0
50033 -49988 -50025 0
-50133 49988 0
-50133 50025 0
50133 -49988 -50025 0
-50063 50058 0
-50063 50025 0
50063 -50058 -50025 0
-50297 50281 0
-50297 50025 0
50297 -50281 -50025 0
-50007 49958 0
-50007 50460 0
50007 -49958 -50460 0
-50012 49952 0
-50012 49959 0
50012 -49952 -49959 0
-49361 49626 0
-49361 49961 0
-49361 50027 0
49361 -49626 -49961 -50027 0
-50016 49988 0
-50016 49970 0
-50016 50025 0
50016 -49988 -49970 -50025 0
-50051 49959 0
-50051 49961 0
-50051 49970 0
-50051 50460 0
50051 -49959 -49961 -49970 -50460 0
-50076 49970 0
-50076 50025 0
50076 -49970 -50025 0
-50151 49970 0
-50151 50281 0
-50151 50460 0
50151 -49970 -50281 -50460 0
-50067 49970 0
-50067 50281 0
-50067 50027 0
50067 -49970 -50281 -50027 0
-49004 49958 0
-49004 49407 0
-49004 49961 0
-49004 49970 0
49004 -49958 -49407 -49961 -49970 0
-50015 49985 0
-50015 50081 0
-50015 50278 0
50015 -49985 -50081 -50278 0
-50018 50278 0
-50018 50025 0
50018 -50278 -50025 0
-50037 49952 0
-50037 50278 0
50037 -49952 -50278 0
-50160 49961 0
-50160 49970 0
-50160 50278 0
50160 -49961 -49970 -50278 0
-49365 49929 0
-49365 50081 0
-49365 50278 0
49365 -49929 -50081 -50278 0
-50022 49970 0
-50022 50070 0
50022 -49970 -50070 0
-50136 49958 0
-50136 50070 0
-50136 50460 0
50136 -49958 -50070 -50460 0
-50169 49970 0
-50169 50070 0
-50169 50025 0
50169 -49970 -50070 -50025 0
-50157 50070 0
-50157 50460 0
50157 -50070 -50460 0
-50191 49666 0
-50191 50281 0
-50191 50070 0
50191 -49666 -50281 -50070 0
-50040 49970 0
-50040 50070 0
50040 -49970 -50070 0
-50431 50081 0
-50431 50025 0
-50431 49930 0
50431 -50081 -50025 -49930 0
-50034 50027 0
-50034 50118 0
50034 -50027 -50118 0
-50043 49407 0
-50043 50118 0
50043 -49407 -50118 0
-49100 49961 0
-49100 50281 0
-49100 50118 0
49100 -49961 -50281 -50118 0
-50094 50278 0
-50094 50118 0
50094 -50278 -50118 0
-50130 49970 0
-50130 50118 0
50130 -49970 -50118 0
-50224 50027 0
-50224 50118 0
50224 -50027 -50118 0
-50124 50281 0
-50124 50118 0
50124 -50281 -50118 0
-50142 50027 0
-50142 50118 0
50142 -50027 -50118 0
-50090 50027 0
-50090 50118 0
50090 -50027 -50118 0
-50459 50027 0
-50459 50118 0
50459 -50027 -50118 0
-48864 50081 0
-48864 49933 0
48864 -50081 -49933 0
-50145 49933 0
-50145 50460 0
50145 -49933 -50460 0
-50049 49961 0
-50049 50185 0
50049 -49961 -50185 0
-50052 50081 0
-50052 50185 0
50052 -50081 -50185 0
-50221 49961 0
-50221 50281 0
-50221 50070 0
-50221 50185 0
50221 -49961 -50281 -50070 -50185 0
-50227 49970 0
-50227 50281 0
-50227 50118 0
-50227 50185 0
50227 -49970 -50281 -50118 -50185 0
-50103 49970 0
-50103 50118 0
-50103 50185 0
50103 -49970 -50118 -50185 0
-50257 49970 0
-50257 50281 0
-50257 50070 0
-50257 50185 0
50257 -49970 -50281 -50070 -50185 0
-50106 49949 0
-50106 50118 0
-50106 50185 0
50106 -49949 -50118 -50185 0
-50233 49970 0
-50233 50118 0
-50233 50185 0
50233 -49970 -50118 -50185 0
-50121 49626 0
-50121 50070 0
-50121 50185 0
50121 -49626 -50070 -50185 0
-50115 50070 0
-50115 50185 0
50115 -50070 -50185 0
-50266 49930 0
-50266 50185 0
50266 -49930 -50185 0
-50127 49970 0
-50127 50281 0
-50127 50118 0
-50127 50185 0
50127 -49970 -50281 -50118 -50185 0
-50112 50118 0
-50112 50185 0
50112 -50118 -50185 0
-50275 49927 0
-50275 50185 0
-50275 49930 0
50275 -49927 -50185 -49930 0
-50242 49959 0
-50242 50118 0
-50242 50185 0
50242 -49959 -50118 -50185 0
-50295 50185 0
-50295 49933 0
50295 -50185 -49933 0
-50408 49929 0
-50408 50185 0
50408 -49929 -50185 0
-50179 49936 0
-50179 50025 0
50179 -49936 -50025 0
-50054 49942 0
-50054 50118 0
50054 -49942 -50118 0
-50061 50070 0
-50061 49948 0
50061 -50070 -49948 0
-50064 49951 0
-50064 50118 0
50064 -49951 -50118 0
-50085 49954 0
-50085 50118 0
-50085 50185 0
50085 -49954 -50118 -50185 0
-50263 49960 0
-50263 49949 0
-50263 50281 0
-50263 50185 0
50263 -49960 -49949 -50281 -50185 0
-50073 49969 0
-50073 50070 0
50073 -49969 -50070 0
-50088 50025 0
-50088 49972 0
50088 -50025 -49972 0
-50082 49978 0
-50082 50025 0
50082 -49978 -50025 0
-50182 50081 0
-50182 50024 0
50182 -50081 -50024 0
-50084 50025 0
-50084 50024 0
50084 -50025 -50024 0
-50087 49984 0
-50087 50118 0
50087 -49984 -50118 0
-50091 50025 0
-50091 49984 0
50091 -50025 -49984 0
-50175 49959 0
-50175 49970 0
-50175 50460 0
-50175 50030 0
50175 -49959 -49970 -50460 -50030 0
-50480 50081 0
-50480 50185 0
-50480 50030 0
50480 -50081 -50185 -50030 0
-50100 50281 0
-50100 50460 0
-50100 49990 0
50100 -50281 -50460 -49990 0
-50461 50081 0
-50461 48992 0
50461 -50081 -48992 0
-50347 50281 0
-50347 50039 0
50347 -50281 -50039 0
-50206 49407 0
-50206 50460 0
-50206 50188 0
50206 -49407 -50460 -50188 0
-50197 50281 0
-50197 50185 0
-50197 50188 0
-50197 49004 0
50197 -50281 -50185 -50188 -49004 0
-50200 49970 0
-50200 50278 0
-50200 50188 0
50200 -49970 -50278 -50188 0
-50269 50281 0
-50269 50188 0
50269 -50281 -50188 0
-50099 49626 0
-50099 50185 0
-50099 50188 0
50099 -49626 -50185 -50188 0
-50382 49959 0
-50382 50281 0
-50382 50185 0
-50382 50188 0
50382 -49959 -50281 -50185 -50188 0
-50330 50281 0
-50330 50460 0
-50330 50188 0
50330 -50281 -50460 -50188 0
-49325 49961 0
-49325 49970 0
-49325 50188 0
49325 -49961 -49970 -50188 0
-50111 49996 0
-50111 50278 0
50111 -49996 -50278 0
-50284 50030 0
-50284 49996 0
50284 -50030 -49996 0
-50114 49999 0
-50114 50278 0
50114 -49999 -50278 0
-50172 50002 0
-50172 50070 0
50172 -50002 -50070 0
-50147 49970 0
-50147 50027 0
-50147 49621 0
50147 -49970 -50027 -49621 0
-50375 50118 0
-50375 49621 0
50375 -50118 -49621 0
-50538 50081 0
-50538 50027 0
-50538 49621 0
50538 -50081 -50027 -49621 0
-50126 50005 0
-50126 50081 0
-50126 50025 0
50126 -50005 -50081 -50025 0
-50272 49455 0
-50272 49930 0
50272 -49455 -49930 0
-50129 50081 0
-50129 50025 0
-50129 50417 0
50129 -50081 -50025 -50417 0
-50154 49970 0
-50154 50278 0
-50154 50118 0
-50154 50417 0
50154 -49970 -50278 -50118 -50417 0
-50132 50070 0
-50132 50417 0
50132 -50070 -50417 0
-50135 50081 0
-50135 50185 0
-50135 50417 0
50135 -50081 -50185 -50417 0
-50139 50281 0
-50139 50417 0
50139 -50281 -50417 0
-50229 49621 0
-50229 50417 0
50229 -49621 -50417 0
-50339 49970 0
-50339 50278 0
-50339 50188 0
-50339 50417 0
50339 -49970 -50278 -50188 -50417 0
-50372 50118 0
-50372 49621 0
-50372 50417 0
50372 -50118 -49621 -50417 0
-50336 50185 0
-50336 50030 0
-50336 50417 0
50336 -50185 -50030 -50417 0
-50303 49966 0
-50303 50417 0
50303 -49966 -50417 0
-50217 50185 0
-50217 49482 0
-50217 49100 0
50217 -50185 -49482 -49100 0
-49101 49626 0
-49101 50460 0
-49101 50008 0
49101 -49626 -50460 -50008 0
-50141 50011 0
-50141 50070 0
50141 -50011 -50070 0
-50144 50185 0
-50144 49110 0
50144 -50185 -49110 0
-50148 50281 0
-50148 50025 0
-50148 50066 0
50148 -50281 -50025 -50066 0
-50194 49985 0
-50194 49929 0
-50194 50066 0
50194 -49985 -49929 -50066 0
-50150 49985 0
-50150 50185 0
-50150 50069 0
50150 -49985 -50185 -50069 0
-50208 50460 0
-50208 50069 0
50208 -50460 -50069 0
-50250 50185 0
-50250 50069 0
50250 -50185 -50069 0
-50211 49939 0
-50211 50069 0
50211 -49939 -50069 0
-50153 50058 0
-50153 49483 0
50153 -50058 -49483 0
-50156 50185 0
-50156 49483 0
50156 -50185 -49483 0
-50159 50025 0
-50159 49483 0
50159 -50025 -49483 0
-50163 50081 0
-50163 50075 0
50163 -50081 -50075 0
-50166 50081 0
-50166 50025 0
-50166 50075 0
50166 -50081 -50025 -50075 0
-50356 50081 0
-50356 50025 0
-50356 50075 0
50356 -50081 -50025 -50075 0
-50457 50081 0
-50457 50025 0
-50457 50075 0
50457 -50081 -50025 -50075 0
-50434 49961 0
-50434 50027 0
-50434 50014 0
50434 -49961 -50027 -50014 0
-50423 50070 0
-50423 50017 0
50423 -50070 -50017 0
-50162 49970 0
-50162 50278 0
-50162 50078 0
50162 -49970 -50278 -50078 0
-50165 49970 0
-50165 50278 0
-50165 50078 0
50165 -49970 -50278 -50078 0
-50168 50069 0
-50168 50138 0
50168 -50069 -50138 0
-50171 50460 0
-50171 50138 0
50171 -50460 -50138 0
-50174 49407 0
-50174 49183 0
-50174 49483 0
50174 -49407 -49183 -49483 0
-50235 49987 0
-50235 49183 0
50235 -49987 -49183 0
-50353 50023 0
-50353 50281 0
50353 -50023 -50281 0
-50181 50185 0
-50181 49364 0
50181 -50185 -49364 0
-50202 50118 0
-50202 49364 0
50202 -50118 -49364 0
-50385 50118 0
-50385 50185 0
-50385 49364 0
50385 -50118 -50185 -49364 0
-50516 50026 0
-50516 50058 0
-50516 50081 0
-50516 50025 0
50516 -50026 -50058 -50081 -50025 0
-50361 50029 0
-50361 49970 0
-50361 50025 0
50361 -50029 -49970 -50025 0
-50184 50278 0
-50184 49237 0
50184 -50278 -49237 0
-50187 50010 0
-50187 49237 0
50187 -50010 -49237 0
-50253 50281 0
-50253 49237 0
50253 -50281 -49237 0
-50190 50278 0
-50190 49237 0
50190 -50278 -49237 0
-50193 49949 0
-50193 49961 0
-50193 49970 0
-50193 49237 0
50193 -49949 -49961 -49970 -49237 0
-50196 50081 0
-50196 50278 0
-50196 49237 0
50196 -50081 -50278 -49237 0
-50199 49988 0
-50199 50009 0
-50199 50081 0
-50199 49237 0
50199 -49988 -50009 -50081 -49237 0
-50214 50278 0
-50214 49237 0
50214 -50278 -49237 0
-50300 49970 0
-50300 49237 0
50300 -49970 -49237 0
-50203 50096 0
-50203 49970 0
50203 -50096 -49970 0
-50205 49988 0
-50205 50027 0
-50205 49441 0
50205 -49988 -50027 -49441 0
-50209 49970 0
-50209 50281 0
-50209 49441 0
50209 -49970 -50281 -49441 0
-50260 50027 0
-50260 49441 0
50260 -50027 -49441 0
-50212 49970 0
-50212 49441 0
50212 -49970 -49441 0
-50349 50070 0
-50349 49441 0
50349 -50070 -49441 0
-50314 50027 0
-50314 49441 0
50314 -50027 -49441 0
-50405 49963 0
-50405 50281 0
-50405 49441 0
50405 -49963 -50281 -49441 0
-50366 50281 0
-50366 50027 0
-50366 49441 0
50366 -50281 -50027 -49441 0
-50311 49970 0
-50311 50070 0
-50311 49441 0
50311 -49970 -50070 -49441 0
-50392 49958 0
-50392 50281 0
-50392 49441 0
50392 -49958 -50281 -49441 0
-50286 50278 0
-50286 49441 0
-50286 50417 0
-50286 50078 0
50286 -50278 -49441 -50417 -50078 0
-50420 49970 0
-50420 50070 0
-50420 49441 0
50420 -49970 -50070 -49441 0
-50446 50281 0
-50446 50027 0
-50446 49441 0
50446 -50281 -50027 -49441 0
-50428 49441 0
-50428 49978 0
50428 -49441 -49978 0
-50413 50281 0
-50413 50070 0
-50413 49441 0
50413 -50281 -50070 -49441 0
-50436 49970 0
-50436 50070 0
-50436 49441 0
50436 -49970 -50070 -49441 0
-50443 50020 0
-50443 49441 0
50443 -50020 -49441 0
-50512 50030 0
-50512 49441 0
50512 -50030 -49441 0
-50326 50035 0
-50326 50070 0
50326 -50035 -50070 0
-50292 50281 0
-50292 50038 0
50292 -50281 -50038 0
-50215 50041 0
-50215 50070 0
50215 -50041 -50070 0
-50437 50044 0
-50437 50081 0
50437 -50044 -50081 0
-50519 50081 0
-50519 50044 0
50519 -50081 -50044 0
-50548 49621 0
-50548 50417 0
-50548 49325 0
50548 -49621 -50417 -49325 0
-50218 50058 0
-50218 49929 0
-50218 50278 0
-50218 50108 0
50218 -50058 -49929 -50278 -50108 0
-50220 49929 0
-50220 50081 0
-50220 50108 0
-50220 50138 0
50220 -49929 -50081 -50108 -50138 0
-50223 50070 0
-50223 50108 0
50223 -50070 -50108 0
-50226 49985 0
-50226 50081 0
-50226 50108 0
50226 -49985 -50081 -50108 0
-50230 49626 0
-50230 50081 0
-50230 50108 0
-50230 49347 0
50230 -49626 -50081 -50108 -49347 0
-50232 49407 0
-50232 50108 0
50232 -49407 -50108 0
-50236 50070 0
-50236 50108 0
50236 -50070 -50108 0
-50244 50081 0
-50244 50108 0
50244 -50081 -50108 0
-49357 50108 0
-49357 49483 0
-49357 50009 0
-49357 49361 0
49357 -50108 -49483 -50009 -49361 0
-50342 50108 0
-50342 49364 0
-50342 49365 0
50342 -50108 -49364 -49365 0
-50239 50070 0
-50239 50108 0
50239 -50070 -50108 0
-50363 50281 0
-50363 50027 0
-50363 50108 0
50363 -50281 -50027 -50108 0
-50395 49666 0
-50395 50070 0
-50395 50108 0
50395 -49666 -50070 -50108 0
-50241 50008 0
-50241 49626 0
-50241 50108 0
50241 -50008 -49626 -50108 0
-50479 50281 0
-50479 50108 0
50479 -50281 -50108 0
-50245 49666 0
-50245 50047 0
50245 -49666 -50047 0
-50247 49952 0
-50247 50289 0
50247 -49952 -50289 0
-50323 50118 0
-50323 50289 0
50323 -50118 -50289 0
-50308 50118 0
-50308 50289 0
50308 -50118 -50289 0
-50505 50281 0
-50505 50118 0
-50505 50289 0
50505 -50281 -50118 -50289 0
-50451 50118 0
-50451 50289 0
50451 -50118 -50289 0
-50251 49952 0
-50251 50050 0
50251 -49952 -50050 0
-50254 49407 0
-50254 50188 0
-50254 50123 0
50254 -49407 -50188 -50123 0
-50256 50118 0
-50256 50123 0
50256 -50118 -50123 0
-50259 49929 0
-50259 50123 0
50259 -49929 -50123 0
-50262 49929 0
-50262 50027 0
-50262 50123 0
50262 -49929 -50027 -50123 0
-50265 50070 0
-50265 50123 0
50265 -50070 -50123 0
-50268 49990 0
-50268 50123 0
50268 -49990 -50123 0
-50271 50027 0
-50271 50123 0
50271 -50027 -50123 0
-50274 50027 0
-50274 50123 0
50274 -50027 -50123 0
-50320 49929 0
-50320 50081 0
-50320 50123 0
50320 -49929 -50081 -50123 0
-50389 50053 0
-50389 50278 0
50389 -50053 -50278 0
-50277 50056 0
-50277 49441 0
50277 -50056 -49441 0
-50290 50059 0
-50290 50118 0
50290 -50059 -50118 0
-50306 50081 0
-50306 50062 0
50306 -50081 -50062 0
-50530 49449 0
-50530 49929 0
-50530 50281 0
-50530 50185 0
50530 -49449 -49929 -50281 -50185 0
-50474 50065 0
-50474 49455 0
50474 -50065 -49455 0
-50380 50068 0
-50380 50460 0
50380 -50068 -50460 0
-50402 49929 0
-50402 50185 0
-50402 50071 0
50402 -49929 -50185 -50071 0
-50424 50074 0
-50424 49948 0
50424 -50074 -49948 0
-50520 49929 0
-50520 50185 0
-50520 50080 0
50520 -49929 -50185 -50080 0
-50283 50281 0
-50283 50369 0
50283 -50281 -50369 0
-50333 49929 0
-50333 50369 0
-50333 49483 0
50333 -49929 -50369 -49483 0
-50317 50278 0
-50317 50369 0
50317 -50278 -50369 0
-50440 50369 0
-50440 49482 0
-50440 49483 0
50440 -50369 -49482 -49483 0
-50287 50083 0
-50287 50281 0
50287 -50083 -50281 0
-50291 50081 0
-50291 50086 0
50291 -50081 -50086 0
-50294 50278 0
-50294 50089 0
50294 -50278 -50089 0
-50298 49961 0
-50298 50092 0
50298 -49961 -50092 0
-50301 49929 0
-50301 49498 0
50301 -49929 -49498 0
-50304 50095 0
-50304 49970 0
50304 -50095 -49970 0
-50466 50081 0
-50466 50098 0
50466 -50081 -50098 0
-50379 49952 0
-50379 50101 0
50379 -49952 -50101 0
-50309 50104 0
-50309 50070 0
50309 -50104 -50070 0
-50390 50107 0
-50390 50070 0
50390 -50107 -50070 0
-50312 50110 0
-50312 50081 0
-50312 50027 0
50312 -50110 -50081 -50027 0
-50411 50113 0
-50411 49929 0
-50411 50118 0
50411 -50113 -49929 -50118 0
-50315 50116 0
-50315 50070 0
50315 -50116 -50070 0
-50533 50119 0
-50533 50069 0
50533 -50119 -50069 0
-50496 50122 0
-50496 50066 0
50496 -50122 -50066 0
-50318 50125 0
-50318 50070 0
50318 -50125 -50070 0
-50321 50128 0
-50321 49961 0
-50321 50281 0
-50321 50185 0
50321 -50128 -49961 -50281 -50185 0
-50324 50131 0
-50324 50185 0
50324 -50131 -50185 0
-50399 49961 0
-50399 50025 0
-50399 50134 0
50399 -49961 -50025 -50134 0
-50327 49985 0
-50327 50185 0
-50327 50137 0
50327 -49985 -50185 -50137 0
-50328 50281 0
-50328 49552 0
50328 -50281 -49552 0
-50354 50140 0
-50354 50460 0
50354 -50140 -50460 0
-50331 50143 0
-50331 50278 0
50331 -50143 -50278 0
-50504 50146 0
-50504 49945 0
50504 -50146 -49945 0
-50334 50149 0
-50334 49961 0
-50334 50070 0
50334 -50149 -49961 -50070 0
-49566 50152 0
-49566 49961 0
-49566 50070 0
-49566 50185 0
49566 -50152 -49961 -50070 -50185 0
-50337 49952 0
-50337 50155 0
50337 -49952 -50155 0
-50359 50158 0
-50359 50417 0
50359 -50158 -50417 0
-50340 50161 0
-50340 49924 0
-50340 50025 0
50340 -50161 -49924 -50025 0
-50472 49948 0
-50472 50164 0
-50472 50185 0
50472 -49948 -50164 -50185 0
-50546 49929 0
-50546 50185 0
-50546 50167 0
50546 -49929 -50185 -50167 0
-50529 50170 0
-50529 50069 0
50529 -50170 -50069 0
-50343 50173 0
-50343 49626 0
-50343 49961 0
-50343 50118 0
50343 -50173 -49626 -49961 -50118 0
-50346 49970 0
-50346 50176 0
50346 -49970 -50176 0
-50345 50180 0
-50345 50118 0
50345 -50180 -50118 0
-50350 50183 0
-50350 50081 0
50350 -50183 -50081 0
-50352 50185 0
-50352 50186 0
-50352 50417 0
50352 -50185 -50186 -50417 0
-50357 49970 0
-50357 50278 0
-50357 50186 0
50357 -49970 -50278 -50186 0
-50493 49970 0
-50493 50185 0
-50493 50189 0
50493 -49970 -50185 -50189 0
-50508 50010 0
-50508 50192 0
-50508 49621 0
50508 -50010 -50192 -49621 0
-50539 49985 0
-50539 50195 0
50539 -49985 -50195 0
-50488 49626 0
-50488 50198 0
-50488 50460 0
50488 -49626 -50198 -50460 0
-50360 49961 0
-50360 50201 0
-50360 50278 0
50360 -49961 -50201 -50278 0
-50364 50204 0
-50364 50278 0
50364 -50204 -50278 0
-50544 50207 0
-50544 50070 0
50544 -50207 -50070 0
-50367 50210 0
-50367 50070 0
50367 -50210 -50070 0
-50477 49970 0
-50477 50460 0
-50477 50213 0
50477 -49970 -50460 -50213 0
-49646 50216 0
-49646 50081 0
-49646 50027 0
49646 -50216 -50081 -50027 0
-50545 50058 0
-50545 50219 0
50545 -50058 -50219 0
-50370 50222 0
-50370 49970 0
50370 -50222 -49970 0
-50492 50281 0
-50492 50222 0
50492 -50281 -50222 0
-50373 49666 0
-50373 50225 0
50373 -49666 -50225 0
-50376 50010 0
-50376 50228 0
50376 -50010 -50228 0
-50378 49666 0
-50378 50231 0
50378 -49666 -50231 0
-50383 50234 0
-50383 50278 0
50383 -50234 -50278 0
-50386 50237 0
-50386 49970 0
50386 -50237 -49970 0
-50388 50240 0
-50388 50281 0
50388 -50240 -50281 0
-50393 50243 0
-50393 50278 0
50393 -50243 -50278 0
-50396 50246 0
-50396 49970 0
50396 -50246 -49970 0
-50551 50249 0
-50551 50030 0
50551 -50249 -50030 0
-50490 49970 0
-50490 50252 0
50490 -49970 -50252 0
-50449 49959 0
-50449 50255 0
50449 -49959 -50255 0
-50398 50258 0
-50398 50081 0
50398 -50258 -50081 0
-50401 49985 0
-50401 50081 0
-50401 50261 0
50401 -49985 -50081 -50261 0
-50404 50264 0
-50404 50069 0
50404 -50264 -50069 0
-50524 49929 0
-50524 50267 0
-50524 50081 0
50524 -49929 -50267 -50081 0
-50407 50270 0
-50407 50025 0
50407 -50270 -50025 0
-50410 50273 0
-50410 50025 0
50410 -50273 -50025 0
-50414 50276 0
-50414 50027 0
50414 -50276 -50027 0
-50418 50279 0
-50418 49970 0
50418 -50279 -49970 0
-50421 50282 0
-50421 50081 0
50421 -50282 -50081 0
-50469 49970 0
-50469 50285 0
50469 -49970 -50285 0
-50454 49961 0
-50454 50288 0
50454 -49961 -50288 0
-50427 50081 0
-50427 50293 0
50427 -50081 -50293 0
-50430 50296 0
-50430 50027 0
50430 -50296 -50027 0
-50433 50299 0
-50433 50281 0
50433 -50299 -50281 0
-50438 49961 0
-50438 50302 0
50438 -49961 -50302 0
-50441 50307 0
-50441 49970 0
-50441 50278 0
50441 -50307 -49970 -50278 0
-50497 49929 0
-50497 50310 0
50497 -49929 -50310 0
-50444 50081 0
-50444 50313 0
50444 -50081 -50313 0
-50464 50058 0
-50464 50316 0
50464 -50058 -50316 0
-50522 49985 0
-50522 50319 0
50522 -49985 -50319 0
-50447 50322 0
-50447 50278 0
50447 -50322 -50278 0
-50450 50081 0
-50450 50325 0
50450 -50081 -50325 0
-50453 50329 0
-50453 50081 0
50453 -50329 -50081 0
-50476 50335 0
-50476 50118 0
50476 -50335 -50118 0
-49767 50338 0
-49767 49961 0
-49767 50185 0
49767 -50338 -49961 -50185 0
-50456 49970 0
-50456 49773 0
50456 -49970 -49773 0
-50501 49929 0
-50501 50348 0
50501 -49929 -50348 0
-50481 50351 0
-50481 49970 0
50481 -50351 -49970 0
-49854 50355 0
-49854 49950 0
-49854 49949 0
49854 -50355 -49950 -49949 0
-50485 50358 0
-50485 50185 0
50485 -50358 -50185 0
-49787 50362 0
-49787 49961 0
-49787 49970 0
49787 -50362 -49961 -49970 0
-50541 49929 0
-50541 50365 0
50541 -49929 -50365 0
-50558 50368 0
-50558 50278 0
50558 -50368 -50278 0
-50465 50371 0
-50465 50070 0
50465 -50371 -50070 0
-50487 50374 0
-50487 50027 0
50487 -50374 -50027 0
-50468 50377 0
-50468 50281 0
50468 -50377 -50281 0
-50503 49970 0
-50503 50381 0
50503 -49970 -50381 0
-50471 50384 0
-50471 50278 0
50471 -50384 -50278 0
-50475 50081 0
-50475 50387 0
50475 -50081 -50387 0
-50563 50391 0
-50563 50027 0
50563 -50391 -50027 0
-50482 50058 0
-50482 50394 0
50482 -50058 -50394 0
-50535 49985 0
-50535 50397 0
50535 -49985 -50397 0
-50509 50400 0
-50509 50025 0
50509 -50400 -50025 0
-50526 50403 0
-50526 49929 0
50526 -50403 -49929 0
-50556 50081 0
-50556 50406 0
50556 -50081 -50406 0
-50484 50081 0
-50484 50409 0
50484 -50081 -50409 0
-50489 50081 0
-50489 50412 0
50489 -50081 -50412 0
-50561 50419 0
-50561 49929 0
50561 -50419 -49929 0
-50498 49961 0
-50498 50422 0
50498 -49961 -50422 0
-50552 49929 0
-50552 50426 0
50552 -49929 -50426 0
-50500 50429 0
-50500 50185 0
50500 -50429 -50185 0
-49851 49961 0
-49851 50185 0
-49851 49854 0
49851 -49961 -50185 -49854 0
-49855 50432 0
-49855 50185 0
49855 -50432 -50185 0
-50510 49961 0
-50510 50439 0
50510 -49961 -50439 0
-50536 49929 0
-50536 50442 0
50536 -49929 -50442 0
-50513 49961 0
-50513 50445 0
50513 -49961 -50445 0
-50515 50455 0
-50515 50417 0
50515 -50455 -50417 0
-50518 49961 0
-50518 50458 0
50518 -49961 -50458 0
-50523 50467 0
-50523 49961 0
50523 -50467 -49961 0
-50527 50470 0
-50527 49961 0
50527 -50470 -49961 0
-50531 49961 0
-50531 50473 0
50531 -49961 -50473 0
-50534 50478 0
-50534 49961 0
50534 -50478 -49961 0
-50540 50486 0
-50540 49961 0
50540 -50486 -49961 0
-50543 50491 0
-50543 49961 0
50543 -50491 -49961 0
-50549 50499 0
-50549 50058 0
50549 -50499 -50058 0
-50553 49961 0
-50553 50502 0
50553 -49961 -50502 0
-50555 50511 0
-50555 49970 0
50555 -50511 -49970 0
-50559 50514 0
-50559 50185 0
50559 -50514 -50185 0
-50562 49961 0
-50562 50557 0
50562 -49961 -50557 0
-49906 49907 0
-49906 49923 0
49906 -49907 -49923 0
-49909 49910 0
-49909 49923 0
49909 -49910 -49923 0
-49912 49913 0
-49912 49923 0
49912 -49913 -49923 0
-49915 49916 0
-49915 49923 0
49915 -49916 -49923 0
-49918 49919 0
-49918 49923 0
49918 -49919 -49923 0
-49921 49922 0
-49921 49923 0
49921 -49922 -49923 0
49924 -49925 0
49924 -49950 0
-49924 49925 49950 0
49927 -50058 0
49927 -49929 0
-49927 50058 49929 0
49930 -50281 0
49930 -50027 0
-49930 50281 50027 0
49933 -50027 0
49933 -50025 0
-49933 50027 50025 0
49936 -49988 0
49936 -50460 0
-49936 49988 50460 0
49939 -50281 0
49939 -50460 0
-49939 50281 50460 0
49942 -49985 0
49942 -50460 0
-49942 49985 50460 0
49945 -49946 0
49945 -49949 0
-49945 49946 49949 0
49948 -49949 0
49948 -49950 0
-49948 49949 49950 0
49951 -49952 0
49951 -49959 0
-49951 49952 49959 0
49954 -49959 0
49954 -50027 0
-49954 49959 50027 0
50009 -49958 0
50009 -49959 0
-50009 49958 49959 0
49960 -49961 0
49960 -50027 0
-49960 49961 50027 0
49963 -49970 0
49963 -50027 0
-49963 49970 50027 0
49966 -49970 0
49966 -50025 0
-49966 49970 50025 0
49969 -49970 0
49969 -50278 0
-49969 49970 50278 0
49972 -50278 0
49972 -50058 0
-49972 50278 50058 0
49975 -49988 0
49975 -50070 0
-49975 49988 50070 0
49978 -50070 0
49978 -50281 0
-49978 50070 50281 0
50024 -50070 0
50024 -50460 0
-50024 50070 50460 0
49984 -49985 0
49984 -50070 0
-49984 49985 50070 0
49987 -49988 0
49987 -50118 0
-49987 49988 50118 0
49990 -50070 0
49990 -50118 0
-49990 50070 50118 0
50039 -50118 0
50039 -50460 0
-50039 50118 50460 0
49996 -50118 0
49996 -50185 0
-49996 50118 50185 0
49999 -50070 0
49999 -50185 0
-49999 50070 50185 0
50002 -50281 0
50002 -50185 0
-50002 50281 50185 0
50005 -50281 0
50005 -50007 0
-50005 50281 50007 0
50008 -50009 0
50008 -50010 0
-50008 50009 50010 0
50011 -50012 0
50011 -50025 0
-50011 50012 50025 0
50014 -50015 0
50014 -50016 0
-50014 50015 50016 0
50017 -50018 0
50017 -50460 0
-50017 50018 50460 0
50020 -50021 0
50020 -50022 0
-50020 50021 50022 0
50023 -50024 0
50023 -50025 0
-50023 50024 50025 0
50026 -50027 0
50026 -50028 0
-50026 50027 50028 0
50029 -50030 0
50029 -50031 0
-50029 50030 50031 0
50096 -50033 0
50096 -50034 0
-50096 50033 50034 0
50035 -50039 0
50035 -50037 0
-50035 50039 50037 0
50038 -50039 0
50038 -50040 0
-50038 50039 50040 0
50041 -50281 0
50041 -50043 0
-50041 50281 50043 0
50044 -50188 0
50044 -50278 0
-50044 50188 50278 0
50047 -50048 0
50047 -50049 0
-50047 50048 50049 0
50050 -50051 0
50050 -50052 0
-50050 50051 50052 0
50053 -50054 0
50053 -50055 0
-50053 50054 50055 0
50056 -50417 0
50056 -50058 0
-50056 50417 50058 0
50059 -50460 0
50059 -50061 0
-50059 50460 50061 0
50062 -50063 0
50062 -50064 0
-50062 50063 50064 0
50065 -50066 0
50065 -50067 0
-50065 50066 50067 0
50068 -50069 0
50068 -50070 0
-50068 50069 50070 0
50071 -50072 0
50071 -50073 0
-50071 50072 50073 0
50074 -50075 0
50074 -50076 0
-50074 50075 50076 0
50077 -50078 0
50077 -50118 0
-50077 50078 50118 0
50080 -50081 0
50080 -50082 0
-50080 50081 50082 0
50083 -50084 0
50083 -50085 0
-50083 50084 50085 0
50086 -50087 0
50086 -50088 0
-50086 50087 50088 0
50089 -50090 0
50089 -50091 0
-50089 50090 50091 0
50092 -50093 0
50092 -50094 0
-50092 50093 50094 0
50095 -50096 0
50095 -50281 0
-50095 50096 50281 0
50098 -50099 0
50098 -50100 0
-50098 50099 50100 0
50101 -50108 0
50101 -50103 0
-50101 50108 50103 0
50104 -50108 0
50104 -50106 0
-50104 50108 50106 0
50107 -50108 0
50107 -50109 0
-50107 50108 50109 0
50110 -50111 0
50110 -50112 0
-50110 50111 50112 0
50113 -50114 0
50113 -50115 0
-50113 50114 50115 0
50116 -50123 0
50116 -50118 0
-50116 50123 50118 0
50119 -50123 0
50119 -50121 0
-50119 50123 50121 0
50122 -50123 0
50122 -50124 0
-50122 50123 50124 0
50125 -50126 0
50125 -50127 0
-50125 50126 50127 0
50128 -50129 0
50128 -50130 0
-50128 50129 50130 0
50131 -50132 0
50131 -50133 0
-50131 50132 50133 0
50134 -50135 0
50134 -50136 0
-50134 50135 50136 0
50137 -50138 0
50137 -50139 0
-50137 50138 50139 0
50140 -50141 0
50140 -50142 0
-50140 50141 50142 0
50143 -50144 0
50143 -50145 0
-50143 50144 50145 0
50146 -50147 0
50146 -50148 0
-50146 50147 50148 0
50149 -50150 0
50149 -50151 0
-50149 50150 50151 0
50152 -50153 0
50152 -50154 0
-50152 50153 50154 0
50155 -50156 0
50155 -50157 0
-50155 50156 50157 0
50158 -50159 0
50158 -50160 0
-50158 50159 50160 0
50161 -50162 0
50161 -50163 0
-50161 50162 50163 0
50164 -50165 0
50164 -50166 0
-50164 50165 50166 0
50167 -50168 0
50167 -50169 0
-50167 50168 50169 0
50170 -50171 0
50170 -50172 0
-50170 50171 50172 0
50173 -50174 0
50173 -50175 0
-50173 50174 50175 0
50176 -50369 0
50176 -50281 0
50176 -50179 0
-50176 50369 50281 50179 0
50180 -50181 0
50180 -50182 0
-50180 50181 50182 0
50183 -50184 0
50183 -50185 0
-50183 50184 50185 0
50186 -50187 0
50186 -50188 0
-50186 50187 50188 0
50189 -50190 0
50189 -50191 0
-50189 50190 50191 0
50192 -50193 0
50192 -50194 0
-50192 50193 50194 0
50195 -50196 0
50195 -50197 0
-50195 50196 50197 0
50198 -50199 0
50198 -50200 0
-50198 50199 50200 0
50201 -50202 0
50201 -50203 0
-50201 50202 50203 0
50204 -50205 0
50204 -50206 0
-50204 50205 50206 0
50207 -50208 0
50207 -50209 0
-50207 50208 50209 0
50210 -50211 0
50210 -50212 0
-50210 50211 50212 0
50213 -50214 0
50213 -50215 0
-50213 50214 50215 0
50216 -50217 0
50216 -50218 0
-50216 50217 50218 0
50219 -50220 0
50219 -50221 0
-50219 50220 50221 0
50222 -50223 0
50222 -50224 0
-50222 50223 50224 0
50225 -50226 0
50225 -50227 0
-50225 50226 50227 0
50228 -50229 0
50228 -50230 0
-50228 50229 50230 0
50231 -50232 0
50231 -50233 0
-50231 50232 50233 0
50234 -50235 0
50234 -50236 0
-50234 50235 50236 0
50237 -50369 0
50237 -50239 0
-50237 50369 50239 0
50240 -50241 0
50240 -50242 0
-50240 50241 50242 0
50243 -50244 0
50243 -50245 0
-50243 50244 50245 0
50246 -50247 0
50246 -50281 0
-50246 50247 50281 0
50249 -50250 0
50249 -50251 0
-50249 50250 50251 0
50252 -50253 0
50252 -50254 0
-50252 50253 50254 0
50255 -50256 0
50255 -50257 0
-50255 50256 50257 0
50258 -50259 0
50258 -50260 0
-50258 50259 50260 0
50261 -50262 0
50261 -50263 0
-50261 50262 50263 0
50264 -50265 0
50264 -50266 0
-50264 50265 50266 0
50267 -50268 0
50267 -50269 0
-50267 50268 50269 0
50270 -50271 0
50270 -50272 0
-50270 50271 50272 0
50273 -50274 0
50273 -50275 0
-50273 50274 50275 0
50276 -50277 0
50276 -50278 0
-50276 50277 50278 0
50279 -50280 0
50279 -50281 0
-50279 50280 50281 0
50282 -50283 0
50282 -50284 0
-50282 50283 50284 0
50285 -50286 0
50285 -50287 0
-50285 50286 50287 0
50288 -50289 0
50288 -50290 0
50288 -50291 0
50288 -50292 0
-50288 50289 50290 50291 50292 0
50293 -50294 0
50293 -50295 0
-50293 50294 50295 0
50296 -50297 0
50296 -50298 0
-50296 50297 50298 0
50299 -50300 0
50299 -50301 0
-50299 50300 50301 0
50302 -50303 0
50302 -50304 0
50302 -50460 0
50302 -50306 0
-50302 50303 50304 50460 50306 0
50307 -50308 0
50307 -50309 0
-50307 50308 50309 0
50310 -50311 0
50310 -50312 0
-50310 50311 50312 0
50313 -50314 0
50313 -50315 0
-50313 50314 50315 0
50316 -50317 0
50316 -50318 0
-50316 50317 50318 0
50319 -50320 0
50319 -50321 0
-50319 50320 50321 0
50322 -50323 0
50322 -50324 0
-50322 50323 50324 0
50325 -50326 0
50325 -50327 0
50325 -50328 0
-50325 50326 50327 50328 0
50329 -50330 0
50329 -50331 0
-50329 50330 50331 0
50332 -50333 0
50332 -50334 0
-50332 50333 50334 0
50335 -50336 0
50335 -50337 0
-50335 50336 50337 0
50338 -50339 0
50338 -50340 0
-50338 50339 50340 0
50341 -50342 0
50341 -50343 0
-50341 50342 50343 0
50425 -50345 0
50425 -50346 0
50425 -50347 0
-50425 50345 50346 50347 0
50348 -50349 0
50348 -50350 0
-50348 50349 50350 0
50351 -50352 0
50351 -50353 0
50351 -50354 0
-50351 50352 50353 50354 0
50355 -50356 0
50355 -50357 0
-50355 50356 50357 0
50358 -50359 0
50358 -50360 0
50358 -50361 0
-50358 50359 50360 50361 0
50362 -50363 0
50362 -50364 0
-50362 50363 50364 0
50365 -50366 0
50365 -50367 0
-50365 50366 50367 0
50368 -50369 0
50368 -50370 0
-50368 50369 50370 0
50371 -50372 0
50371 -50373 0
-50371 50372 50373 0
50374 -50375 0
50374 -50376 0
-50374 50375 50376 0
50377 -50378 0
50377 -50379 0
50377 -50380 0
-50377 50378 50379 50380 0
50381 -50382 0
50381 -50383 0
-50381 50382 50383 0
50384 -50385 0
50384 -50386 0
-50384 50385 50386 0
50387 -50388 0
50387 -50389 0
50387 -50390 0
-50387 50388 50389 50390 0
50391 -50392 0
50391 -50393 0
-50391 50392 50393 0
50394 -50395 0
50394 -50396 0
-50394 50395 50396 0
50397 -50398 0
50397 -50399 0
-50397 50398 50399 0
50400 -50401 0
50400 -50402 0
-50400 50401 50402 0
50403 -50404 0
50403 -50405 0
-50403 50404 50405 0
50406 -50407 0
50406 -50408 0
-50406 50407 50408 0
50409 -50410 0
50409 -50411 0
-50409 50410 50411 0
50412 -50413 0
50412 -50414 0
-50412 50413 50414 0
50462 -50416 0
50462 -50417 0
50462 -50418 0
-50462 50416 50417 50418 0
50419 -50420 0
50419 -50421 0
-50419 50420 50421 0
50422 -50423 0
50422 -50424 0
50422 -50425 0
-50422 50423 50424 50425 0
50426 -50427 0
50426 -50428 0
-50426 50427 50428 0
50429 -50430 0
50429 -50431 0
-50429 50430 50431 0
50432 -50433 0
50432 -50434 0
-50432 50433 50434 0
50435 -50436 0
50435 -50437 0
50435 -50438 0
-50435 50436 50437 50438 0
50439 -50440 0
50439 -50441 0
-50439 50440 50441 0
50442 -50443 0
50442 -50444 0
-50442 50443 50444 0
50445 -50446 0
50445 -50447 0
-50445 50446 50447 0
50494 -50449 0
50494 -50450 0
50494 -50451 0
-50494 50449 50450 50451 0
50452 -50453 0
50452 -50454 0
-50452 50453 50454 0
50455 -50456 0
50455 -50457 0
-50455 50456 50457 0
50458 -50459 0
50458 -50460 0
50458 -50461 0
50458 -50462 0
-50458 50459 50460 50461 50462 0
50506 -50464 0
50506 -50465 0
50506 -50466 0
-50506 50464 50465 50466 0
50467 -50468 0
50467 -50469 0
-50467 50468 50469 0
50470 -50471 0
50470 -50472 0
-50470 50471 50472 0
50473 -50474 0
50473 -50475 0
50473 -50476 0
50473 -50477 0
-50473 50474 50475 50476 50477 0
50478 -50479 0
50478 -50480 0
50478 -50481 0
50478 -50482 0
-50478 50479 50480 50481 50482 0
50483 -50484 0
50483 -50485 0
-50483 50484 50485 0
50486 -50487 0
50486 -50488 0
50486 -50489 0
50486 -50490 0
-50486 50487 50488 50489 50490 0
50491 -50492 0
50491 -50493 0
50491 -50494 0
-50491 50492 50493 50494 0
50495 -50496 0
50495 -50497 0
50495 -50498 0
-50495 50496 50497 50498 0
50499 -50500 0
50499 -50501 0
-50499 50500 50501 0
50502 -50503 0
50502 -50504 0
50502 -50505 0
50502 -50506 0
-50502 50503 50504 50505 50506 0
50507 -50508 0
50507 -50509 0
50507 -50510 0
-50507 50508 50509 50510 0
50511 -50512 0
50511 -50513 0
-50511 50512 50513 0
50514 -50515 0
50514 -50516 0
-50514 50515 50516 0
50517 -50518 0
50517 -50519 0
50517 -50520 0
-50517 50518 50519 50520 0
50521 -50522 0
50521 -50523 0
50521 -50524 0
-50521 50522 50523 50524 0
50525 -50526 0
50525 -50527 0
-50525 50526 50527 0
50528 -50529 0
50528 -50530 0
50528 -50531 0
-50528 50529 50530 50531 0
50532 -50533 0
50532 -50534 0
50532 -50535 0
50532 -50536 0
-50532 50533 50534 50535 50536 0
50537 -50538 0
50537 -50539 0
50537 -50540 0
50537 -50541 0
-50537 50538 50539 50540 50541 0
50542 -50543 0
50542 -50544 0
50542 -50545 0
50542 -50546 0
-50542 50543 50544 50545 50546 0
50547 -50548 0
50547 -50549 0
-50547 50548 50549 0
50550 -50551 0
50550 -50552 0
50550 -50553 0
-50550 50551 50552 50553 0
50554 -50555 0
50554 -50556 0
-50554 50555 50556 0
50557 -50558 0
50557 -50559 0
-50557 50558 50559 0
50560 -50561 0
50560 -50562 0
50560 -50563 0
-50560 50561 50562 50563 0
50564 50565 0
-50564 -50565 0
50566 50567 0
-50566 -50567 0
50568 50569 0
-50568 -50569 0
50570 50571 0
-50570 -50571 0
50572 50573 0
-50572 -50573 0
50574 50575 0
-50574 -50575 0
50576 50577 0
-50576 -50577 0
50578 50579 0
-50578 -50579 0
50580 50581 0
-50580 -50581 0
50582 50583 0
-50582 -50583 0
50584 50585 0
-50584 -50585 0
50586 50587 0
-50586 -50587 0
50588 50589 0
-50588 -50589 0
50590 50591 0
-50590 -50591 0
50592 50593 0
-50592 -50593 0
50594 50595 0
-50594 -50595 0
50596 50597 0
-50596 -50597 0
50598 50599 0
-50598 -50599 0
50600 50601 0
-50600 -50601 0
50564 0
-50566 0