p cnf 900 800
-123 0
-109 0
-127 0
120 106 0
-120 -106 0
-115 120 0
-115 109 0
115 -120 -109 0
118 -130 0
118 -115 0
-118 130 115 0
117 -114 0
117 -115 0
-117 114 115 0
124 117 0
124 118 0
-124 -117 -118 0
-132 -120 0
-132 -134 0
132 120 134 0
-134 -123 0
-134 -124 0
134 123 124 0
-130 -126 0
-130 -127 0
130 126 127 0
-136 -129 0
-136 -130 0
136 129 130 0
-132 155 0
132 -155 0
-134 141 0
134 -141 0
-136 159 0
136 -159 0
152 138 0
-152 -138 0
-147 152 0
-147 141 0
147 -152 -141 0
150 -162 0
150 -147 0
-150 162 147 0
149 -146 0
149 -147 0
-149 146 147 0
156 149 0
156 150 0
-156 -149 -150 0
-164 -152 0
-164 -166 0
164 152 166 0
-166 -155 0
-166 -156 0
166 155 156 0
-162 -158 0
-162 -159 0
162 158 159 0
-168 -161 0
-168 -162 0
168 161 162 0
-164 187 0
164 -187 0
-166 173 0
166 -173 0
-168 191 0
168 -191 0
184 170 0
-184 -170 0
-179 184 0
-179 173 0
179 -184 -173 0
182 -194 0
182 -179 0
-182 194 179 0
181 -178 0
181 -179 0
-181 178 179 0
188 181 0
188 182 0
-188 -181 -182 0
-196 -184 0
-196 -198 0
196 184 198 0
-198 -187 0
-198 -188 0
198 187 188 0
-194 -190 0
-194 -191 0
194 190 191 0
-200 -193 0
-200 -194 0
200 193 194 0
-196 219 0
196 -219 0
-198 205 0
198 -205 0
-200 223 0
200 -223 0
216 202 0
-216 -202 0
-211 216 0
-211 205 0
211 -216 -205 0
214 -226 0
214 -211 0
-214 226 211 0
213 -210 0
213 -211 0
-213 210 211 0
220 213 0
220 214 0
-220 -213 -214 0
-228 -216 0
-228 -230 0
228 216 230 0
-230 -219 0
-230 -220 0
230 219 220 0
-226 -222 0
-226 -223 0
226 222 223 0
-232 -225 0
-232 -226 0
232 225 226 0
-228 251 0
228 -251 0
-230 237 0
230 -237 0
-232 255 0
232 -255 0
248 234 0
-248 -234 0
-243 248 0
-243 237 0
243 -248 -237 0
246 -258 0
246 -243 0
-246 258 243 0
245 -242 0
245 -243 0
-245 242 243 0
252 245 0
252 246 0
-252 -245 -246 0
-260 -248 0
-260 -262 0
260 248 262 0
-262 -251 0
-262 -252 0
262 251 252 0
-258 -254 0
-258 -255 0
258 254 255 0
-264 -257 0
-264 -258 0
264 257 258 0
-260 283 0
260 -283 0
-262 269 0
262 -269 0
-264 287 0
264 -287 0
280 266 0
-280 -266 0
-275 280 0
-275 269 0
275 -280 -269 0
278 -290 0
278 -275 0
-278 290 275 0
277 -274 0
277 -275 0
-277 274 275 0
284 277 0
284 278 0
-284 -277 -278 0
-292 -280 0
-292 -294 0
292 280 294 0
-294 -283 0
-294 -284 0
294 283 284 0
-290 -286 0
-290 -287 0
290 286 287 0
-296 -289 0
-296 -290 0
296 289 290 0
-292 315 0
292 -315 0
-294 301 0
294 -301 0
-296 319 0
296 -319 0
312 298 0
-312 -298 0
-307 312 0
-307 301 0
307 -312 -301 0
310 -322 0
310 -307 0
-310 322 307 0
309 -306 0
309 -307 0
-309 306 307 0
316 309 0
316 310 0
-316 -309 -310 0
-324 -312 0
-324 -326 0
324 312 326 0
-326 -315 0
-326 -316 0
326 315 316 0
-322 -318 0
-322 -319 0
322 318 319 0
-328 -321 0
-328 -322 0
328 321 322 0
-324 347 0
324 -347 0
-326 333 0
326 -333 0
-328 351 0
328 -351 0
344 330 0
-344 -330 0
-339 344 0
-339 333 0
339 -344 -333 0
342 -354 0
342 -339 0
-342 354 339 0
341 -338 0
341 -339 0
-341 338 339 0
348 341 0
348 342 0
-348 -341 -342 0
-356 -344 0
-356 -358 0
356 344 358 0
-358 -347 0
-358 -348 0
358 347 348 0
-354 -350 0
-354 -351 0
354 350 351 0
-360 -353 0
-360 -354 0
360 353 354 0
-356 379 0
356 -379 0
-358 365 0
358 -365 0
-360 383 0
360 -383 0
376 362 0
-376 -362 0
-371 376 0
-371 365 0
371 -376 -365 0
374 -386 0
374 -371 0
-374 386 371 0
373 -370 0
373 -371 0
-373 370 371 0
380 373 0
380 374 0
-380 -373 -374 0
-388 -376 0
-388 -390 0
388 376 390 0
-390 -379 0
-390 -380 0
390 379 380 0
-386 -382 0
-386 -383 0
386 382 383 0
-392 -385 0
-392 -386 0
392 385 386 0
-388 411 0
388 -411 0
-390 397 0
390 -397 0
-392 415 0
392 -415 0
408 394 0
-408 -394 0
-403 408 0
-403 397 0
403 -408 -397 0
406 -418 0
406 -403 0
-406 418 403 0
405 -402 0
405 -403 0
-405 402 403 0
412 405 0
412 406 0
-412 -405 -406 0
-420 -408 0
-420 -422 0
420 408 422 0
-422 -411 0
-422 -412 0
422 411 412 0
-418 -414 0
-418 -415 0
418 414 415 0
-424 -417 0
-424 -418 0
424 417 418 0
-420 443 0
420 -443 0
-422 429 0
422 -429 0
-424 447 0
424 -447 0
440 426 0
-440 -426 0
-435 440 0
-435 429 0
435 -440 -429 0
438 -450 0
438 -435 0
-438 450 435 0
437 -434 0
437 -435 0
-437 434 435 0
444 437 0
444 438 0
-444 -437 -438 0
-452 -440 0
-452 -454 0
452 440 454 0
-454 -443 0
-454 -444 0
454 443 444 0
-450 -446 0
-450 -447 0
450 446 447 0
-456 -449 0
-456 -450 0
456 449 450 0
-452 475 0
452 -475 0
-454 461 0
454 -461 0
-456 479 0
456 -479 0
472 458 0
-472 -458 0
-467 472 0
-467 461 0
467 -472 -461 0
470 -482 0
470 -467 0
-470 482 467 0
469 -466 0
469 -467 0
-469 466 467 0
476 469 0
476 470 0
-476 -469 -470 0
-484 -472 0
-484 -486 0
484 472 486 0
-486 -475 0
-486 -476 0
486 475 476 0
-482 -478 0
-482 -479 0
482 478 479 0
-488 -481 0
-488 -482 0
488 481 482 0
-484 507 0
484 -507 0
-486 493 0
486 -493 0
-488 511 0
488 -511 0
504 490 0
-504 -490 0
-499 504 0
-499 493 0
499 -504 -493 0
502 -514 0
502 -499 0
-502 514 499 0
501 -498 0
501 -499 0
-501 498 499 0
508 501 0
508 502 0
-508 -501 -502 0
-516 -504 0
-516 -518 0
516 504 518 0
-518 -507 0
-518 -508 0
518 507 508 0
-514 -510 0
-514 -511 0
514 510 511 0
-520 -513 0
-520 -514 0
520 513 514 0
-516 539 0
516 -539 0
-518 525 0
518 -525 0
-520 543 0
520 -543 0
536 522 0
-536 -522 0
-531 536 0
-531 525 0
531 -536 -525 0
534 -546 0
534 -531 0
-534 546 531 0
533 -530 0
533 -531 0
-533 530 531 0
540 533 0
540 534 0
-540 -533 -534 0
-548 -536 0
-548 -550 0
548 536 550 0
-550 -539 0
-550 -540 0
550 539 540 0
-546 -542 0
-546 -543 0
546 542 543 0
-552 -545 0
-552 -546 0
552 545 546 0
-548 571 0
548 -571 0
-550 557 0
550 -557 0
-552 575 0
552 -575 0
568 554 0
-568 -554 0
-563 568 0
-563 557 0
563 -568 -557 0
566 -578 0
566 -563 0
-566 578 563 0
565 -562 0
565 -563 0
-565 562 563 0
572 565 0
572 566 0
-572 -565 -566 0
-580 -568 0
-580 -582 0
580 568 582 0
-582 -571 0
-582 -572 0
582 571 572 0
-578 -574 0
-578 -575 0
578 574 575 0
-584 -577 0
-584 -578 0
584 577 578 0
-580 603 0
580 -603 0
-582 589 0
582 -589 0
-584 607 0
584 -607 0
600 586 0
-600 -586 0
-595 600 0
-595 589 0
595 -600 -589 0
598 -610 0
598 -595 0
-598 610 595 0
597 -594 0
597 -595 0
-597 594 595 0
604 597 0
604 598 0
-604 -597 -598 0
-612 -600 0
-612 -614 0
612 600 614 0
-614 -603 0
-614 -604 0
614 603 604 0
-610 -606 0
-610 -607 0
610 606 607 0
-616 -609 0
-616 -610 0
616 609 610 0
-612 635 0
612 -635 0
-614 621 0
614 -621 0
-616 639 0
616 -639 0
632 618 0
-632 -618 0
-627 632 0
-627 621 0
627 -632 -621 0
630 -642 0
630 -627 0
-630 642 627 0
629 -626 0
629 -627 0
-629 626 627 0
636 629 0
636 630 0
-636 -629 -630 0
-644 -632 0
-644 -646 0
644 632 646 0
-646 -635 0
-646 -636 0
646 635 636 0
-642 -638 0
-642 -639 0
642 638 639 0
-648 -641 0
-648 -642 0
648 641 642 0
-644 667 0
644 -667 0
-646 653 0
646 -653 0
-648 671 0
648 -671 0
664 650 0
-664 -650 0
-659 664 0
-659 653 0
659 -664 -653 0
662 -674 0
662 -659 0
-662 674 659 0
661 -658 0
661 -659 0
-661 658 659 0
668 661 0
668 662 0
-668 -661 -662 0
-676 -664 0
-676 -678 0
676 664 678 0
-678 -667 0
-678 -668 0
678 667 668 0
-674 -670 0
-674 -671 0
674 670 671 0
-680 -673 0
-680 -674 0
680 673 674 0
-676 699 0
676 -699 0
-678 685 0
678 -685 0
-680 703 0
680 -703 0
696 682 0
-696 -682 0
-691 696 0
-691 685 0
691 -696 -685 0
694 -706 0
694 -691 0
-694 706 691 0
693 -690 0
693 -691 0
-693 690 691 0
700 693 0
700 694 0
-700 -693 -694 0
-708 -696 0
-708 -710 0
708 696 710 0
-710 -699 0
-710 -700 0
710 699 700 0
-706 -702 0
-706 -703 0
706 702 703 0
-712 -705 0
-712 -706 0
712 705 706 0
-708 731 0
708 -731 0
-710 717 0
710 -717 0
-712 735 0
712 -735 0
728 714 0
-728 -714 0
-723 728 0
-723 717 0
723 -728 -717 0
726 -738 0
726 -723 0
-726 738 723 0
725 -722 0
725 -723 0
-725 722 723 0
732 725 0
732 726 0
-732 -725 -726 0
-740 -728 0
-740 -742 0
740 728 742 0
-742 -731 0
-742 -732 0
742 731 732 0
-738 -734 0
-738 -735 0
738 734 735 0
-744 -737 0
-744 -738 0
744 737 738 0
-740 763 0
740 -763 0
-742 749 0
742 -749 0
-744 767 0
744 -767 0
760 746 0
-760 -746 0
-755 760 0
-755 749 0
755 -760 -749 0
758 -770 0
758 -755 0
-758 770 755 0
757 -754 0
757 -755 0
-757 754 755 0
764 757 0
764 758 0
-764 -757 -758 0
-772 -760 0
-772 -774 0
772 760 774 0
-774 -763 0
-774 -764 0
774 763 764 0
-770 -766 0
-770 -767 0
770 766 767 0
-776 -769 0
-776 -770 0
776 769 770 0
-772 795 0
772 -795 0
-774 781 0
774 -781 0
-776 799 0
776 -799 0
792 778 0
-792 -778 0
-787 792 0
-787 781 0
787 -792 -781 0
790 -802 0
790 -787 0
-790 802 787 0
789 -786 0
789 -787 0
-789 786 787 0
796 789 0
796 790 0
-796 -789 -790 0
-804 -792 0
-804 -806 0
804 792 806 0
-806 -795 0
-806 -796 0
806 795 796 0
-802 -798 0
-802 -799 0
802 798 799 0
-808 -801 0
-808 -802 0
808 801 802 0
-804 827 0
804 -827 0
-806 813 0
806 -813 0
-808 831 0
808 -831 0
824 810 0
-824 -810 0
-819 824 0
-819 813 0
819 -824 -813 0
822 -834 0
822 -819 0
-822 834 819 0
821 -818 0
821 -819 0
-821 818 819 0
828 821 0
828 822 0
-828 -821 -822 0
-836 -824 0
-836 -838 0
836 824 838 0
-838 -827 0
-838 -828 0
838 827 828 0
-834 -830 0
-834 -831 0
834 830 831 0
-840 -833 0
-840 -834 0
840 833 834 0
-836 859 0
836 -859 0
-838 845 0
838 -845 0
-840 863 0
840 -863 0
856 842 0
-856 -842 0
-851 856 0
-851 845 0
851 -856 -845 0
854 -866 0
854 -851 0
-854 866 851 0
853 -850 0
853 -851 0
-853 850 851 0
860 853 0
860 854 0
-860 -853 -854 0
-868 -856 0
-868 -870 0
868 856 870 0
-870 -859 0
-870 -860 0
870 859 860 0
-866 -862 0
-866 -863 0
866 862 863 0
-872 -865 0
-872 -866 0
872 865 866 0
-868 891 0
868 -891 0
-870 877 0
870 -877 0
-872 895 0
872 -895 0
888 874 0
-888 -874 0
-883 888 0
-883 877 0
883 -888 -877 0
886 -898 0
886 -883 0
-886 898 883 0
885 -882 0
885 -883 0
-885 882 883 0
892 885 0
892 886 0
-892 -885 -886 0
-887 -888 0
-887 -900 0
887 888 900 0
-900 -891 0
-900 -892 0
900 891 892 0
-898 -894 0
-898 -895 0
898 894 895 0
-896 -897 0
-896 -898 0
896 897 898 0
899 900 0
-899 -900 0
899 0