p cnf 12422 12342
-457 0
-285 0
-162 0
-108 0
-110 0
-160 0
-156 0
-154 0
-256 0
-317 0
-426 0
-454 0
-428 0
-305 0
-434 0
-435 0
-436 0
-290 0
-430 0
-431 0
-432 0
302 457 0
-302 -457 0
299 285 0
-299 -285 0
176 108 0
-176 -108 0
174 110 0
-174 -110 0
513 317 0
-513 -317 0
503 426 0
-503 -426 0
508 454 0
-508 -454 0
516 428 0
-516 -428 0
474 305 0
-474 -305 0
464 434 0
-464 -434 0
469 435 0
-469 -435 0
477 436 0
-477 -436 0
439 290 0
-439 -290 0
441 430 0
-441 -430 0
445 431 0
-445 -431 0
446 432 0
-446 -432 0
164 136 0
-164 -136 0
166 138 0
-166 -138 0
452 285 0
-452 -285 0
168 142 0
-168 -142 0
485 428 0
-485 -428 0
378 454 0
-378 -454 0
453 426 0
-453 -426 0
332 317 0
-332 -317 0
170 432 0
-170 -432 0
153 154 0
-153 -154 0
155 156 0
-155 -156 0
449 256 0
-449 -256 0
159 160 0
-159 -160 0
161 162 0
-161 -162 0
261 164 0
-261 -164 0
552 166 0
-552 -166 0
281 168 0
-281 -168 0
460 170 0
-460 -170 0
339 446 0
-339 -446 0
173 174 0
-173 -174 0
175 176 0
-175 -176 0
298 261 0
-298 -261 0
236 552 0
-236 -552 0
230 552 0
-230 -552 0
361 552 0
-361 -552 0
301 281 0
-301 -281 0
393 476 0
-393 -476 0
491 288 0
-491 -288 0
515 532 0
-515 -532 0
231 373 0
-231 -373 0
237 380 0
-237 -380 0
206 383 0
-206 -383 0
242 383 0
-242 -383 0
519 303 0
-519 -303 0
414 515 0
-414 -515 0
572 206 0
-572 -206 0
541 315 0
-541 -315 0
-488 330 0
-488 256 0
488 -330 -256 0
-479 256 0
-479 361 0
479 -256 -361 0
-480 426 0
-480 361 0
480 -426 -361 0
-481 428 0
-481 454 0
-481 361 0
481 -428 -454 -361 0
-482 485 0
-482 317 0
-482 361 0
482 -485 -317 -361 0
-538 383 0
-538 464 0
538 -383 -464 0
-558 230 0
-558 231 0
558 -230 -231 0
-535 395 0
-535 464 0
535 -395 -464 0
-556 236 0
-556 237 0
556 -236 -237 0
-534 242 0
-534 395 0
534 -242 -395 0
-537 242 0
-537 341 0
537 -242 -341 0
362 -426 0
362 -317 0
362 -256 0
-362 426 317 256 0
359 -428 0
359 -454 0
359 -452 0
-359 428 454 452 0
363 -485 0
363 -454 0
363 -426 0
363 -256 0
-363 485 454 426 256 0
358 -332 0
358 -452 0
-358 332 452 0
375 -261 0
375 -285 0
-375 261 285 0
342 -453 0
342 -552 0
-342 453 552 0
343 -428 0
343 -454 0
343 -332 0
343 -552 0
-343 428 454 332 552 0
345 -426 0
345 -332 0
345 -552 0
-345 426 332 552 0
346 -453 0
346 -317 0
346 -452 0
346 -552 0
-346 453 317 452 552 0
382 -281 0
382 -457 0
-382 281 457 0
366 -327 0
366 -285 0
366 -317 0
366 -453 0
-366 327 285 317 453 0
288 -440 0
288 -290 0
-288 440 290 0
368 -444 0
368 -430 0
-368 444 430 0
371 -339 0
371 -431 0
-371 339 431 0
374 -298 0
374 -299 0
-374 298 299 0
381 -301 0
381 -302 0
-381 301 302 0
303 -462 0
303 -305 0
-303 462 305 0
399 -467 0
399 -434 0
-399 467 434 0
402 -475 0
402 -435 0
-402 475 435 0
405 -393 0
405 -436 0
-405 393 436 0
315 -501 0
315 -317 0
-315 501 317 0
417 -506 0
417 -426 0
-417 506 426 0
420 -514 0
420 -454 0
-420 514 454 0
423 -414 0
423 -428 0
-423 414 428 0
327 378 0
327 428 0
-327 -378 -428 0
330 452 0
330 332 0
330 378 0
330 428 0
-330 -452 -332 -378 -428 0
369 444 0
369 430 0
-369 -444 -430 0
372 339 0
372 431 0
-372 -339 -431 0
341 342 0
341 343 0
-341 -342 -343 0
377 345 0
377 346 0
-377 -345 -346 0
385 450 0
385 485 0
-385 -450 -485 0
484 361 0
484 449 0
484 453 0
484 454 0
-484 -361 -449 -453 -454 0
487 361 0
487 426 0
487 358 0
487 359 0
-487 -361 -426 -358 -359 0
566 361 0
566 362 0
566 363 0
-566 -361 -362 -363 0
396 447 0
396 366 0
-396 -447 -366 0
495 368 0
495 369 0
-495 -368 -369 0
499 371 0
499 372 0
-499 -371 -372 0
373 374 0
373 375 0
-373 -374 -375 0
397 377 0
397 378 0
397 485 0
-397 -377 -378 -485 0
380 381 0
380 382 0
-380 -381 -382 0
383 396 0
383 385 0
-383 -396 -385 0
400 467 0
400 434 0
-400 -467 -434 0
403 475 0
403 435 0
-403 -475 -435 0
406 393 0
406 436 0
-406 -393 -436 0
395 396 0
395 397 0
-395 -396 -397 0
523 399 0
523 400 0
-523 -399 -400 0
527 402 0
527 403 0
-527 -402 -403 0
531 405 0
531 406 0
-531 -405 -406 0
418 506 0
418 426 0
-418 -506 -426 0
421 514 0
421 454 0
-421 -514 -454 0
424 414 0
424 428 0
-424 -414 -428 0
545 417 0
545 418 0
-545 -417 -418 0
549 420 0
549 421 0
-549 -420 -421 0
553 423 0
553 424 0
-553 -423 -424 0
-511 -426 0
-511 -454 0
-511 -428 0
511 426 454 428 0
-438 -430 0
-438 -431 0
-438 -432 0
438 430 431 432 0
-472 -434 0
-472 -435 0
-472 -436 0
472 434 435 436 0
-500 -438 0
-500 -439 0
500 438 439 0
-440 -441 0
-440 -445 0
-440 -446 0
440 441 445 446 0
-444 -445 0
-444 -446 0
444 445 446 0
-447 -552 0
-447 -449 0
447 552 449 0
-450 -552 0
-450 -452 0
-450 -453 0
-450 -454 0
450 552 452 453 454 0
-476 -500 0
-476 -457 0
476 500 457 0
-596 -552 0
-596 -460 0
-596 -500 0
596 552 460 500 0
-462 -476 0
-462 -464 0
-462 -469 0
-462 -477 0
462 476 464 469 477 0
-467 -476 0
-467 -469 0
-467 -477 0
467 476 469 477 0
-532 -472 0
-532 -476 0
-532 -474 0
532 472 476 474 0
-475 -476 0
-475 -477 0
475 476 477 0
-568 -479 0
-568 -480 0
-568 -481 0
-568 -482 0
568 479 480 481 482 0
-560 -484 0
-560 -485 0
560 484 485 0
-570 -487 0
-570 -488 0
570 487 488 0
-590 -552 0
-590 -491 0
-590 -500 0
590 552 491 500 0
-592 -552 0
-592 -495 0
-592 -500 0
592 552 495 500 0
-594 -552 0
-594 -499 0
-594 -500 0
594 552 499 500 0
-501 -515 0
-501 -503 0
-501 -508 0
-501 -516 0
501 515 503 508 516 0
-506 -515 0
-506 -508 0
-506 -516 0
506 515 508 516 0
-554 -511 0
-554 -515 0
-554 -513 0
554 511 515 513 0
-514 -515 0
-514 -516 0
514 515 516 0
-582 -552 0
-582 -519 0
-582 -532 0
582 552 519 532 0
-584 -552 0
-584 -523 0
-584 -532 0
584 552 523 532 0
-586 -552 0
-586 -527 0
-586 -532 0
586 552 527 532 0
-588 -552 0
-588 -531 0
-588 -532 0
588 552 531 532 0
-562 -534 0
-562 -535 0
562 534 535 0
-564 -537 0
-564 -538 0
564 537 538 0
-574 -552 0
-574 -541 0
-574 -554 0
574 552 541 554 0
-576 -552 0
-576 -545 0
-576 -554 0
576 552 545 554 0
-578 -552 0
-578 -549 0
-578 -554 0
578 552 549 554 0
-580 -552 0
-580 -553 0
-580 -554 0
580 552 553 554 0
-556 951 0
556 -951 0
-558 779 0
558 -779 0
-560 656 0
560 -656 0
-562 602 0
562 -602 0
-564 604 0
564 -604 0
-566 654 0
566 -654 0
-568 650 0
568 -650 0
-570 648 0
570 -648 0
-572 750 0
572 -750 0
-574 811 0
574 -811 0
-576 920 0
576 -920 0
-578 948 0
578 -948 0
-580 922 0
580 -922 0
-582 799 0
582 -799 0
-584 928 0
584 -928 0
-586 929 0
586 -929 0
-588 930 0
588 -930 0
-590 784 0
590 -784 0
-592 924 0
592 -924 0
-594 925 0
594 -925 0
-596 926 0
596 -926 0
796 951 0
-796 -951 0
793 779 0
-793 -779 0
670 602 0
-670 -602 0
668 604 0
-668 -604 0
1007 811 0
-1007 -811 0
997 920 0
-997 -920 0
1002 948 0
-1002 -948 0
1010 922 0
-1010 -922 0
968 799 0
-968 -799 0
958 928 0
-958 -928 0
963 929 0
-963 -929 0
971 930 0
-971 -930 0
933 784 0
-933 -784 0
935 924 0
-935 -924 0
939 925 0
-939 -925 0
940 926 0
-940 -926 0
658 630 0
-658 -630 0
660 632 0
-660 -632 0
946 779 0
-946 -779 0
662 636 0
-662 -636 0
979 922 0
-979 -922 0
872 948 0
-872 -948 0
947 920 0
-947 -920 0
826 811 0
-826 -811 0
664 926 0
-664 -926 0
647 648 0
-647 -648 0
649 650 0
-649 -650 0
943 750 0
-943 -750 0
653 654 0
-653 -654 0
655 656 0
-655 -656 0
755 658 0
-755 -658 0
1046 660 0
-1046 -660 0
775 662 0
-775 -662 0
954 664 0
-954 -664 0
833 940 0
-833 -940 0
667 668 0
-667 -668 0
669 670 0
-669 -670 0
792 755 0
-792 -755 0
730 1046 0
-730 -1046 0
724 1046 0
-724 -1046 0
855 1046 0
-855 -1046 0
795 775 0
-795 -775 0
887 970 0
-887 -970 0
985 782 0
-985 -782 0
1009 1026 0
-1009 -1026 0
725 867 0
-725 -867 0
731 874 0
-731 -874 0
700 877 0
-700 -877 0
736 877 0
-736 -877 0
1013 797 0
-1013 -797 0
908 1009 0
-908 -1009 0
1066 700 0
-1066 -700 0
1035 809 0
-1035 -809 0
-982 824 0
-982 750 0
982 -824 -750 0
-973 750 0
-973 855 0
973 -750 -855 0
-974 920 0
-974 855 0
974 -920 -855 0
-975 922 0
-975 948 0
-975 855 0
975 -922 -948 -855 0
-976 979 0
-976 811 0
-976 855 0
976 -979 -811 -855 0
-1032 877 0
-1032 958 0
1032 -877 -958 0
-1052 724 0
-1052 725 0
1052 -724 -725 0
-1029 889 0
-1029 958 0
1029 -889 -958 0
-1050 730 0
-1050 731 0
1050 -730 -731 0
-1028 736 0
-1028 889 0
1028 -736 -889 0
-1031 736 0
-1031 835 0
1031 -736 -835 0
856 -920 0
856 -811 0
856 -750 0
-856 920 811 750 0
853 -922 0
853 -948 0
853 -946 0
-853 922 948 946 0
857 -979 0
857 -948 0
857 -920 0
857 -750 0
-857 979 948 920 750 0
852 -826 0
852 -946 0
-852 826 946 0
869 -755 0
869 -779 0
-869 755 779 0
836 -947 0
836 -1046 0
-836 947 1046 0
837 -922 0
837 -948 0
837 -826 0
837 -1046 0
-837 922 948 826 1046 0
839 -920 0
839 -826 0
839 -1046 0
-839 920 826 1046 0
840 -947 0
840 -811 0
840 -946 0
840 -1046 0
-840 947 811 946 1046 0
876 -775 0
876 -951 0
-876 775 951 0
860 -821 0
860 -779 0
860 -811 0
860 -947 0
-860 821 779 811 947 0
782 -934 0
782 -784 0
-782 934 784 0
862 -938 0
862 -924 0
-862 938 924 0
865 -833 0
865 -925 0
-865 833 925 0
868 -792 0
868 -793 0
-868 792 793 0
875 -795 0
875 -796 0
-875 795 796 0
797 -956 0
797 -799 0
-797 956 799 0
893 -961 0
893 -928 0
-893 961 928 0
896 -969 0
896 -929 0
-896 969 929 0
899 -887 0
899 -930 0
-899 887 930 0
809 -995 0
809 -811 0
-809 995 811 0
911 -1000 0
911 -920 0
-911 1000 920 0
914 -1008 0
914 -948 0
-914 1008 948 0
917 -908 0
917 -922 0
-917 908 922 0
821 872 0
821 922 0
-821 -872 -922 0
824 946 0
824 826 0
824 872 0
824 922 0
-824 -946 -826 -872 -922 0
863 938 0
863 924 0
-863 -938 -924 0
866 833 0
866 925 0
-866 -833 -925 0
835 836 0
835 837 0
-835 -836 -837 0
871 839 0
871 840 0
-871 -839 -840 0
879 944 0
879 979 0
-879 -944 -979 0
978 855 0
978 943 0
978 947 0
978 948 0
-978 -855 -943 -947 -948 0
981 855 0
981 920 0
981 852 0
981 853 0
-981 -855 -920 -852 -853 0
1060 855 0
1060 856 0
1060 857 0
-1060 -855 -856 -857 0
890 941 0
890 860 0
-890 -941 -860 0
989 862 0
989 863 0
-989 -862 -863 0
993 865 0
993 866 0
-993 -865 -866 0
867 868 0
867 869 0
-867 -868 -869 0
891 871 0
891 872 0
891 979 0
-891 -871 -872 -979 0
874 875 0
874 876 0
-874 -875 -876 0
877 890 0
877 879 0
-877 -890 -879 0
894 961 0
894 928 0
-894 -961 -928 0
897 969 0
897 929 0
-897 -969 -929 0
900 887 0
900 930 0
-900 -887 -930 0
889 890 0
889 891 0
-889 -890 -891 0
1017 893 0
1017 894 0
-1017 -893 -894 0
1021 896 0
1021 897 0
-1021 -896 -897 0
1025 899 0
1025 900 0
-1025 -899 -900 0
912 1000 0
912 920 0
-912 -1000 -920 0
915 1008 0
915 948 0
-915 -1008 -948 0
918 908 0
918 922 0
-918 -908 -922 0
1039 911 0
1039 912 0
-1039 -911 -912 0
1043 914 0
1043 915 0
-1043 -914 -915 0
1047 917 0
1047 918 0
-1047 -917 -918 0
-1005 -920 0
-1005 -948 0
-1005 -922 0
1005 920 948 922 0
-932 -924 0
-932 -925 0
-932 -926 0
932 924 925 926 0
-966 -928 0
-966 -929 0
-966 -930 0
966 928 929 930 0
-994 -932 0
-994 -933 0
994 932 933 0
-934 -935 0
-934 -939 0
-934 -940 0
934 935 939 940 0
-938 -939 0
-938 -940 0
938 939 940 0
-941 -1046 0
-941 -943 0
941 1046 943 0
-944 -1046 0
-944 -946 0
-944 -947 0
-944 -948 0
944 1046 946 947 948 0
-970 -994 0
-970 -951 0
970 994 951 0
-1090 -1046 0
-1090 -954 0
-1090 -994 0
1090 1046 954 994 0
-956 -970 0
-956 -958 0
-956 -963 0
-956 -971 0
956 970 958 963 971 0
-961 -970 0
-961 -963 0
-961 -971 0
961 970 963 971 0
-1026 -966 0
-1026 -970 0
-1026 -968 0
1026 966 970 968 0
-969 -970 0
-969 -971 0
969 970 971 0
-1062 -973 0
-1062 -974 0
-1062 -975 0
-1062 -976 0
1062 973 974 975 976 0
-1054 -978 0
-1054 -979 0
1054 978 979 0
-1064 -981 0
-1064 -982 0
1064 981 982 0
-1084 -1046 0
-1084 -985 0
-1084 -994 0
1084 1046 985 994 0
-1086 -1046 0
-1086 -989 0
-1086 -994 0
1086 1046 989 994 0
-1088 -1046 0
-1088 -993 0
-1088 -994 0
1088 1046 993 994 0
-995 -1009 0
-995 -997 0
-995 -1002 0
-995 -1010 0
995 1009 997 1002 1010 0
-1000 -1009 0
-1000 -1002 0
-1000 -1010 0
1000 1009 1002 1010 0
-1048 -1005 0
-1048 -1009 0
-1048 -1007 0
1048 1005 1009 1007 0
-1008 -1009 0
-1008 -1010 0
1008 1009 1010 0
-1076 -1046 0
-1076 -1013 0
-1076 -1026 0
1076 1046 1013 1026 0
-1078 -1046 0
-1078 -1017 0
-1078 -1026 0
1078 1046 1017 1026 0
-1080 -1046 0
-1080 -1021 0
-1080 -1026 0
1080 1046 1021 1026 0
-1082 -1046 0
-1082 -1025 0
-1082 -1026 0
1082 1046 1025 1026 0
-1056 -1028 0
-1056 -1029 0
1056 1028 1029 0
-1058 -1031 0
-1058 -1032 0
1058 1031 1032 0
-1068 -1046 0
-1068 -1035 0
-1068 -1048 0
1068 1046 1035 1048 0
-1070 -1046 0
-1070 -1039 0
-1070 -1048 0
1070 1046 1039 1048 0
-1072 -1046 0
-1072 -1043 0
-1072 -1048 0
1072 1046 1043 1048 0
-1074 -1046 0
-1074 -1047 0
-1074 -1048 0
1074 1046 1047 1048 0
-1050 1445 0
1050 -1445 0
-1052 1273 0
1052 -1273 0
-1054 1150 0
1054 -1150 0
-1056 1096 0
1056 -1096 0
-1058 1098 0
1058 -1098 0
-1060 1148 0
1060 -1148 0
-1062 1144 0
1062 -1144 0
-1064 1142 0
1064 -1142 0
-1066 1244 0
1066 -1244 0
-1068 1305 0
1068 -1305 0
-1070 1414 0
1070 -1414 0
-1072 1442 0
1072 -1442 0
-1074 1416 0
1074 -1416 0
-1076 1293 0
1076 -1293 0
-1078 1422 0
1078 -1422 0
-1080 1423 0
1080 -1423 0
-1082 1424 0
1082 -1424 0
-1084 1278 0
1084 -1278 0
-1086 1418 0
1086 -1418 0
-1088 1419 0
1088 -1419 0
-1090 1420 0
1090 -1420 0
1290 1445 0
-1290 -1445 0
1287 1273 0
-1287 -1273 0
1164 1096 0
-1164 -1096 0
1162 1098 0
-1162 -1098 0
1501 1305 0
-1501 -1305 0
1491 1414 0
-1491 -1414 0
1496 1442 0
-1496 -1442 0
1504 1416 0
-1504 -1416 0
1462 1293 0
-1462 -1293 0
1452 1422 0
-1452 -1422 0
1457 1423 0
-1457 -1423 0
1465 1424 0
-1465 -1424 0
1427 1278 0
-1427 -1278 0
1429 1418 0
-1429 -1418 0
1433 1419 0
-1433 -1419 0
1434 1420 0
-1434 -1420 0
1152 1124 0
-1152 -1124 0
1154 1126 0
-1154 -1126 0
1440 1273 0
-1440 -1273 0
1156 1130 0
-1156 -1130 0
1473 1416 0
-1473 -1416 0
1366 1442 0
-1366 -1442 0
1441 1414 0
-1441 -1414 0
1320 1305 0
-1320 -1305 0
1158 1420 0
-1158 -1420 0
1141 1142 0
-1141 -1142 0
1143 1144 0
-1143 -1144 0
1437 1244 0
-1437 -1244 0
1147 1148 0
-1147 -1148 0
1149 1150 0
-1149 -1150 0
1249 1152 0
-1249 -1152 0
1540 1154 0
-1540 -1154 0
1269 1156 0
-1269 -1156 0
1448 1158 0
-1448 -1158 0
1327 1434 0
-1327 -1434 0
1161 1162 0
-1161 -1162 0
1163 1164 0
-1163 -1164 0
1286 1249 0
-1286 -1249 0
1224 1540 0
-1224 -1540 0
1218 1540 0
-1218 -1540 0
1349 1540 0
-1349 -1540 0
1289 1269 0
-1289 -1269 0
1381 1464 0
-1381 -1464 0
1479 1276 0
-1479 -1276 0
1503 1520 0
-1503 -1520 0
1219 1361 0
-1219 -1361 0
1225 1368 0
-1225 -1368 0
1194 1371 0
-1194 -1371 0
1230 1371 0
-1230 -1371 0
1507 1291 0
-1507 -1291 0
1402 1503 0
-1402 -1503 0
1560 1194 0
-1560 -1194 0
1529 1303 0
-1529 -1303 0
-1476 1318 0
-1476 1244 0
1476 -1318 -1244 0
-1467 1244 0
-1467 1349 0
1467 -1244 -1349 0
-1468 1414 0
-1468 1349 0
1468 -1414 -1349 0
-1469 1416 0
-1469 1442 0
-1469 1349 0
1469 -1416 -1442 -1349 0
-1470 1473 0
-1470 1305 0
-1470 1349 0
1470 -1473 -1305 -1349 0
-1526 1371 0
-1526 1452 0
1526 -1371 -1452 0
-1546 1218 0
-1546 1219 0
1546 -1218 -1219 0
-1523 1383 0
-1523 1452 0
1523 -1383 -1452 0
-1544 1224 0
-1544 1225 0
1544 -1224 -1225 0
-1522 1230 0
-1522 1383 0
1522 -1230 -1383 0
-1525 1230 0
-1525 1329 0
1525 -1230 -1329 0
1350 -1414 0
1350 -1305 0
1350 -1244 0
-1350 1414 1305 1244 0
1347 -1416 0
1347 -1442 0
1347 -1440 0
-1347 1416 1442 1440 0
1351 -1473 0
1351 -1442 0
1351 -1414 0
1351 -1244 0
-1351 1473 1442 1414 1244 0
1346 -1320 0
1346 -1440 0
-1346 1320 1440 0
1363 -1249 0
1363 -1273 0
-1363 1249 1273 0
1330 -1441 0
1330 -1540 0
-1330 1441 1540 0
1331 -1416 0
1331 -1442 0
1331 -1320 0
1331 -1540 0
-1331 1416 1442 1320 1540 0
1333 -1414 0
1333 -1320 0
1333 -1540 0
-1333 1414 1320 1540 0
1334 -1441 0
1334 -1305 0
1334 -1440 0
1334 -1540 0
-1334 1441 1305 1440 1540 0
1370 -1269 0
1370 -1445 0
-1370 1269 1445 0
1354 -1315 0
1354 -1273 0
1354 -1305 0
1354 -1441 0
-1354 1315 1273 1305 1441 0
1276 -1428 0
1276 -1278 0
-1276 1428 1278 0
1356 -1432 0
1356 -1418 0
-1356 1432 1418 0
1359 -1327 0
1359 -1419 0
-1359 1327 1419 0
1362 -1286 0
1362 -1287 0
-1362 1286 1287 0
1369 -1289 0
1369 -1290 0
-1369 1289 1290 0
1291 -1450 0
1291 -1293 0
-1291 1450 1293 0
1387 -1455 0
1387 -1422 0
-1387 1455 1422 0
1390 -1463 0
1390 -1423 0
-1390 1463 1423 0
1393 -1381 0
1393 -1424 0
-1393 1381 1424 0
1303 -1489 0
1303 -1305 0
-1303 1489 1305 0
1405 -1494 0
1405 -1414 0
-1405 1494 1414 0
1408 -1502 0
1408 -1442 0
-1408 1502 1442 0
1411 -1402 0
1411 -1416 0
-1411 1402 1416 0
1315 1366 0
1315 1416 0
-1315 -1366 -1416 0
1318 1440 0
1318 1320 0
1318 1366 0
1318 1416 0
-1318 -1440 -1320 -1366 -1416 0
1357 1432 0
1357 1418 0
-1357 -1432 -1418 0
1360 1327 0
1360 1419 0
-1360 -1327 -1419 0
1329 1330 0
1329 1331 0
-1329 -1330 -1331 0
1365 1333 0
1365 1334 0
-1365 -1333 -1334 0
1373 1438 0
1373 1473 0
-1373 -1438 -1473 0
1472 1349 0
1472 1437 0
1472 1441 0
1472 1442 0
-1472 -1349 -1437 -1441 -1442 0
1475 1349 0
1475 1414 0
1475 1346 0
1475 1347 0
-1475 -1349 -1414 -1346 -1347 0
1554 1349 0
1554 1350 0
1554 1351 0
-1554 -1349 -1350 -1351 0
1384 1435 0
1384 1354 0
-1384 -1435 -1354 0
1483 1356 0
1483 1357 0
-1483 -1356 -1357 0
1487 1359 0
1487 1360 0
-1487 -1359 -1360 0
1361 1362 0
1361 1363 0
-1361 -1362 -1363 0
1385 1365 0
1385 1366 0
1385 1473 0
-1385 -1365 -1366 -1473 0
1368 1369 0
1368 1370 0
-1368 -1369 -1370 0
1371 1384 0
1371 1373 0
-1371 -1384 -1373 0
1388 1455 0
1388 1422 0
-1388 -1455 -1422 0
1391 1463 0
1391 1423 0
-1391 -1463 -1423 0
1394 1381 0
1394 1424 0
-1394 -1381 -1424 0
1383 1384 0
1383 1385 0
-1383 -1384 -1385 0
1511 1387 0
1511 1388 0
-1511 -1387 -1388 0
1515 1390 0
1515 1391 0
-1515 -1390 -1391 0
1519 1393 0
1519 1394 0
-1519 -1393 -1394 0
1406 1494 0
1406 1414 0
-1406 -1494 -1414 0
1409 1502 0
1409 1442 0
-1409 -1502 -1442 0
1412 1402 0
1412 1416 0
-1412 -1402 -1416 0
1533 1405 0
1533 1406 0
-1533 -1405 -1406 0
1537 1408 0
1537 1409 0
-1537 -1408 -1409 0
1541 1411 0
1541 1412 0
-1541 -1411 -1412 0
-1499 -1414 0
-1499 -1442 0
-1499 -1416 0
1499 1414 1442 1416 0
-1426 -1418 0
-1426 -1419 0
-1426 -1420 0
1426 1418 1419 1420 0
-1460 -1422 0
-1460 -1423 0
-1460 -1424 0
1460 1422 1423 1424 0
-1488 -1426 0
-1488 -1427 0
1488 1426 1427 0
-1428 -1429 0
-1428 -1433 0
-1428 -1434 0
1428 1429 1433 1434 0
-1432 -1433 0
-1432 -1434 0
1432 1433 1434 0
-1435 -1540 0
-1435 -1437 0
1435 1540 1437 0
-1438 -1540 0
-1438 -1440 0
-1438 -1441 0
-1438 -1442 0
1438 1540 1440 1441 1442 0
-1464 -1488 0
-1464 -1445 0
1464 1488 1445 0
-1584 -1540 0
-1584 -1448 0
-1584 -1488 0
1584 1540 1448 1488 0
-1450 -1464 0
-1450 -1452 0
-1450 -1457 0
-1450 -1465 0
1450 1464 1452 1457 1465 0
-1455 -1464 0
-1455 -1457 0
-1455 -1465 0
1455 1464 1457 1465 0
-1520 -1460 0
-1520 -1464 0
-1520 -1462 0
1520 1460 1464 1462 0
-1463 -1464 0
-1463 -1465 0
1463 1464 1465 0
-1556 -1467 0
-1556 -1468 0
-1556 -1469 0
-1556 -1470 0
1556 1467 1468 1469 1470 0
-1548 -1472 0
-1548 -1473 0
1548 1472 1473 0
-1558 -1475 0
-1558 -1476 0
1558 1475 1476 0
-1578 -1540 0
-1578 -1479 0
-1578 -1488 0
1578 1540 1479 1488 0
-1580 -1540 0
-1580 -1483 0
-1580 -1488 0
1580 1540 1483 1488 0
-1582 -1540 0
-1582 -1487 0
-1582 -1488 0
1582 1540 1487 1488 0
-1489 -1503 0
-1489 -1491 0
-1489 -1496 0
-1489 -1504 0
1489 1503 1491 1496 1504 0
-1494 -1503 0
-1494 -1496 0
-1494 -1504 0
1494 1503 1496 1504 0
-1542 -1499 0
-1542 -1503 0
-1542 -1501 0
1542 1499 1503 1501 0
-1502 -1503 0
-1502 -1504 0
1502 1503 1504 0
-1570 -1540 0
-1570 -1507 0
-1570 -1520 0
1570 1540 1507 1520 0
-1572 -1540 0
-1572 -1511 0
-1572 -1520 0
1572 1540 1511 1520 0
-1574 -1540 0
-1574 -1515 0
-1574 -1520 0
1574 1540 1515 1520 0
-1576 -1540 0
-1576 -1519 0
-1576 -1520 0
1576 1540 1519 1520 0
-1550 -1522 0
-1550 -1523 0
1550 1522 1523 0
-1552 -1525 0
-1552 -1526 0
1552 1525 1526 0
-1562 -1540 0
-1562 -1529 0
-1562 -1542 0
1562 1540 1529 1542 0
-1564 -1540 0
-1564 -1533 0
-1564 -1542 0
1564 1540 1533 1542 0
-1566 -1540 0
-1566 -1537 0
-1566 -1542 0
1566 1540 1537 1542 0
-1568 -1540 0
-1568 -1541 0
-1568 -1542 0
1568 1540 1541 1542 0
-1544 1939 0
1544 -1939 0
-1546 1767 0
1546 -1767 0
-1548 1644 0
1548 -1644 0
-1550 1590 0
1550 -1590 0
-1552 1592 0
1552 -1592 0
-1554 1642 0
1554 -1642 0
-1556 1638 0
1556 -1638 0
-1558 1636 0
1558 -1636 0
-1560 1738 0
1560 -1738 0
-1562 1799 0
1562 -1799 0
-1564 1908 0
1564 -1908 0
-1566 1936 0
1566 -1936 0
-1568 1910 0
1568 -1910 0
-1570 1787 0
1570 -1787 0
-1572 1916 0
1572 -1916 0
-1574 1917 0
1574 -1917 0
-1576 1918 0
1576 -1918 0
-1578 1772 0
1578 -1772 0
-1580 1912 0
1580 -1912 0
-1582 1913 0
1582 -1913 0
-1584 1914 0
1584 -1914 0
1784 1939 0
-1784 -1939 0
1781 1767 0
-1781 -1767 0
1658 1590 0
-1658 -1590 0
1656 1592 0
-1656 -1592 0
1995 1799 0
-1995 -1799 0
1985 1908 0
-1985 -1908 0
1990 1936 0
-1990 -1936 0
1998 1910 0
-1998 -1910 0
1956 1787 0
-1956 -1787 0
1946 1916 0
-1946 -1916 0
1951 1917 0
-1951 -1917 0
1959 1918 0
-1959 -1918 0
1921 1772 0
-1921 -1772 0
1923 1912 0
-1923 -1912 0
1927 1913 0
-1927 -1913 0
1928 1914 0
-1928 -1914 0
1646 1618 0
-1646 -1618 0
1648 1620 0
-1648 -1620 0
1934 1767 0
-1934 -1767 0
1650 1624 0
-1650 -1624 0
1967 1910 0
-1967 -1910 0
1860 1936 0
-1860 -1936 0
1935 1908 0
-1935 -1908 0
1814 1799 0
-1814 -1799 0
1652 1914 0
-1652 -1914 0
1635 1636 0
-1635 -1636 0
1637 1638 0
-1637 -1638 0
1931 1738 0
-1931 -1738 0
1641 1642 0
-1641 -1642 0
1643 1644 0
-1643 -1644 0
1743 1646 0
-1743 -1646 0
2034 1648 0
-2034 -1648 0
1763 1650 0
-1763 -1650 0
1942 1652 0
-1942 -1652 0
1821 1928 0
-1821 -1928 0
1655 1656 0
-1655 -1656 0
1657 1658 0
-1657 -1658 0
1780 1743 0
-1780 -1743 0
1718 2034 0
-1718 -2034 0
1712 2034 0
-1712 -2034 0
1843 2034 0
-1843 -2034 0
1783 1763 0
-1783 -1763 0
1875 1958 0
-1875 -1958 0
1973 1770 0
-1973 -1770 0
1997 2014 0
-1997 -2014 0
1713 1855 0
-1713 -1855 0
1719 1862 0
-1719 -1862 0
1688 1865 0
-1688 -1865 0
1724 1865 0
-1724 -1865 0
2001 1785 0
-2001 -1785 0
1896 1997 0
-1896 -1997 0
2054 1688 0
-2054 -1688 0
2023 1797 0
-2023 -1797 0
-1970 1812 0
-1970 1738 0
1970 -1812 -1738 0
-1961 1738 0
-1961 1843 0
1961 -1738 -1843 0
-1962 1908 0
-1962 1843 0
1962 -1908 -1843 0
-1963 1910 0
-1963 1936 0
-1963 1843 0
1963 -1910 -1936 -1843 0
-1964 1967 0
-1964 1799 0
-1964 1843 0
1964 -1967 -1799 -1843 0
-2020 1865 0
-2020 1946 0
2020 -1865 -1946 0
-2040 1712 0
-2040 1713 0
2040 -1712 -1713 0
-2017 1877 0
-2017 1946 0
2017 -1877 -1946 0
-2038 1718 0
-2038 1719 0
2038 -1718 -1719 0
-2016 1724 0
-2016 1877 0
2016 -1724 -1877 0
-2019 1724 0
-2019 1823 0
2019 -1724 -1823 0
1844 -1908 0
1844 -1799 0
1844 -1738 0
-1844 1908 1799 1738 0
1841 -1910 0
1841 -1936 0
1841 -1934 0
-1841 1910 1936 1934 0
1845 -1967 0
1845 -1936 0
1845 -1908 0
1845 -1738 0
-1845 1967 1936 1908 1738 0
1840 -1814 0
1840 -1934 0
-1840 1814 1934 0
1857 -1743 0
1857 -1767 0
-1857 1743 1767 0
1824 -1935 0
1824 -2034 0
-1824 1935 2034 0
1825 -1910 0
1825 -1936 0
1825 -1814 0
1825 -2034 0
-1825 1910 1936 1814 2034 0
1827 -1908 0
1827 -1814 0
1827 -2034 0
-1827 1908 1814 2034 0
1828 -1935 0
1828 -1799 0
1828 -1934 0
1828 -2034 0
-1828 1935 1799 1934 2034 0
1864 -1763 0
1864 -1939 0
-1864 1763 1939 0
1848 -1809 0
1848 -1767 0
1848 -1799 0
1848 -1935 0
-1848 1809 1767 1799 1935 0
1770 -1922 0
1770 -1772 0
-1770 1922 1772 0
1850 -1926 0
1850 -1912 0
-1850 1926 1912 0
1853 -1821 0
1853 -1913 0
-1853 1821 1913 0
1856 -1780 0
1856 -1781 0
-1856 1780 1781 0
1863 -1783 0
1863 -1784 0
-1863 1783 1784 0
1785 -1944 0
1785 -1787 0
-1785 1944 1787 0
1881 -1949 0
1881 -1916 0
-1881 1949 1916 0
1884 -1957 0
1884 -1917 0
-1884 1957 1917 0
1887 -1875 0
1887 -1918 0
-1887 1875 1918 0
1797 -1983 0
1797 -1799 0
-1797 1983 1799 0
1899 -1988 0
1899 -1908 0
-1899 1988 1908 0
1902 -1996 0
1902 -1936 0
-1902 1996 1936 0
1905 -1896 0
1905 -1910 0
-1905 1896 1910 0
1809 1860 0
1809 1910 0
-1809 -1860 -1910 0
1812 1934 0
1812 1814 0
1812 1860 0
1812 1910 0
-1812 -1934 -1814 -1860 -1910 0
1851 1926 0
1851 1912 0
-1851 -1926 -1912 0
1854 1821 0
1854 1913 0
-1854 -1821 -1913 0
1823 1824 0
1823 1825 0
-1823 -1824 -1825 0
1859 1827 0
1859 1828 0
-1859 -1827 -1828 0
1867 1932 0
1867 1967 0
-1867 -1932 -1967 0
1966 1843 0
1966 1931 0
1966 1935 0
1966 1936 0
-1966 -1843 -1931 -1935 -1936 0
1969 1843 0
1969 1908 0
1969 1840 0
1969 1841 0
-1969 -1843 -1908 -1840 -1841 0
2048 1843 0
2048 1844 0
2048 1845 0
-2048 -1843 -1844 -1845 0
1878 1929 0
1878 1848 0
-1878 -1929 -1848 0
1977 1850 0
1977 1851 0
-1977 -1850 -1851 0
1981 1853 0
1981 1854 0
-1981 -1853 -1854 0
1855 1856 0
1855 1857 0
-1855 -1856 -1857 0
1879 1859 0
1879 1860 0
1879 1967 0
-1879 -1859 -1860 -1967 0
1862 1863 0
1862 1864 0
-1862 -1863 -1864 0
1865 1878 0
1865 1867 0
-1865 -1878 -1867 0
1882 1949 0
1882 1916 0
-1882 -1949 -1916 0
1885 1957 0
1885 1917 0
-1885 -1957 -1917 0
1888 1875 0
1888 1918 0
-1888 -1875 -1918 0
1877 1878 0
1877 1879 0
-1877 -1878 -1879 0
2005 1881 0
2005 1882 0
-2005 -1881 -1882 0
2009 1884 0
2009 1885 0
-2009 -1884 -1885 0
2013 1887 0
2013 1888 0
-2013 -1887 -1888 0
1900 1988 0
1900 1908 0
-1900 -1988 -1908 0
1903 1996 0
1903 1936 0
-1903 -1996 -1936 0
1906 1896 0
1906 1910 0
-1906 -1896 -1910 0
2027 1899 0
2027 1900 0
-2027 -1899 -1900 0
2031 1902 0
2031 1903 0
-2031 -1902 -1903 0
2035 1905 0
2035 1906 0
-2035 -1905 -1906 0
-1993 -1908 0
-1993 -1936 0
-1993 -1910 0
1993 1908 1936 1910 0
-1920 -1912 0
-1920 -1913 0
-1920 -1914 0
1920 1912 1913 1914 0
-1954 -1916 0
-1954 -1917 0
-1954 -1918 0
1954 1916 1917 1918 0
-1982 -1920 0
-1982 -1921 0
1982 1920 1921 0
-1922 -1923 0
-1922 -1927 0
-1922 -1928 0
1922 1923 1927 1928 0
-1926 -1927 0
-1926 -1928 0
1926 1927 1928 0
-1929 -2034 0
-1929 -1931 0
1929 2034 1931 0
-1932 -2034 0
-1932 -1934 0
-1932 -1935 0
-1932 -1936 0
1932 2034 1934 1935 1936 0
-1958 -1982 0
-1958 -1939 0
1958 1982 1939 0
-2078 -2034 0
-2078 -1942 0
-2078 -1982 0
2078 2034 1942 1982 0
-1944 -1958 0
-1944 -1946 0
-1944 -1951 0
-1944 -1959 0
1944 1958 1946 1951 1959 0
-1949 -1958 0
-1949 -1951 0
-1949 -1959 0
1949 1958 1951 1959 0
-2014 -1954 0
-2014 -1958 0
-2014 -1956 0
2014 1954 1958 1956 0
-1957 -1958 0
-1957 -1959 0
1957 1958 1959 0
-2050 -1961 0
-2050 -1962 0
-2050 -1963 0
-2050 -1964 0
2050 1961 1962 1963 1964 0
-2042 -1966 0
-2042 -1967 0
2042 1966 1967 0
-2052 -1969 0
-2052 -1970 0
2052 1969 1970 0
-2072 -2034 0
-2072 -1973 0
-2072 -1982 0
2072 2034 1973 1982 0
-2074 -2034 0
-2074 -1977 0
-2074 -1982 0
2074 2034 1977 1982 0
-2076 -2034 0
-2076 -1981 0
-2076 -1982 0
2076 2034 1981 1982 0
-1983 -1997 0
-1983 -1985 0
-1983 -1990 0
-1983 -1998 0
1983 1997 1985 1990 1998 0
-1988 -1997 0
-1988 -1990 0
-1988 -1998 0
1988 1997 1990 1998 0
-2036 -1993 0
-2036 -1997 0
-2036 -1995 0
2036 1993 1997 1995 0
-1996 -1997 0
-1996 -1998 0
1996 1997 1998 0
-2064 -2034 0
-2064 -2001 0
-2064 -2014 0
2064 2034 2001 2014 0
-2066 -2034 0
-2066 -2005 0
-2066 -2014 0
2066 2034 2005 2014 0
-2068 -2034 0
-2068 -2009 0
-2068 -2014 0
2068 2034 2009 2014 0
-2070 -2034 0
-2070 -2013 0
-2070 -2014 0
2070 2034 2013 2014 0
-2044 -2016 0
-2044 -2017 0
2044 2016 2017 0
-2046 -2019 0
-2046 -2020 0
2046 2019 2020 0
-2056 -2034 0
-2056 -2023 0
-2056 -2036 0
2056 2034 2023 2036 0
-2058 -2034 0
-2058 -2027 0
-2058 -2036 0
2058 2034 2027 2036 0
-2060 -2034 0
-2060 -2031 0
-2060 -2036 0
2060 2034 2031 2036 0
-2062 -2034 0
-2062 -2035 0
-2062 -2036 0
2062 2034 2035 2036 0
-2038 2433 0
2038 -2433 0
-2040 2261 0
2040 -2261 0
-2042 2138 0
2042 -2138 0
-2044 2084 0
2044 -2084 0
-2046 2086 0
2046 -2086 0
-2048 2136 0
2048 -2136 0
-2050 2132 0
2050 -2132 0
-2052 2130 0
2052 -2130 0
-2054 2232 0
2054 -2232 0
-2056 2293 0
2056 -2293 0
-2058 2402 0
2058 -2402 0
-2060 2430 0
2060 -2430 0
-2062 2404 0
2062 -2404 0
-2064 2281 0
2064 -2281 0
-2066 2410 0
2066 -2410 0
-2068 2411 0
2068 -2411 0
-2070 2412 0
2070 -2412 0
-2072 2266 0
2072 -2266 0
-2074 2406 0
2074 -2406 0
-2076 2407 0
2076 -2407 0
-2078 2408 0
2078 -2408 0
2278 2433 0
-2278 -2433 0
2275 2261 0
-2275 -2261 0
2152 2084 0
-2152 -2084 0
2150 2086 0
-2150 -2086 0
2489 2293 0
-2489 -2293 0
2479 2402 0
-2479 -2402 0
2484 2430 0
-2484 -2430 0
2492 2404 0
-2492 -2404 0
2450 2281 0
-2450 -2281 0
2440 2410 0
-2440 -2410 0
2445 2411 0
-2445 -2411 0
2453 2412 0
-2453 -2412 0
2415 2266 0
-2415 -2266 0
2417 2406 0
-2417 -2406 0
2421 2407 0
-2421 -2407 0
2422 2408 0
-2422 -2408 0
2140 2112 0
-2140 -2112 0
2142 2114 0
-2142 -2114 0
2428 2261 0
-2428 -2261 0
2144 2118 0
-2144 -2118 0
2461 2404 0
-2461 -2404 0
2354 2430 0
-2354 -2430 0
2429 2402 0
-2429 -2402 0
2308 2293 0
-2308 -2293 0
2146 2408 0
-2146 -2408 0
2129 2130 0
-2129 -2130 0
2131 2132 0
-2131 -2132 0
2425 2232 0
-2425 -2232 0
2135 2136 0
-2135 -2136 0
2137 2138 0
-2137 -2138 0
2237 2140 0
-2237 -2140 0
2528 2142 0
-2528 -2142 0
2257 2144 0
-2257 -2144 0
2436 2146 0
-2436 -2146 0
2315 2422 0
-2315 -2422 0
2149 2150 0
-2149 -2150 0
2151 2152 0
-2151 -2152 0
2274 2237 0
-2274 -2237 0
2212 2528 0
-2212 -2528 0
2206 2528 0
-2206 -2528 0
2337 2528 0
-2337 -2528 0
2277 2257 0
-2277 -2257 0
2369 2452 0
-2369 -2452 0
2467 2264 0
-2467 -2264 0
2491 2508 0
-2491 -2508 0
2207 2349 0
-2207 -2349 0
2213 2356 0
-2213 -2356 0
2182 2359 0
-2182 -2359 0
2218 2359 0
-2218 -2359 0
2495 2279 0
-2495 -2279 0
2390 2491 0
-2390 -2491 0
2548 2182 0
-2548 -2182 0
2517 2291 0
-2517 -2291 0
-2464 2306 0
-2464 2232 0
2464 -2306 -2232 0
-2455 2232 0
-2455 2337 0
2455 -2232 -2337 0
-2456 2402 0
-2456 2337 0
2456 -2402 -2337 0
-2457 2404 0
-2457 2430 0
-2457 2337 0
2457 -2404 -2430 -2337 0
-2458 2461 0
-2458 2293 0
-2458 2337 0
2458 -2461 -2293 -2337 0
-2514 2359 0
-2514 2440 0
2514 -2359 -2440 0
-2534 2206 0
-2534 2207 0
2534 -2206 -2207 0
-2511 2371 0
-2511 2440 0
2511 -2371 -2440 0
-2532 2212 0
-2532 2213 0
2532 -2212 -2213 0
-2510 2218 0
-2510 2371 0
2510 -2218 -2371 0
-2513 2218 0
-2513 2317 0
2513 -2218 -2317 0
2338 -2402 0
2338 -2293 0
2338 -2232 0
-2338 2402 2293 2232 0
2335 -2404 0
2335 -2430 0
2335 -2428 0
-2335 2404 2430 2428 0
2339 -2461 0
2339 -2430 0
2339 -2402 0
2339 -2232 0
-2339 2461 2430 2402 2232 0
2334 -2308 0
2334 -2428 0
-2334 2308 2428 0
2351 -2237 0
2351 -2261 0
-2351 2237 2261 0
2318 -2429 0
2318 -2528 0
-2318 2429 2528 0
2319 -2404 0
2319 -2430 0
2319 -2308 0
2319 -2528 0
-2319 2404 2430 2308 2528 0
2321 -2402 0
2321 -2308 0
2321 -2528 0
-2321 2402 2308 2528 0
2322 -2429 0
2322 -2293 0
2322 -2428 0
2322 -2528 0
-2322 2429 2293 2428 2528 0
2358 -2257 0
2358 -2433 0
-2358 2257 2433 0
2342 -2303 0
2342 -2261 0
2342 -2293 0
2342 -2429 0
-2342 2303 2261 2293 2429 0
2264 -2416 0
2264 -2266 0
-2264 2416 2266 0
2344 -2420 0
2344 -2406 0
-2344 2420 2406 0
2347 -2315 0
2347 -2407 0
-2347 2315 2407 0
2350 -2274 0
2350 -2275 0
-2350 2274 2275 0
2357 -2277 0
2357 -2278 0
-2357 2277 2278 0
2279 -2438 0
2279 -2281 0
-2279 2438 2281 0
2375 -2443 0
2375 -2410 0
-2375 2443 2410 0
2378 -2451 0
2378 -2411 0
-2378 2451 2411 0
2381 -2369 0
2381 -2412 0
-2381 2369 2412 0
2291 -2477 0
2291 -2293 0
-2291 2477 2293 0
2393 -2482 0
2393 -2402 0
-2393 2482 2402 0
2396 -2490 0
2396 -2430 0
-2396 2490 2430 0
2399 -2390 0
2399 -2404 0
-2399 2390 2404 0
2303 2354 0
2303 2404 0
-2303 -2354 -2404 0
2306 2428 0
2306 2308 0
2306 2354 0
2306 2404 0
-2306 -2428 -2308 -2354 -2404 0
2345 2420 0
2345 2406 0
-2345 -2420 -2406 0
2348 2315 0
2348 2407 0
-2348 -2315 -2407 0
2317 2318 0
2317 2319 0
-2317 -2318 -2319 0
2353 2321 0
2353 2322 0
-2353 -2321 -2322 0
2361 2426 0
2361 2461 0
-2361 -2426 -2461 0
2460 2337 0
2460 2425 0
2460 2429 0
2460 2430 0
-2460 -2337 -2425 -2429 -2430 0
2463 2337 0
2463 2402 0
2463 2334 0
2463 2335 0
-2463 -2337 -2402 -2334 -2335 0
2542 2337 0
2542 2338 0
2542 2339 0
-2542 -2337 -2338 -2339 0
2372 2423 0
2372 2342 0
-2372 -2423 -2342 0
2471 2344 0
2471 2345 0
-2471 -2344 -2345 0
2475 2347 0
2475 2348 0
-2475 -2347 -2348 0
2349 2350 0
2349 2351 0
-2349 -2350 -2351 0
2373 2353 0
2373 2354 0
2373 2461 0
-2373 -2353 -2354 -2461 0
2356 2357 0
2356 2358 0
-2356 -2357 -2358 0
2359 2372 0
2359 2361 0
-2359 -2372 -2361 0
2376 2443 0
2376 2410 0
-2376 -2443 -2410 0
2379 2451 0
2379 2411 0
-2379 -2451 -2411 0
2382 2369 0
2382 2412 0
-2382 -2369 -2412 0
2371 2372 0
2371 2373 0
-2371 -2372 -2373 0
2499 2375 0
2499 2376 0
-2499 -2375 -2376 0
2503 2378 0
2503 2379 0
-2503 -2378 -2379 0
2507 2381 0
2507 2382 0
-2507 -2381 -2382 0
2394 2482 0
2394 2402 0
-2394 -2482 -2402 0
2397 2490 0
2397 2430 0
-2397 -2490 -2430 0
2400 2390 0
2400 2404 0
-2400 -2390 -2404 0
2521 2393 0
2521 2394 0
-2521 -2393 -2394 0
2525 2396 0
2525 2397 0
-2525 -2396 -2397 0
2529 2399 0
2529 2400 0
-2529 -2399 -2400 0
-2487 -2402 0
-2487 -2430 0
-2487 -2404 0
2487 2402 2430 2404 0
-2414 -2406 0
-2414 -2407 0
-2414 -2408 0
2414 2406 2407 2408 0
-2448 -2410 0
-2448 -2411 0
-2448 -2412 0
2448 2410 2411 2412 0
-2476 -2414 0
-2476 -2415 0
2476 2414 2415 0
-2416 -2417 0
-2416 -2421 0
-2416 -2422 0
2416 2417 2421 2422 0
-2420 -2421 0
-2420 -2422 0
2420 2421 2422 0
-2423 -2528 0
-2423 -2425 0
2423 2528 2425 0
-2426 -2528 0
-2426 -2428 0
-2426 -2429 0
-2426 -2430 0
2426 2528 2428 2429 2430 0
-2452 -2476 0
-2452 -2433 0
2452 2476 2433 0
-2572 -2528 0
-2572 -2436 0
-2572 -2476 0
2572 2528 2436 2476 0
-2438 -2452 0
-2438 -2440 0
-2438 -2445 0
-2438 -2453 0
2438 2452 2440 2445 2453 0
-2443 -2452 0
-2443 -2445 0
-2443 -2453 0
2443 2452 2445 2453 0
-2508 -2448 0
-2508 -2452 0
-2508 -2450 0
2508 2448 2452 2450 0
-2451 -2452 0
-2451 -2453 0
2451 2452 2453 0
-2544 -2455 0
-2544 -2456 0
-2544 -2457 0
-2544 -2458 0
2544 2455 2456 2457 2458 0
-2536 -2460 0
-2536 -2461 0
2536 2460 2461 0
-2546 -2463 0
-2546 -2464 0
2546 2463 2464 0
-2566 -2528 0
-2566 -2467 0
-2566 -2476 0
2566 2528 2467 2476 0
-2568 -2528 0
-2568 -2471 0
-2568 -2476 0
2568 2528 2471 2476 0
-2570 -2528 0
-2570 -2475 0
-2570 -2476 0
2570 2528 2475 2476 0
-2477 -2491 0
-2477 -2479 0
-2477 -2484 0
-2477 -2492 0
2477 2491 2479 2484 2492 0
-2482 -2491 0
-2482 -2484 0
-2482 -2492 0
2482 2491 2484 2492 0
-2530 -2487 0
-2530 -2491 0
-2530 -2489 0
2530 2487 2491 2489 0
-2490 -2491 0
-2490 -2492 0
2490 2491 2492 0
-2558 -2528 0
-2558 -2495 0
-2558 -2508 0
2558 2528 2495 2508 0
-2560 -2528 0
-2560 -2499 0
-2560 -2508 0
2560 2528 2499 2508 0
-2562 -2528 0
-2562 -2503 0
-2562 -2508 0
2562 2528 2503 2508 0
-2564 -2528 0
-2564 -2507 0
-2564 -2508 0
2564 2528 2507 2508 0
-2538 -2510 0
-2538 -2511 0
2538 2510 2511 0
-2540 -2513 0
-2540 -2514 0
2540 2513 2514 0
-2550 -2528 0
-2550 -2517 0
-2550 -2530 0
2550 2528 2517 2530 0
-2552 -2528 0
-2552 -2521 0
-2552 -2530 0
2552 2528 2521 2530 0
-2554 -2528 0
-2554 -2525 0
-2554 -2530 0
2554 2528 2525 2530 0
-2556 -2528 0
-2556 -2529 0
-2556 -2530 0
2556 2528 2529 2530 0
-2532 2927 0
2532 -2927 0
-2534 2755 0
2534 -2755 0
-2536 2632 0
2536 -2632 0
-2538 2578 0
2538 -2578 0
-2540 2580 0
2540 -2580 0
-2542 2630 0
2542 -2630 0
-2544 2626 0
2544 -2626 0
-2546 2624 0
2546 -2624 0
-2548 2726 0
2548 -2726 0
-2550 2787 0
2550 -2787 0
-2552 2896 0
2552 -2896 0
-2554 2924 0
2554 -2924 0
-2556 2898 0
2556 -2898 0
-2558 2775 0
2558 -2775 0
-2560 2904 0
2560 -2904 0
-2562 2905 0
2562 -2905 0
-2564 2906 0
2564 -2906 0
-2566 2760 0
2566 -2760 0
-2568 2900 0
2568 -2900 0
-2570 2901 0
2570 -2901 0
-2572 2902 0
2572 -2902 0
2772 2927 0
-2772 -2927 0
2769 2755 0
-2769 -2755 0
2646 2578 0
-2646 -2578 0
2644 2580 0
-2644 -2580 0
2983 2787 0
-2983 -2787 0
2973 2896 0
-2973 -2896 0
2978 2924 0
-2978 -2924 0
2986 2898 0
-2986 -2898 0
2944 2775 0
-2944 -2775 0
2934 2904 0
-2934 -2904 0
2939 2905 0
-2939 -2905 0
2947 2906 0
-2947 -2906 0
2909 2760 0
-2909 -2760 0
2911 2900 0
-2911 -2900 0
2915 2901 0
-2915 -2901 0
2916 2902 0
-2916 -2902 0
2634 2606 0
-2634 -2606 0
2636 2608 0
-2636 -2608 0
2922 2755 0
-2922 -2755 0
2638 2612 0
-2638 -2612 0
2955 2898 0
-2955 -2898 0
2848 2924 0
-2848 -2924 0
2923 2896 0
-2923 -2896 0
2802 2787 0
-2802 -2787 0
2640 2902 0
-2640 -2902 0
2623 2624 0
-2623 -2624 0
2625 2626 0
-2625 -2626 0
2919 2726 0
-2919 -2726 0
2629 2630 0
-2629 -2630 0
2631 2632 0
-2631 -2632 0
2731 2634 0
-2731 -2634 0
3022 2636 0
-3022 -2636 0
2751 2638 0
-2751 -2638 0
2930 2640 0
-2930 -2640 0
2809 2916 0
-2809 -2916 0
2643 2644 0
-2643 -2644 0
2645 2646 0
-2645 -2646 0
2768 2731 0
-2768 -2731 0
2706 3022 0
-2706 -3022 0
2700 3022 0
-2700 -3022 0
2831 3022 0
-2831 -3022 0
2771 2751 0
-2771 -2751 0
2863 2946 0
-2863 -2946 0
2961 2758 0
-2961 -2758 0
2985 3002 0
-2985 -3002 0
2701 2843 0
-2701 -2843 0
2707 2850 0
-2707 -2850 0
2676 2853 0
-2676 -2853 0
2712 2853 0
-2712 -2853 0
2989 2773 0
-2989 -2773 0
2884 2985 0
-2884 -2985 0
3042 2676 0
-3042 -2676 0
3011 2785 0
-3011 -2785 0
-2958 2800 0
-2958 2726 0
2958 -2800 -2726 0
-2949 2726 0
-2949 2831 0
2949 -2726 -2831 0
-2950 2896 0
-2950 2831 0
2950 -2896 -2831 0
-2951 2898 0
-2951 2924 0
-2951 2831 0
2951 -2898 -2924 -2831 0
-2952 2955 0
-2952 2787 0
-2952 2831 0
2952 -2955 -2787 -2831 0
-3008 2853 0
-3008 2934 0
3008 -2853 -2934 0
-3028 2700 0
-3028 2701 0
3028 -2700 -2701 0
-3005 2865 0
-3005 2934 0
3005 -2865 -2934 0
-3026 2706 0
-3026 2707 0
3026 -2706 -2707 0
-3004 2712 0
-3004 2865 0
3004 -2712 -2865 0
-3007 2712 0
-3007 2811 0
3007 -2712 -2811 0
2832 -2896 0
2832 -2787 0
2832 -2726 0
-2832 2896 2787 2726 0
2829 -2898 0
2829 -2924 0
2829 -2922 0
-2829 2898 2924 2922 0
2833 -2955 0
2833 -2924 0
2833 -2896 0
2833 -2726 0
-2833 2955 2924 2896 2726 0
2828 -2802 0
2828 -2922 0
-2828 2802 2922 0
2845 -2731 0
2845 -2755 0
-2845 2731 2755 0
2812 -2923 0
2812 -3022 0
-2812 2923 3022 0
2813 -2898 0
2813 -2924 0
2813 -2802 0
2813 -3022 0
-2813 2898 2924 2802 3022 0
2815 -2896 0
2815 -2802 0
2815 -3022 0
-2815 2896 2802 3022 0
2816 -2923 0
2816 -2787 0
2816 -2922 0
2816 -3022 0
-2816 2923 2787 2922 3022 0
2852 -2751 0
2852 -2927 0
-2852 2751 2927 0
2836 -2797 0
2836 -2755 0
2836 -2787 0
2836 -2923 0
-2836 2797 2755 2787 2923 0
2758 -2910 0
2758 -2760 0
-2758 2910 2760 0
2838 -2914 0
2838 -2900 0
-2838 2914 2900 0
2841 -2809 0
2841 -2901 0
-2841 2809 2901 0
2844 -2768 0
2844 -2769 0
-2844 2768 2769 0
2851 -2771 0
2851 -2772 0
-2851 2771 2772 0
2773 -2932 0
2773 -2775 0
-2773 2932 2775 0
2869 -2937 0
2869 -2904 0
-2869 2937 2904 0
2872 -2945 0
2872 -2905 0
-2872 2945 2905 0
2875 -2863 0
2875 -2906 0
-2875 2863 2906 0
2785 -2971 0
2785 -2787 0
-2785 2971 2787 0
2887 -2976 0
2887 -2896 0
-2887 2976 2896 0
2890 -2984 0
2890 -2924 0
-2890 2984 2924 0
2893 -2884 0
2893 -2898 0
-2893 2884 2898 0
2797 2848 0
2797 2898 0
-2797 -2848 -2898 0
2800 2922 0
2800 2802 0
2800 2848 0
2800 2898 0
-2800 -2922 -2802 -2848 -2898 0
2839 2914 0
2839 2900 0
-2839 -2914 -2900 0
2842 2809 0
2842 2901 0
-2842 -2809 -2901 0
2811 2812 0
2811 2813 0
-2811 -2812 -2813 0
2847 2815 0
2847 2816 0
-2847 -2815 -2816 0
2855 2920 0
2855 2955 0
-2855 -2920 -2955 0
2954 2831 0
2954 2919 0
2954 2923 0
2954 2924 0
-2954 -2831 -2919 -2923 -2924 0
2957 2831 0
2957 2896 0
2957 2828 0
2957 2829 0
-2957 -2831 -2896 -2828 -2829 0
3036 2831 0
3036 2832 0
3036 2833 0
-3036 -2831 -2832 -2833 0
2866 2917 0
2866 2836 0
-2866 -2917 -2836 0
2965 2838 0
2965 2839 0
-2965 -2838 -2839 0
2969 2841 0
2969 2842 0
-2969 -2841 -2842 0
2843 2844 0
2843 2845 0
-2843 -2844 -2845 0
2867 2847 0
2867 2848 0
2867 2955 0
-2867 -2847 -2848 -2955 0
2850 2851 0
2850 2852 0
-2850 -2851 -2852 0
2853 2866 0
2853 2855 0
-2853 -2866 -2855 0
2870 2937 0
2870 2904 0
-2870 -2937 -2904 0
2873 2945 0
2873 2905 0
-2873 -2945 -2905 0
2876 2863 0
2876 2906 0
-2876 -2863 -2906 0
2865 2866 0
2865 2867 0
-2865 -2866 -2867 0
2993 2869 0
2993 2870 0
-2993 -2869 -2870 0
2997 2872 0
2997 2873 0
-2997 -2872 -2873 0
3001 2875 0
3001 2876 0
-3001 -2875 -2876 0
2888 2976 0
2888 2896 0
-2888 -2976 -2896 0
2891 2984 0
2891 2924 0
-2891 -2984 -2924 0
2894 2884 0
2894 2898 0
-2894 -2884 -2898 0
3015 2887 0
3015 2888 0
-3015 -2887 -2888 0
3019 2890 0
3019 2891 0
-3019 -2890 -2891 0
3023 2893 0
3023 2894 0
-3023 -2893 -2894 0
-2981 -2896 0
-2981 -2924 0
-2981 -2898 0
2981 2896 2924 2898 0
-2908 -2900 0
-2908 -2901 0
-2908 -2902 0
2908 2900 2901 2902 0
-2942 -2904 0
-2942 -2905 0
-2942 -2906 0
2942 2904 2905 2906 0
-2970 -2908 0
-2970 -2909 0
2970 2908 2909 0
-2910 -2911 0
-2910 -2915 0
-2910 -2916 0
2910 2911 2915 2916 0
-2914 -2915 0
-2914 -2916 0
2914 2915 2916 0
-2917 -3022 0
-2917 -2919 0
2917 3022 2919 0
-2920 -3022 0
-2920 -2922 0
-2920 -2923 0
-2920 -2924 0
2920 3022 2922 2923 2924 0
-2946 -2970 0
-2946 -2927 0
2946 2970 2927 0
-3066 -3022 0
-3066 -2930 0
-3066 -2970 0
3066 3022 2930 2970 0
-2932 -2946 0
-2932 -2934 0
-2932 -2939 0
-2932 -2947 0
2932 2946 2934 2939 2947 0
-2937 -2946 0
-2937 -2939 0
-2937 -2947 0
2937 2946 2939 2947 0
-3002 -2942 0
-3002 -2946 0
-3002 -2944 0
3002 2942 2946 2944 0
-2945 -2946 0
-2945 -2947 0
2945 2946 2947 0
-3038 -2949 0
-3038 -2950 0
-3038 -2951 0
-3038 -2952 0
3038 2949 2950 2951 2952 0
-3030 -2954 0
-3030 -2955 0
3030 2954 2955 0
-3040 -2957 0
-3040 -2958 0
3040 2957 2958 0
-3060 -3022 0
-3060 -2961 0
-3060 -2970 0
3060 3022 2961 2970 0
-3062 -3022 0
-3062 -2965 0
-3062 -2970 0
3062 3022 2965 2970 0
-3064 -3022 0
-3064 -2969 0
-3064 -2970 0
3064 3022 2969 2970 0
-2971 -2985 0
-2971 -2973 0
-2971 -2978 0
-2971 -2986 0
2971 2985 2973 2978 2986 0
-2976 -2985 0
-2976 -2978 0
-2976 -2986 0
2976 2985 2978 2986 0
-3024 -2981 0
-3024 -2985 0
-3024 -2983 0
3024 2981 2985 2983 0
-2984 -2985 0
-2984 -2986 0
2984 2985 2986 0
-3052 -3022 0
-3052 -2989 0
-3052 -3002 0
3052 3022 2989 3002 0
-3054 -3022 0
-3054 -2993 0
-3054 -3002 0
3054 3022 2993 3002 0
-3056 -3022 0
-3056 -2997 0
-3056 -3002 0
3056 3022 2997 3002 0
-3058 -3022 0
-3058 -3001 0
-3058 -3002 0
3058 3022 3001 3002 0
-3032 -3004 0
-3032 -3005 0
3032 3004 3005 0
-3034 -3007 0
-3034 -3008 0
3034 3007 3008 0
-3044 -3022 0
-3044 -3011 0
-3044 -3024 0
3044 3022 3011 3024 0
-3046 -3022 0
-3046 -3015 0
-3046 -3024 0
3046 3022 3015 3024 0
-3048 -3022 0
-3048 -3019 0
-3048 -3024 0
3048 3022 3019 3024 0
-3050 -3022 0
-3050 -3023 0
-3050 -3024 0
3050 3022 3023 3024 0
-3026 3421 0
3026 -3421 0
-3028 3249 0
3028 -3249 0
-3030 3126 0
3030 -3126 0
-3032 3072 0
3032 -3072 0
-3034 3074 0
3034 -3074 0
-3036 3124 0
3036 -3124 0
-3038 3120 0
3038 -3120 0
-3040 3118 0
3040 -3118 0
-3042 3220 0
3042 -3220 0
-3044 3281 0
3044 -3281 0
-3046 3390 0
3046 -3390 0
-3048 3418 0
3048 -3418 0
-3050 3392 0
3050 -3392 0
-3052 3269 0
3052 -3269 0
-3054 3398 0
3054 -3398 0
-3056 3399 0
3056 -3399 0
-3058 3400 0
3058 -3400 0
-3060 3254 0
3060 -3254 0
-3062 3394 0
3062 -3394 0
-3064 3395 0
3064 -3395 0
-3066 3396 0
3066 -3396 0
3266 3421 0
-3266 -3421 0
3263 3249 0
-3263 -3249 0
3140 3072 0
-3140 -3072 0
3138 3074 0
-3138 -3074 0
3477 3281 0
-3477 -3281 0
3467 3390 0
-3467 -3390 0
3472 3418 0
-3472 -3418 0
3480 3392 0
-3480 -3392 0
3438 3269 0
-3438 -3269 0
3428 3398 0
-3428 -3398 0
3433 3399 0
-3433 -3399 0
3441 3400 0
-3441 -3400 0
3403 3254 0
-3403 -3254 0
3405 3394 0
-3405 -3394 0
3409 3395 0
-3409 -3395 0
3410 3396 0
-3410 -3396 0
3128 3100 0
-3128 -3100 0
3130 3102 0
-3130 -3102 0
3416 3249 0
-3416 -3249 0
3132 3106 0
-3132 -3106 0
3449 3392 0
-3449 -3392 0
3342 3418 0
-3342 -3418 0
3417 3390 0
-3417 -3390 0
3296 3281 0
-3296 -3281 0
3134 3396 0
-3134 -3396 0
3117 3118 0
-3117 -3118 0
3119 3120 0
-3119 -3120 0
3413 3220 0
-3413 -3220 0
3123 3124 0
-3123 -3124 0
3125 3126 0
-3125 -3126 0
3225 3128 0
-3225 -3128 0
3516 3130 0
-3516 -3130 0
3245 3132 0
-3245 -3132 0
3424 3134 0
-3424 -3134 0
3303 3410 0
-3303 -3410 0
3137 3138 0
-3137 -3138 0
3139 3140 0
-3139 -3140 0
3262 3225 0
-3262 -3225 0
3200 3516 0
-3200 -3516 0
3194 3516 0
-3194 -3516 0
3325 3516 0
-3325 -3516 0
3265 3245 0
-3265 -3245 0
3357 3440 0
-3357 -3440 0
3455 3252 0
-3455 -3252 0
3479 3496 0
-3479 -3496 0
3195 3337 0
-3195 -3337 0
3201 3344 0
-3201 -3344 0
3170 3347 0
-3170 -3347 0
3206 3347 0
-3206 -3347 0
3483 3267 0
-3483 -3267 0
3378 3479 0
-3378 -3479 0
3536 3170 0
-3536 -3170 0
3505 3279 0
-3505 -3279 0
-3452 3294 0
-3452 3220 0
3452 -3294 -3220 0
-3443 3220 0
-3443 3325 0
3443 -3220 -3325 0
-3444 3390 0
-3444 3325 0
3444 -3390 -3325 0
-3445 3392 0
-3445 3418 0
-3445 3325 0
3445 -3392 -3418 -3325 0
-3446 3449 0
-3446 3281 0
-3446 3325 0
3446 -3449 -3281 -3325 0
-3502 3347 0
-3502 3428 0
3502 -3347 -3428 0
-3522 3194 0
-3522 3195 0
3522 -3194 -3195 0
-3499 3359 0
-3499 3428 0
3499 -3359 -3428 0
-3520 3200 0
-3520 3201 0
3520 -3200 -3201 0
-3498 3206 0
-3498 3359 0
3498 -3206 -3359 0
-3501 3206 0
-3501 3305 0
3501 -3206 -3305 0
3326 -3390 0
3326 -3281 0
3326 -3220 0
-3326 3390 3281 3220 0
3323 -3392 0
3323 -3418 0
3323 -3416 0
-3323 3392 3418 3416 0
3327 -3449 0
3327 -3418 0
3327 -3390 0
3327 -3220 0
-3327 3449 3418 3390 3220 0
3322 -3296 0
3322 -3416 0
-3322 3296 3416 0
3339 -3225 0
3339 -3249 0
-3339 3225 3249 0
3306 -3417 0
3306 -3516 0
-3306 3417 3516 0
3307 -3392 0
3307 -3418 0
3307 -3296 0
3307 -3516 0
-3307 3392 3418 3296 3516 0
3309 -3390 0
3309 -3296 0
3309 -3516 0
-3309 3390 3296 3516 0
3310 -3417 0
3310 -3281 0
3310 -3416 0
3310 -3516 0
-3310 3417 3281 3416 3516 0
3346 -3245 0
3346 -3421 0
-3346 3245 3421 0
3330 -3291 0
3330 -3249 0
3330 -3281 0
3330 -3417 0
-3330 3291 3249 3281 3417 0
3252 -3404 0
3252 -3254 0
-3252 3404 3254 0
3332 -3408 0
3332 -3394 0
-3332 3408 3394 0
3335 -3303 0
3335 -3395 0
-3335 3303 3395 0
3338 -3262 0
3338 -3263 0
-3338 3262 3263 0
3345 -3265 0
3345 -3266 0
-3345 3265 3266 0
3267 -3426 0
3267 -3269 0
-3267 3426 3269 0
3363 -3431 0
3363 -3398 0
-3363 3431 3398 0
3366 -3439 0
3366 -3399 0
-3366 3439 3399 0
3369 -3357 0
3369 -3400 0
-3369 3357 3400 0
3279 -3465 0
3279 -3281 0
-3279 3465 3281 0
3381 -3470 0
3381 -3390 0
-3381 3470 3390 0
3384 -3478 0
3384 -3418 0
-3384 3478 3418 0
3387 -3378 0
3387 -3392 0
-3387 3378 3392 0
3291 3342 0
3291 3392 0
-3291 -3342 -3392 0
3294 3416 0
3294 3296 0
3294 3342 0
3294 3392 0
-3294 -3416 -3296 -3342 -3392 0
3333 3408 0
3333 3394 0
-3333 -3408 -3394 0
3336 3303 0
3336 3395 0
-3336 -3303 -3395 0
3305 3306 0
3305 3307 0
-3305 -3306 -3307 0
3341 3309 0
3341 3310 0
-3341 -3309 -3310 0
3349 3414 0
3349 3449 0
-3349 -3414 -3449 0
3448 3325 0
3448 3413 0
3448 3417 0
3448 3418 0
-3448 -3325 -3413 -3417 -3418 0
3451 3325 0
3451 3390 0
3451 3322 0
3451 3323 0
-3451 -3325 -3390 -3322 -3323 0
3530 3325 0
3530 3326 0
3530 3327 0
-3530 -3325 -3326 -3327 0
3360 3411 0
3360 3330 0
-3360 -3411 -3330 0
3459 3332 0
3459 3333 0
-3459 -3332 -3333 0
3463 3335 0
3463 3336 0
-3463 -3335 -3336 0
3337 3338 0
3337 3339 0
-3337 -3338 -3339 0
3361 3341 0
3361 3342 0
3361 3449 0
-3361 -3341 -3342 -3449 0
3344 3345 0
3344 3346 0
-3344 -3345 -3346 0
3347 3360 0
3347 3349 0
-3347 -3360 -3349 0
3364 3431 0
3364 3398 0
-3364 -3431 -3398 0
3367 3439 0
3367 3399 0
-3367 -3439 -3399 0
3370 3357 0
3370 3400 0
-3370 -3357 -3400 0
3359 3360 0
3359 3361 0
-3359 -3360 -3361 0
3487 3363 0
3487 3364 0
-3487 -3363 -3364 0
3491 3366 0
3491 3367 0
-3491 -3366 -3367 0
3495 3369 0
3495 3370 0
-3495 -3369 -3370 0
3382 3470 0
3382 3390 0
-3382 -3470 -3390 0
3385 3478 0
3385 3418 0
-3385 -3478 -3418 0
3388 3378 0
3388 3392 0
-3388 -3378 -3392 0
3509 3381 0
3509 3382 0
-3509 -3381 -3382 0
3513 3384 0
3513 3385 0
-3513 -3384 -3385 0
3517 3387 0
3517 3388 0
-3517 -3387 -3388 0
-3475 -3390 0
-3475 -3418 0
-3475 -3392 0
3475 3390 3418 3392 0
-3402 -3394 0
-3402 -3395 0
-3402 -3396 0
3402 3394 3395 3396 0
-3436 -3398 0
-3436 -3399 0
-3436 -3400 0
3436 3398 3399 3400 0
-3464 -3402 0
-3464 -3403 0
3464 3402 3403 0
-3404 -3405 0
-3404 -3409 0
-3404 -3410 0
3404 3405 3409 3410 0
-3408 -3409 0
-3408 -3410 0
3408 3409 3410 0
-3411 -3516 0
-3411 -3413 0
3411 3516 3413 0
-3414 -3516 0
-3414 -3416 0
-3414 -3417 0
-3414 -3418 0
3414 3516 3416 3417 3418 0
-3440 -3464 0
-3440 -3421 0
3440 3464 3421 0
-3560 -3516 0
-3560 -3424 0
-3560 -3464 0
3560 3516 3424 3464 0
-3426 -3440 0
-3426 -3428 0
-3426 -3433 0
-3426 -3441 0
3426 3440 3428 3433 3441 0
-3431 -3440 0
-3431 -3433 0
-3431 -3441 0
3431 3440 3433 3441 0
-3496 -3436 0
-3496 -3440 0
-3496 -3438 0
3496 3436 3440 3438 0
-3439 -3440 0
-3439 -3441 0
3439 3440 3441 0
-3532 -3443 0
-3532 -3444 0
-3532 -3445 0
-3532 -3446 0
3532 3443 3444 3445 3446 0
-3524 -3448 0
-3524 -3449 0
3524 3448 3449 0
-3534 -3451 0
-3534 -3452 0
3534 3451 3452 0
-3554 -3516 0
-3554 -3455 0
-3554 -3464 0
3554 3516 3455 3464 0
-3556 -3516 0
-3556 -3459 0
-3556 -3464 0
3556 3516 3459 3464 0
-3558 -3516 0
-3558 -3463 0
-3558 -3464 0
3558 3516 3463 3464 0
-3465 -3479 0
-3465 -3467 0
-3465 -3472 0
-3465 -3480 0
3465 3479 3467 3472 3480 0
-3470 -3479 0
-3470 -3472 0
-3470 -3480 0
3470 3479 3472 3480 0
-3518 -3475 0
-3518 -3479 0
-3518 -3477 0
3518 3475 3479 3477 0
-3478 -3479 0
-3478 -3480 0
3478 3479 3480 0
-3546 -3516 0
-3546 -3483 0
-3546 -3496 0
3546 3516 3483 3496 0
-3548 -3516 0
-3548 -3487 0
-3548 -3496 0
3548 3516 3487 3496 0
-3550 -3516 0
-3550 -3491 0
-3550 -3496 0
3550 3516 3491 3496 0
-3552 -3516 0
-3552 -3495 0
-3552 -3496 0
3552 3516 3495 3496 0
-3526 -3498 0
-3526 -3499 0
3526 3498 3499 0
-3528 -3501 0
-3528 -3502 0
3528 3501 3502 0
-3538 -3516 0
-3538 -3505 0
-3538 -3518 0
3538 3516 3505 3518 0
-3540 -3516 0
-3540 -3509 0
-3540 -3518 0
3540 3516 3509 3518 0
-3542 -3516 0
-3542 -3513 0
-3542 -3518 0
3542 3516 3513 3518 0
-3544 -3516 0
-3544 -3517 0
-3544 -3518 0
3544 3516 3517 3518 0
-3520 3915 0
3520 -3915 0
-3522 3743 0
3522 -3743 0
-3524 3620 0
3524 -3620 0
-3526 3566 0
3526 -3566 0
-3528 3568 0
3528 -3568 0
-3530 3618 0
3530 -3618 0
-3532 3614 0
3532 -3614 0
-3534 3612 0
3534 -3612 0
-3536 3714 0
3536 -3714 0
-3538 3775 0
3538 -3775 0
-3540 3884 0
3540 -3884 0
-3542 3912 0
3542 -3912 0
-3544 3886 0
3544 -3886 0
-3546 3763 0
3546 -3763 0
-3548 3892 0
3548 -3892 0
-3550 3893 0
3550 -3893 0
-3552 3894 0
3552 -3894 0
-3554 3748 0
3554 -3748 0
-3556 3888 0
3556 -3888 0
-3558 3889 0
3558 -3889 0
-3560 3890 0
3560 -3890 0
3760 3915 0
-3760 -3915 0
3757 3743 0
-3757 -3743 0
3634 3566 0
-3634 -3566 0
3632 3568 0
-3632 -3568 0
3971 3775 0
-3971 -3775 0
3961 3884 0
-3961 -3884 0
3966 3912 0
-3966 -3912 0
3974 3886 0
-3974 -3886 0
3932 3763 0
-3932 -3763 0
3922 3892 0
-3922 -3892 0
3927 3893 0
-3927 -3893 0
3935 3894 0
-3935 -3894 0
3897 3748 0
-3897 -3748 0
3899 3888 0
-3899 -3888 0
3903 3889 0
-3903 -3889 0
3904 3890 0
-3904 -3890 0
3622 3594 0
-3622 -3594 0
3624 3596 0
-3624 -3596 0
3910 3743 0
-3910 -3743 0
3626 3600 0
-3626 -3600 0
3943 3886 0
-3943 -3886 0
3836 3912 0
-3836 -3912 0
3911 3884 0
-3911 -3884 0
3790 3775 0
-3790 -3775 0
3628 3890 0
-3628 -3890 0
3611 3612 0
-3611 -3612 0
3613 3614 0
-3613 -3614 0
3907 3714 0
-3907 -3714 0
3617 3618 0
-3617 -3618 0
3619 3620 0
-3619 -3620 0
3719 3622 0
-3719 -3622 0
4010 3624 0
-4010 -3624 0
3739 3626 0
-3739 -3626 0
3918 3628 0
-3918 -3628 0
3797 3904 0
-3797 -3904 0
3631 3632 0
-3631 -3632 0
3633 3634 0
-3633 -3634 0
3756 3719 0
-3756 -3719 0
3694 4010 0
-3694 -4010 0
3688 4010 0
-3688 -4010 0
3819 4010 0
-3819 -4010 0
3759 3739 0
-3759 -3739 0
3851 3934 0
-3851 -3934 0
3949 3746 0
-3949 -3746 0
3973 3990 0
-3973 -3990 0
3689 3831 0
-3689 -3831 0
3695 3838 0
-3695 -3838 0
3664 3841 0
-3664 -3841 0
3700 3841 0
-3700 -3841 0
3977 3761 0
-3977 -3761 0
3872 3973 0
-3872 -3973 0
4030 3664 0
-4030 -3664 0
3999 3773 0
-3999 -3773 0
-3946 3788 0
-3946 3714 0
3946 -3788 -3714 0
-3937 3714 0
-3937 3819 0
3937 -3714 -3819 0
-3938 3884 0
-3938 3819 0
3938 -3884 -3819 0
-3939 3886 0
-3939 3912 0
-3939 3819 0
3939 -3886 -3912 -3819 0
-3940 3943 0
-3940 3775 0
-3940 3819 0
3940 -3943 -3775 -3819 0
-3996 3841 0
-3996 3922 0
3996 -3841 -3922 0
-4016 3688 0
-4016 3689 0
4016 -3688 -3689 0
-3993 3853 0
-3993 3922 0
3993 -3853 -3922 0
-4014 3694 0
-4014 3695 0
4014 -3694 -3695 0
-3992 3700 0
-3992 3853 0
3992 -3700 -3853 0
-3995 3700 0
-3995 3799 0
3995 -3700 -3799 0
3820 -3884 0
3820 -3775 0
3820 -3714 0
-3820 3884 3775 3714 0
3817 -3886 0
3817 -3912 0
3817 -3910 0
-3817 3886 3912 3910 0
3821 -3943 0
3821 -3912 0
3821 -3884 0
3821 -3714 0
-3821 3943 3912 3884 3714 0
3816 -3790 0
3816 -3910 0
-3816 3790 3910 0
3833 -3719 0
3833 -3743 0
-3833 3719 3743 0
3800 -3911 0
3800 -4010 0
-3800 3911 4010 0
3801 -3886 0
3801 -3912 0
3801 -3790 0
3801 -4010 0
-3801 3886 3912 3790 4010 0
3803 -3884 0
3803 -3790 0
3803 -4010 0
-3803 3884 3790 4010 0
3804 -3911 0
3804 -3775 0
3804 -3910 0
3804 -4010 0
-3804 3911 3775 3910 4010 0
3840 -3739 0
3840 -3915 0
-3840 3739 3915 0
3824 -3785 0
3824 -3743 0
3824 -3775 0
3824 -3911 0
-3824 3785 3743 3775 3911 0
3746 -3898 0
3746 -3748 0
-3746 3898 3748 0
3826 -3902 0
3826 -3888 0
-3826 3902 3888 0
3829 -3797 0
3829 -3889 0
-3829 3797 3889 0
3832 -3756 0
3832 -3757 0
-3832 3756 3757 0
3839 -3759 0
3839 -3760 0
-3839 3759 3760 0
3761 -3920 0
3761 -3763 0
-3761 3920 3763 0
3857 -3925 0
3857 -3892 0
-3857 3925 3892 0
3860 -3933 0
3860 -3893 0
-3860 3933 3893 0
3863 -3851 0
3863 -3894 0
-3863 3851 3894 0
3773 -3959 0
3773 -3775 0
-3773 3959 3775 0
3875 -3964 0
3875 -3884 0
-3875 3964 3884 0
3878 -3972 0
3878 -3912 0
-3878 3972 3912 0
3881 -3872 0
3881 -3886 0
-3881 3872 3886 0
3785 3836 0
3785 3886 0
-3785 -3836 -3886 0
3788 3910 0
3788 3790 0
3788 3836 0
3788 3886 0
-3788 -3910 -3790 -3836 -3886 0
3827 3902 0
3827 3888 0
-3827 -3902 -3888 0
3830 3797 0
3830 3889 0
-3830 -3797 -3889 0
3799 3800 0
3799 3801 0
-3799 -3800 -3801 0
3835 3803 0
3835 3804 0
-3835 -3803 -3804 0
3843 3908 0
3843 3943 0
-3843 -3908 -3943 0
3942 3819 0
3942 3907 0
3942 3911 0
3942 3912 0
-3942 -3819 -3907 -3911 -3912 0
3945 3819 0
3945 3884 0
3945 3816 0
3945 3817 0
-3945 -3819 -3884 -3816 -3817 0
4024 3819 0
4024 3820 0
4024 3821 0
-4024 -3819 -3820 -3821 0
3854 3905 0
3854 3824 0
-3854 -3905 -3824 0
3953 3826 0
3953 3827 0
-3953 -3826 -3827 0
3957 3829 0
3957 3830 0
-3957 -3829 -3830 0
3831 3832 0
3831 3833 0
-3831 -3832 -3833 0
3855 3835 0
3855 3836 0
3855 3943 0
-3855 -3835 -3836 -3943 0
3838 3839 0
3838 3840 0
-3838 -3839 -3840 0
3841 3854 0
3841 3843 0
-3841 -3854 -3843 0
3858 3925 0
3858 3892 0
-3858 -3925 -3892 0
3861 3933 0
3861 3893 0
-3861 -3933 -3893 0
3864 3851 0
3864 3894 0
-3864 -3851 -3894 0
3853 3854 0
3853 3855 0
-3853 -3854 -3855 0
3981 3857 0
3981 3858 0
-3981 -3857 -3858 0
3985 3860 0
3985 3861 0
-3985 -3860 -3861 0
3989 3863 0
3989 3864 0
-3989 -3863 -3864 0
3876 3964 0
3876 3884 0
-3876 -3964 -3884 0
3879 3972 0
3879 3912 0
-3879 -3972 -3912 0
3882 3872 0
3882 3886 0
-3882 -3872 -3886 0
4003 3875 0
4003 3876 0
-4003 -3875 -3876 0
4007 3878 0
4007 3879 0
-4007 -3878 -3879 0
4011 3881 0
4011 3882 0
-4011 -3881 -3882 0
-3969 -3884 0
-3969 -3912 0
-3969 -3886 0
3969 3884 3912 3886 0
-3896 -3888 0
-3896 -3889 0
-3896 -3890 0
3896 3888 3889 3890 0
-3930 -3892 0
-3930 -3893 0
-3930 -3894 0
3930 3892 3893 3894 0
-3958 -3896 0
-3958 -3897 0
3958 3896 3897 0
-3898 -3899 0
-3898 -3903 0
-3898 -3904 0
3898 3899 3903 3904 0
-3902 -3903 0
-3902 -3904 0
3902 3903 3904 0
-3905 -4010 0
-3905 -3907 0
3905 4010 3907 0
-3908 -4010 0
-3908 -3910 0
-3908 -3911 0
-3908 -3912 0
3908 4010 3910 3911 3912 0
-3934 -3958 0
-3934 -3915 0
3934 3958 3915 0
-4054 -4010 0
-4054 -3918 0
-4054 -3958 0
4054 4010 3918 3958 0
-3920 -3934 0
-3920 -3922 0
-3920 -3927 0
-3920 -3935 0
3920 3934 3922 3927 3935 0
-3925 -3934 0
-3925 -3927 0
-3925 -3935 0
3925 3934 3927 3935 0
-3990 -3930 0
-3990 -3934 0
-3990 -3932 0
3990 3930 3934 3932 0
-3933 -3934 0
-3933 -3935 0
3933 3934 3935 0
-4026 -3937 0
-4026 -3938 0
-4026 -3939 0
-4026 -3940 0
4026 3937 3938 3939 3940 0
-4018 -3942 0
-4018 -3943 0
4018 3942 3943 0
-4028 -3945 0
-4028 -3946 0
4028 3945 3946 0
-4048 -4010 0
-4048 -3949 0
-4048 -3958 0
4048 4010 3949 3958 0
-4050 -4010 0
-4050 -3953 0
-4050 -3958 0
4050 4010 3953 3958 0
-4052 -4010 0
-4052 -3957 0
-4052 -3958 0
4052 4010 3957 3958 0
-3959 -3973 0
-3959 -3961 0
-3959 -3966 0
-3959 -3974 0
3959 3973 3961 3966 3974 0
-3964 -3973 0
-3964 -3966 0
-3964 -3974 0
3964 3973 3966 3974 0
-4012 -3969 0
-4012 -3973 0
-4012 -3971 0
4012 3969 3973 3971 0
-3972 -3973 0
-3972 -3974 0
3972 3973 3974 0
-4040 -4010 0
-4040 -3977 0
-4040 -3990 0
4040 4010 3977 3990 0
-4042 -4010 0
-4042 -3981 0
-4042 -3990 0
4042 4010 3981 3990 0
-4044 -4010 0
-4044 -3985 0
-4044 -3990 0
4044 4010 3985 3990 0
-4046 -4010 0
-4046 -3989 0
-4046 -3990 0
4046 4010 3989 3990 0
-4020 -3992 0
-4020 -3993 0
4020 3992 3993 0
-4022 -3995 0
-4022 -3996 0
4022 3995 3996 0
-4032 -4010 0
-4032 -3999 0
-4032 -4012 0
4032 4010 3999 4012 0
-4034 -4010 0
-4034 -4003 0
-4034 -4012 0
4034 4010 4003 4012 0
-4036 -4010 0
-4036 -4007 0
-4036 -4012 0
4036 4010 4007 4012 0
-4038 -4010 0
-4038 -4011 0
-4038 -4012 0
4038 4010 4011 4012 0
-4014 4409 0
4014 -4409 0
-4016 4237 0
4016 -4237 0
-4018 4114 0
4018 -4114 0
-4020 4060 0
4020 -4060 0
-4022 4062 0
4022 -4062 0
-4024 4112 0
4024 -4112 0
-4026 4108 0
4026 -4108 0
-4028 4106 0
4028 -4106 0
-4030 4208 0
4030 -4208 0
-4032 4269 0
4032 -4269 0
-4034 4378 0
4034 -4378 0
-4036 4406 0
4036 -4406 0
-4038 4380 0
4038 -4380 0
-4040 4257 0
4040 -4257 0
-4042 4386 0
4042 -4386 0
-4044 4387 0
4044 -4387 0
-4046 4388 0
4046 -4388 0
-4048 4242 0
4048 -4242 0
-4050 4382 0
4050 -4382 0
-4052 4383 0
4052 -4383 0
-4054 4384 0
4054 -4384 0
4254 4409 0
-4254 -4409 0
4251 4237 0
-4251 -4237 0
4128 4060 0
-4128 -4060 0
4126 4062 0
-4126 -4062 0
4465 4269 0
-4465 -4269 0
4455 4378 0
-4455 -4378 0
4460 4406 0
-4460 -4406 0
4468 4380 0
-4468 -4380 0
4426 4257 0
-4426 -4257 0
4416 4386 0
-4416 -4386 0
4421 4387 0
-4421 -4387 0
4429 4388 0
-4429 -4388 0
4391 4242 0
-4391 -4242 0
4393 4382 0
-4393 -4382 0
4397 4383 0
-4397 -4383 0
4398 4384 0
-4398 -4384 0
4116 4088 0
-4116 -4088 0
4118 4090 0
-4118 -4090 0
4404 4237 0
-4404 -4237 0
4120 4094 0
-4120 -4094 0
4437 4380 0
-4437 -4380 0
4330 4406 0
-4330 -4406 0
4405 4378 0
-4405 -4378 0
4284 4269 0
-4284 -4269 0
4122 4384 0
-4122 -4384 0
4105 4106 0
-4105 -4106 0
4107 4108 0
-4107 -4108 0
4401 4208 0
-4401 -4208 0
4111 4112 0
-4111 -4112 0
4113 4114 0
-4113 -4114 0
4213 4116 0
-4213 -4116 0
4504 4118 0
-4504 -4118 0
4233 4120 0
-4233 -4120 0
4412 4122 0
-4412 -4122 0
4291 4398 0
-4291 -4398 0
4125 4126 0
-4125 -4126 0
4127 4128 0
-4127 -4128 0
4250 4213 0
-4250 -4213 0
4188 4504 0
-4188 -4504 0
4182 4504 0
-4182 -4504 0
4313 4504 0
-4313 -4504 0
4253 4233 0
-4253 -4233 0
4345 4428 0
-4345 -4428 0
4443 4240 0
-4443 -4240 0
4467 4484 0
-4467 -4484 0
4183 4325 0
-4183 -4325 0
4189 4332 0
-4189 -4332 0
4158 4335 0
-4158 -4335 0
4194 4335 0
-4194 -4335 0
4471 4255 0
-4471 -4255 0
4366 4467 0
-4366 -4467 0
4524 4158 0
-4524 -4158 0
4493 4267 0
-4493 -4267 0
-4440 4282 0
-4440 4208 0
4440 -4282 -4208 0
-4431 4208 0
-4431 4313 0
4431 -4208 -4313 0
-4432 4378 0
-4432 4313 0
4432 -4378 -4313 0
-4433 4380 0
-4433 4406 0
-4433 4313 0
4433 -4380 -4406 -4313 0
-4434 4437 0
-4434 4269 0
-4434 4313 0
4434 -4437 -4269 -4313 0
-4490 4335 0
-4490 4416 0
4490 -4335 -4416 0
-4510 4182 0
-4510 4183 0
4510 -4182 -4183 0
-4487 4347 0
-4487 4416 0
4487 -4347 -4416 0
-4508 4188 0
-4508 4189 0
4508 -4188 -4189 0
-4486 4194 0
-4486 4347 0
4486 -4194 -4347 0
-4489 4194 0
-4489 4293 0
4489 -4194 -4293 0
4314 -4378 0
4314 -4269 0
4314 -4208 0
-4314 4378 4269 4208 0
4311 -4380 0
4311 -4406 0
4311 -4404 0
-4311 4380 4406 4404 0
4315 -4437 0
4315 -4406 0
4315 -4378 0
4315 -4208 0
-4315 4437 4406 4378 4208 0
4310 -4284 0
4310 -4404 0
-4310 4284 4404 0
4327 -4213 0
4327 -4237 0
-4327 4213 4237 0
4294 -4405 0
4294 -4504 0
-4294 4405 4504 0
4295 -4380 0
4295 -4406 0
4295 -4284 0
4295 -4504 0
-4295 4380 4406 4284 4504 0
4297 -4378 0
4297 -4284 0
4297 -4504 0
-4297 4378 4284 4504 0
4298 -4405 0
4298 -4269 0
4298 -4404 0
4298 -4504 0
-4298 4405 4269 4404 4504 0
4334 -4233 0
4334 -4409 0
-4334 4233 4409 0
4318 -4279 0
4318 -4237 0
4318 -4269 0
4318 -4405 0
-4318 4279 4237 4269 4405 0
4240 -4392 0
4240 -4242 0
-4240 4392 4242 0
4320 -4396 0
4320 -4382 0
-4320 4396 4382 0
4323 -4291 0
4323 -4383 0
-4323 4291 4383 0
4326 -4250 0
4326 -4251 0
-4326 4250 4251 0
4333 -4253 0
4333 -4254 0
-4333 4253 4254 0
4255 -4414 0
4255 -4257 0
-4255 4414 4257 0
4351 -4419 0
4351 -4386 0
-4351 4419 4386 0
4354 -4427 0
4354 -4387 0
-4354 4427 4387 0
4357 -4345 0
4357 -4388 0
-4357 4345 4388 0
4267 -4453 0
4267 -4269 0
-4267 4453 4269 0
4369 -4458 0
4369 -4378 0
-4369 4458 4378 0
4372 -4466 0
4372 -4406 0
-4372 4466 4406 0
4375 -4366 0
4375 -4380 0
-4375 4366 4380 0
4279 4330 0
4279 4380 0
-4279 -4330 -4380 0
4282 4404 0
4282 4284 0
4282 4330 0
4282 4380 0
-4282 -4404 -4284 -4330 -4380 0
4321 4396 0
4321 4382 0
-4321 -4396 -4382 0
4324 4291 0
4324 4383 0
-4324 -4291 -4383 0
4293 4294 0
4293 4295 0
-4293 -4294 -4295 0
4329 4297 0
4329 4298 0
-4329 -4297 -4298 0
4337 4402 0
4337 4437 0
-4337 -4402 -4437 0
4436 4313 0
4436 4401 0
4436 4405 0
4436 4406 0
-4436 -4313 -4401 -4405 -4406 0
4439 4313 0
4439 4378 0
4439 4310 0
4439 4311 0
-4439 -4313 -4378 -4310 -4311 0
4518 4313 0
4518 4314 0
4518 4315 0
-4518 -4313 -4314 -4315 0
4348 4399 0
4348 4318 0
-4348 -4399 -4318 0
4447 4320 0
4447 4321 0
-4447 -4320 -4321 0
4451 4323 0
4451 4324 0
-4451 -4323 -4324 0
4325 4326 0
4325 4327 0
-4325 -4326 -4327 0
4349 4329 0
4349 4330 0
4349 4437 0
-4349 -4329 -4330 -4437 0
4332 4333 0
4332 4334 0
-4332 -4333 -4334 0
4335 4348 0
4335 4337 0
-4335 -4348 -4337 0
4352 4419 0
4352 4386 0
-4352 -4419 -4386 0
4355 4427 0
4355 4387 0
-4355 -4427 -4387 0
4358 4345 0
4358 4388 0
-4358 -4345 -4388 0
4347 4348 0
4347 4349 0
-4347 -4348 -4349 0
4475 4351 0
4475 4352 0
-4475 -4351 -4352 0
4479 4354 0
4479 4355 0
-4479 -4354 -4355 0
4483 4357 0
4483 4358 0
-4483 -4357 -4358 0
4370 4458 0
4370 4378 0
-4370 -4458 -4378 0
4373 4466 0
4373 4406 0
-4373 -4466 -4406 0
4376 4366 0
4376 4380 0
-4376 -4366 -4380 0
4497 4369 0
4497 4370 0
-4497 -4369 -4370 0
4501 4372 0
4501 4373 0
-4501 -4372 -4373 0
4505 4375 0
4505 4376 0
-4505 -4375 -4376 0
-4463 -4378 0
-4463 -4406 0
-4463 -4380 0
4463 4378 4406 4380 0
-4390 -4382 0
-4390 -4383 0
-4390 -4384 0
4390 4382 4383 4384 0
-4424 -4386 0
-4424 -4387 0
-4424 -4388 0
4424 4386 4387 4388 0
-4452 -4390 0
-4452 -4391 0
4452 4390 4391 0
-4392 -4393 0
-4392 -4397 0
-4392 -4398 0
4392 4393 4397 4398 0
-4396 -4397 0
-4396 -4398 0
4396 4397 4398 0
-4399 -4504 0
-4399 -4401 0
4399 4504 4401 0
-4402 -4504 0
-4402 -4404 0
-4402 -4405 0
-4402 -4406 0
4402 4504 4404 4405 4406 0
-4428 -4452 0
-4428 -4409 0
4428 4452 4409 0
-4548 -4504 0
-4548 -4412 0
-4548 -4452 0
4548 4504 4412 4452 0
-4414 -4428 0
-4414 -4416 0
-4414 -4421 0
-4414 -4429 0
4414 4428 4416 4421 4429 0
-4419 -4428 0
-4419 -4421 0
-4419 -4429 0
4419 4428 4421 4429 0
-4484 -4424 0
-4484 -4428 0
-4484 -4426 0
4484 4424 4428 4426 0
-4427 -4428 0
-4427 -4429 0
4427 4428 4429 0
-4520 -4431 0
-4520 -4432 0
-4520 -4433 0
-4520 -4434 0
4520 4431 4432 4433 4434 0
-4512 -4436 0
-4512 -4437 0
4512 4436 4437 0
-4522 -4439 0
-4522 -4440 0
4522 4439 4440 0
-4542 -4504 0
-4542 -4443 0
-4542 -4452 0
4542 4504 4443 4452 0
-4544 -4504 0
-4544 -4447 0
-4544 -4452 0
4544 4504 4447 4452 0
-4546 -4504 0
-4546 -4451 0
-4546 -4452 0
4546 4504 4451 4452 0
-4453 -4467 0
-4453 -4455 0
-4453 -4460 0
-4453 -4468 0
4453 4467 4455 4460 4468 0
-4458 -4467 0
-4458 -4460 0
-4458 -4468 0
4458 4467 4460 4468 0
-4506 -4463 0
-4506 -4467 0
-4506 -4465 0
4506 4463 4467 4465 0
-4466 -4467 0
-4466 -4468 0
4466 4467 4468 0
-4534 -4504 0
-4534 -4471 0
-4534 -4484 0
4534 4504 4471 4484 0
-4536 -4504 0
-4536 -4475 0
-4536 -4484 0
4536 4504 4475 4484 0
-4538 -4504 0
-4538 -4479 0
-4538 -4484 0
4538 4504 4479 4484 0
-4540 -4504 0
-4540 -4483 0
-4540 -4484 0
4540 4504 4483 4484 0
-4514 -4486 0
-4514 -4487 0
4514 4486 4487 0
-4516 -4489 0
-4516 -4490 0
4516 4489 4490 0
-4526 -4504 0
-4526 -4493 0
-4526 -4506 0
4526 4504 4493 4506 0
-4528 -4504 0
-4528 -4497 0
-4528 -4506 0
4528 4504 4497 4506 0
-4530 -4504 0
-4530 -4501 0
-4530 -4506 0
4530 4504 4501 4506 0
-4532 -4504 0
-4532 -4505 0
-4532 -4506 0
4532 4504 4505 4506 0
-4508 4903 0
4508 -4903 0
-4510 4731 0
4510 -4731 0
-4512 4608 0
4512 -4608 0
-4514 4554 0
4514 -4554 0
-4516 4556 0
4516 -4556 0
-4518 4606 0
4518 -4606 0
-4520 4602 0
4520 -4602 0
-4522 4600 0
4522 -4600 0
-4524 4702 0
4524 -4702 0
-4526 4763 0
4526 -4763 0
-4528 4872 0
4528 -4872 0
-4530 4900 0
4530 -4900 0
-4532 4874 0
4532 -4874 0
-4534 4751 0
4534 -4751 0
-4536 4880 0
4536 -4880 0
-4538 4881 0
4538 -4881 0
-4540 4882 0
4540 -4882 0
-4542 4736 0
4542 -4736 0
-4544 4876 0
4544 -4876 0
-4546 4877 0
4546 -4877 0
-4548 4878 0
4548 -4878 0
4748 4903 0
-4748 -4903 0
4745 4731 0
-4745 -4731 0
4622 4554 0
-4622 -4554 0
4620 4556 0
-4620 -4556 0
4959 4763 0
-4959 -4763 0
4949 4872 0
-4949 -4872 0
4954 4900 0
-4954 -4900 0
4962 4874 0
-4962 -4874 0
4920 4751 0
-4920 -4751 0
4910 4880 0
-4910 -4880 0
4915 4881 0
-4915 -4881 0
4923 4882 0
-4923 -4882 0
4885 4736 0
-4885 -4736 0
4887 4876 0
-4887 -4876 0
4891 4877 0
-4891 -4877 0
4892 4878 0
-4892 -4878 0
4610 4582 0
-4610 -4582 0
4612 4584 0
-4612 -4584 0
4898 4731 0
-4898 -4731 0
4614 4588 0
-4614 -4588 0
4931 4874 0
-4931 -4874 0
4824 4900 0
-4824 -4900 0
4899 4872 0
-4899 -4872 0
4778 4763 0
-4778 -4763 0
4616 4878 0
-4616 -4878 0
4599 4600 0
-4599 -4600 0
4601 4602 0
-4601 -4602 0
4895 4702 0
-4895 -4702 0
4605 4606 0
-4605 -4606 0
4607 4608 0
-4607 -4608 0
4707 4610 0
-4707 -4610 0
4998 4612 0
-4998 -4612 0
4727 4614 0
-4727 -4614 0
4906 4616 0
-4906 -4616 0
4785 4892 0
-4785 -4892 0
4619 4620 0
-4619 -4620 0
4621 4622 0
-4621 -4622 0
4744 4707 0
-4744 -4707 0
4682 4998 0
-4682 -4998 0
4676 4998 0
-4676 -4998 0
4807 4998 0
-4807 -4998 0
4747 4727 0
-4747 -4727 0
4839 4922 0
-4839 -4922 0
4937 4734 0
-4937 -4734 0
4961 4978 0
-4961 -4978 0
4677 4819 0
-4677 -4819 0
4683 4826 0
-4683 -4826 0
4652 4829 0
-4652 -4829 0
4688 4829 0
-4688 -4829 0
4965 4749 0
-4965 -4749 0
4860 4961 0
-4860 -4961 0
5018 4652 0
-5018 -4652 0
4987 4761 0
-4987 -4761 0
-4934 4776 0
-4934 4702 0
4934 -4776 -4702 0
-4925 4702 0
-4925 4807 0
4925 -4702 -4807 0
-4926 4872 0
-4926 4807 0
4926 -4872 -4807 0
-4927 4874 0
-4927 4900 0
-4927 4807 0
4927 -4874 -4900 -4807 0
-4928 4931 0
-4928 4763 0
-4928 4807 0
4928 -4931 -4763 -4807 0
-4984 4829 0
-4984 4910 0
4984 -4829 -4910 0
-5004 4676 0
-5004 4677 0
5004 -4676 -4677 0
-4981 4841 0
-4981 4910 0
4981 -4841 -4910 0
-5002 4682 0
-5002 4683 0
5002 -4682 -4683 0
-4980 4688 0
-4980 4841 0
4980 -4688 -4841 0
-4983 4688 0
-4983 4787 0
4983 -4688 -4787 0
4808 -4872 0
4808 -4763 0
4808 -4702 0
-4808 4872 4763 4702 0
4805 -4874 0
4805 -4900 0
4805 -4898 0
-4805 4874 4900 4898 0
4809 -4931 0
4809 -4900 0
4809 -4872 0
4809 -4702 0
-4809 4931 4900 4872 4702 0
4804 -4778 0
4804 -4898 0
-4804 4778 4898 0
4821 -4707 0
4821 -4731 0
-4821 4707 4731 0
4788 -4899 0
4788 -4998 0
-4788 4899 4998 0
4789 -4874 0
4789 -4900 0
4789 -4778 0
4789 -4998 0
-4789 4874 4900 4778 4998 0
4791 -4872 0
4791 -4778 0
4791 -4998 0
-4791 4872 4778 4998 0
4792 -4899 0
4792 -4763 0
4792 -4898 0
4792 -4998 0
-4792 4899 4763 4898 4998 0
4828 -4727 0
4828 -4903 0
-4828 4727 4903 0
4812 -4773 0
4812 -4731 0
4812 -4763 0
4812 -4899 0
-4812 4773 4731 4763 4899 0
4734 -4886 0
4734 -4736 0
-4734 4886 4736 0
4814 -4890 0
4814 -4876 0
-4814 4890 4876 0
4817 -4785 0
4817 -4877 0
-4817 4785 4877 0
4820 -4744 0
4820 -4745 0
-4820 4744 4745 0
4827 -4747 0
4827 -4748 0
-4827 4747 4748 0
4749 -4908 0
4749 -4751 0
-4749 4908 4751 0
4845 -4913 0
4845 -4880 0
-4845 4913 4880 0
4848 -4921 0
4848 -4881 0
-4848 4921 4881 0
4851 -4839 0
4851 -4882 0
-4851 4839 4882 0
4761 -4947 0
4761 -4763 0
-4761 4947 4763 0
4863 -4952 0
4863 -4872 0
-4863 4952 4872 0
4866 -4960 0
4866 -4900 0
-4866 4960 4900 0
4869 -4860 0
4869 -4874 0
-4869 4860 4874 0
4773 4824 0
4773 4874 0
-4773 -4824 -4874 0
4776 4898 0
4776 4778 0
4776 4824 0
4776 4874 0
-4776 -4898 -4778 -4824 -4874 0
4815 4890 0
4815 4876 0
-4815 -4890 -4876 0
4818 4785 0
4818 4877 0
-4818 -4785 -4877 0
4787 4788 0
4787 4789 0
-4787 -4788 -4789 0
4823 4791 0
4823 4792 0
-4823 -4791 -4792 0
4831 4896 0
4831 4931 0
-4831 -4896 -4931 0
4930 4807 0
4930 4895 0
4930 4899 0
4930 4900 0
-4930 -4807 -4895 -4899 -4900 0
4933 4807 0
4933 4872 0
4933 4804 0
4933 4805 0
-4933 -4807 -4872 -4804 -4805 0
5012 4807 0
5012 4808 0
5012 4809 0
-5012 -4807 -4808 -4809 0
4842 4893 0
4842 4812 0
-4842 -4893 -4812 0
4941 4814 0
4941 4815 0
-4941 -4814 -4815 0
4945 4817 0
4945 4818 0
-4945 -4817 -4818 0
4819 4820 0
4819 4821 0
-4819 -4820 -4821 0
4843 4823 0
4843 4824 0
4843 4931 0
-4843 -4823 -4824 -4931 0
4826 4827 0
4826 4828 0
-4826 -4827 -4828 0
4829 4842 0
4829 4831 0
-4829 -4842 -4831 0
4846 4913 0
4846 4880 0
-4846 -4913 -4880 0
4849 4921 0
4849 4881 0
-4849 -4921 -4881 0
4852 4839 0
4852 4882 0
-4852 -4839 -4882 0
4841 4842 0
4841 4843 0
-4841 -4842 -4843 0
4969 4845 0
4969 4846 0
-4969 -4845 -4846 0
4973 4848 0
4973 4849 0
-4973 -4848 -4849 0
4977 4851 0
4977 4852 0
-4977 -4851 -4852 0
4864 4952 0
4864 4872 0
-4864 -4952 -4872 0
4867 4960 0
4867 4900 0
-4867 -4960 -4900 0
4870 4860 0
4870 4874 0
-4870 -4860 -4874 0
4991 4863 0
4991 4864 0
-4991 -4863 -4864 0
4995 4866 0
4995 4867 0
-4995 -4866 -4867 0
4999 4869 0
4999 4870 0
-4999 -4869 -4870 0
-4957 -4872 0
-4957 -4900 0
-4957 -4874 0
4957 4872 4900 4874 0
-4884 -4876 0
-4884 -4877 0
-4884 -4878 0
4884 4876 4877 4878 0
-4918 -4880 0
-4918 -4881 0
-4918 -4882 0
4918 4880 4881 4882 0
-4946 -4884 0
-4946 -4885 0
4946 4884 4885 0
-4886 -4887 0
-4886 -4891 0
-4886 -4892 0
4886 4887 4891 4892 0
-4890 -4891 0
-4890 -4892 0
4890 4891 4892 0
-4893 -4998 0
-4893 -4895 0
4893 4998 4895 0
-4896 -4998 0
-4896 -4898 0
-4896 -4899 0
-4896 -4900 0
4896 4998 4898 4899 4900 0
-4922 -4946 0
-4922 -4903 0
4922 4946 4903 0
-5042 -4998 0
-5042 -4906 0
-5042 -4946 0
5042 4998 4906 4946 0
-4908 -4922 0
-4908 -4910 0
-4908 -4915 0
-4908 -4923 0
4908 4922 4910 4915 4923 0
-4913 -4922 0
-4913 -4915 0
-4913 -4923 0
4913 4922 4915 4923 0
-4978 -4918 0
-4978 -4922 0
-4978 -4920 0
4978 4918 4922 4920 0
-4921 -4922 0
-4921 -4923 0
4921 4922 4923 0
-5014 -4925 0
-5014 -4926 0
-5014 -4927 0
-5014 -4928 0
5014 4925 4926 4927 4928 0
-5006 -4930 0
-5006 -4931 0
5006 4930 4931 0
-5016 -4933 0
-5016 -4934 0
5016 4933 4934 0
-5036 -4998 0
-5036 -4937 0
-5036 -4946 0
5036 4998 4937 4946 0
-5038 -4998 0
-5038 -4941 0
-5038 -4946 0
5038 4998 4941 4946 0
-5040 -4998 0
-5040 -4945 0
-5040 -4946 0
5040 4998 4945 4946 0
-4947 -4961 0
-4947 -4949 0
-4947 -4954 0
-4947 -4962 0
4947 4961 4949 4954 4962 0
-4952 -4961 0
-4952 -4954 0
-4952 -4962 0
4952 4961 4954 4962 0
-5000 -4957 0
-5000 -4961 0
-5000 -4959 0
5000 4957 4961 4959 0
-4960 -4961 0
-4960 -4962 0
4960 4961 4962 0
-5028 -4998 0
-5028 -4965 0
-5028 -4978 0
5028 4998 4965 4978 0
-5030 -4998 0
-5030 -4969 0
-5030 -4978 0
5030 4998 4969 4978 0
-5032 -4998 0
-5032 -4973 0
-5032 -4978 0
5032 4998 4973 4978 0
-5034 -4998 0
-5034 -4977 0
-5034 -4978 0
5034 4998 4977 4978 0
-5008 -4980 0
-5008 -4981 0
5008 4980 4981 0
-5010 -4983 0
-5010 -4984 0
5010 4983 4984 0
-5020 -4998 0
-5020 -4987 0
-5020 -5000 0
5020 4998 4987 5000 0
-5022 -4998 0
-5022 -4991 0
-5022 -5000 0
5022 4998 4991 5000 0
-5024 -4998 0
-5024 -4995 0
-5024 -5000 0
5024 4998 4995 5000 0
-5026 -4998 0
-5026 -4999 0
-5026 -5000 0
5026 4998 4999 5000 0
-5002 5397 0
5002 -5397 0
-5004 5225 0
5004 -5225 0
-5006 5102 0
5006 -5102 0
-5008 5048 0
5008 -5048 0
-5010 5050 0
5010 -5050 0
-5012 5100 0
5012 -5100 0
-5014 5096 0
5014 -5096 0
-5016 5094 0
5016 -5094 0
-5018 5196 0
5018 -5196 0
-5020 5257 0
5020 -5257 0
-5022 5366 0
5022 -5366 0
-5024 5394 0
5024 -5394 0
-5026 5368 0
5026 -5368 0
-5028 5245 0
5028 -5245 0
-5030 5374 0
5030 -5374 0
-5032 5375 0
5032 -5375 0
-5034 5376 0
5034 -5376 0
-5036 5230 0
5036 -5230 0
-5038 5370 0
5038 -5370 0
-5040 5371 0
5040 -5371 0
-5042 5372 0
5042 -5372 0
5242 5397 0
-5242 -5397 0
5239 5225 0
-5239 -5225 0
5116 5048 0
-5116 -5048 0
5114 5050 0
-5114 -5050 0
5453 5257 0
-5453 -5257 0
5443 5366 0
-5443 -5366 0
5448 5394 0
-5448 -5394 0
5456 5368 0
-5456 -5368 0
5414 5245 0
-5414 -5245 0
5404 5374 0
-5404 -5374 0
5409 5375 0
-5409 -5375 0
5417 5376 0
-5417 -5376 0
5379 5230 0
-5379 -5230 0
5381 5370 0
-5381 -5370 0
5385 5371 0
-5385 -5371 0
5386 5372 0
-5386 -5372 0
5104 5076 0
-5104 -5076 0
5106 5078 0
-5106 -5078 0
5392 5225 0
-5392 -5225 0
5108 5082 0
-5108 -5082 0
5425 5368 0
-5425 -5368 0
5318 5394 0
-5318 -5394 0
5393 5366 0
-5393 -5366 0
5272 5257 0
-5272 -5257 0
5110 5372 0
-5110 -5372 0
5093 5094 0
-5093 -5094 0
5095 5096 0
-5095 -5096 0
5389 5196 0
-5389 -5196 0
5099 5100 0
-5099 -5100 0
5101 5102 0
-5101 -5102 0
5201 5104 0
-5201 -5104 0
5492 5106 0
-5492 -5106 0
5221 5108 0
-5221 -5108 0
5400 5110 0
-5400 -5110 0
5279 5386 0
-5279 -5386 0
5113 5114 0
-5113 -5114 0
5115 5116 0
-5115 -5116 0
5238 5201 0
-5238 -5201 0
5176 5492 0
-5176 -5492 0
5170 5492 0
-5170 -5492 0
5301 5492 0
-5301 -5492 0
5241 5221 0
-5241 -5221 0
5333 5416 0
-5333 -5416 0
5431 5228 0
-5431 -5228 0
5455 5472 0
-5455 -5472 0
5171 5313 0
-5171 -5313 0
5177 5320 0
-5177 -5320 0
5146 5323 0
-5146 -5323 0
5182 5323 0
-5182 -5323 0
5459 5243 0
-5459 -5243 0
5354 5455 0
-5354 -5455 0
5512 5146 0
-5512 -5146 0
5481 5255 0
-5481 -5255 0
-5428 5270 0
-5428 5196 0
5428 -5270 -5196 0
-5419 5196 0
-5419 5301 0
5419 -5196 -5301 0
-5420 5366 0
-5420 5301 0
5420 -5366 -5301 0
-5421 5368 0
-5421 5394 0
-5421 5301 0
5421 -5368 -5394 -5301 0
-5422 5425 0
-5422 5257 0
-5422 5301 0
5422 -5425 -5257 -5301 0
-5478 5323 0
-5478 5404 0
5478 -5323 -5404 0
-5498 5170 0
-5498 5171 0
5498 -5170 -5171 0
-5475 5335 0
-5475 5404 0
5475 -5335 -5404 0
-5496 5176 0
-5496 5177 0
5496 -5176 -5177 0
-5474 5182 0
-5474 5335 0
5474 -5182 -5335 0
-5477 5182 0
-5477 5281 0
5477 -5182 -5281 0
5302 -5366 0
5302 -5257 0
5302 -5196 0
-5302 5366 5257 5196 0
5299 -5368 0
5299 -5394 0
5299 -5392 0
-5299 5368 5394 5392 0
5303 -5425 0
5303 -5394 0
5303 -5366 0
5303 -5196 0
-5303 5425 5394 5366 5196 0
5298 -5272 0
5298 -5392 0
-5298 5272 5392 0
5315 -5201 0
5315 -5225 0
-5315 5201 5225 0
5282 -5393 0
5282 -5492 0
-5282 5393 5492 0
5283 -5368 0
5283 -5394 0
5283 -5272 0
5283 -5492 0
-5283 5368 5394 5272 5492 0
5285 -5366 0
5285 -5272 0
5285 -5492 0
-5285 5366 5272 5492 0
5286 -5393 0
5286 -5257 0
5286 -5392 0
5286 -5492 0
-5286 5393 5257 5392 5492 0
5322 -5221 0
5322 -5397 0
-5322 5221 5397 0
5306 -5267 0
5306 -5225 0
5306 -5257 0
5306 -5393 0
-5306 5267 5225 5257 5393 0
5228 -5380 0
5228 -5230 0
-5228 5380 5230 0
5308 -5384 0
5308 -5370 0
-5308 5384 5370 0
5311 -5279 0
5311 -5371 0
-5311 5279 5371 0
5314 -5238 0
5314 -5239 0
-5314 5238 5239 0
5321 -5241 0
5321 -5242 0
-5321 5241 5242 0
5243 -5402 0
5243 -5245 0
-5243 5402 5245 0
5339 -5407 0
5339 -5374 0
-5339 5407 5374 0
5342 -5415 0
5342 -5375 0
-5342 5415 5375 0
5345 -5333 0
5345 -5376 0
-5345 5333 5376 0
5255 -5441 0
5255 -5257 0
-5255 5441 5257 0
5357 -5446 0
5357 -5366 0
-5357 5446 5366 0
5360 -5454 0
5360 -5394 0
-5360 5454 5394 0
5363 -5354 0
5363 -5368 0
-5363 5354 5368 0
5267 5318 0
5267 5368 0
-5267 -5318 -5368 0
5270 5392 0
5270 5272 0
5270 5318 0
5270 5368 0
-5270 -5392 -5272 -5318 -5368 0
5309 5384 0
5309 5370 0
-5309 -5384 -5370 0
5312 5279 0
5312 5371 0
-5312 -5279 -5371 0
5281 5282 0
5281 5283 0
-5281 -5282 -5283 0
5317 5285 0
5317 5286 0
-5317 -5285 -5286 0
5325 5390 0
5325 5425 0
-5325 -5390 -5425 0
5424 5301 0
5424 5389 0
5424 5393 0
5424 5394 0
-5424 -5301 -5389 -5393 -5394 0
5427 5301 0
5427 5366 0
5427 5298 0
5427 5299 0
-5427 -5301 -5366 -5298 -5299 0
5506 5301 0
5506 5302 0
5506 5303 0
-5506 -5301 -5302 -5303 0
5336 5387 0
5336 5306 0
-5336 -5387 -5306 0
5435 5308 0
5435 5309 0
-5435 -5308 -5309 0
5439 5311 0
5439 5312 0
-5439 -5311 -5312 0
5313 5314 0
5313 5315 0
-5313 -5314 -5315 0
5337 5317 0
5337 5318 0
5337 5425 0
-5337 -5317 -5318 -5425 0
5320 5321 0
5320 5322 0
-5320 -5321 -5322 0
5323 5336 0
5323 5325 0
-5323 -5336 -5325 0
5340 5407 0
5340 5374 0
-5340 -5407 -5374 0
5343 5415 0
5343 5375 0
-5343 -5415 -5375 0
5346 5333 0
5346 5376 0
-5346 -5333 -5376 0
5335 5336 0
5335 5337 0
-5335 -5336 -5337 0
5463 5339 0
5463 5340 0
-5463 -5339 -5340 0
5467 5342 0
5467 5343 0
-5467 -5342 -5343 0
5471 5345 0
5471 5346 0
-5471 -5345 -5346 0
5358 5446 0
5358 5366 0
-5358 -5446 -5366 0
5361 5454 0
5361 5394 0
-5361 -5454 -5394 0
5364 5354 0
5364 5368 0
-5364 -5354 -5368 0
5485 5357 0
5485 5358 0
-5485 -5357 -5358 0
5489 5360 0
5489 5361 0
-5489 -5360 -5361 0
5493 5363 0
5493 5364 0
-5493 -5363 -5364 0
-5451 -5366 0
-5451 -5394 0
-5451 -5368 0
5451 5366 5394 5368 0
-5378 -5370 0
-5378 -5371 0
-5378 -5372 0
5378 5370 5371 5372 0
-5412 -5374 0
-5412 -5375 0
-5412 -5376 0
5412 5374 5375 5376 0
-5440 -5378 0
-5440 -5379 0
5440 5378 5379 0
-5380 -5381 0
-5380 -5385 0
-5380 -5386 0
5380 5381 5385 5386 0
-5384 -5385 0
-5384 -5386 0
5384 5385 5386 0
-5387 -5492 0
-5387 -5389 0
5387 5492 5389 0
-5390 -5492 0
-5390 -5392 0
-5390 -5393 0
-5390 -5394 0
5390 5492 5392 5393 5394 0
-5416 -5440 0
-5416 -5397 0
5416 5440 5397 0
-5536 -5492 0
-5536 -5400 0
-5536 -5440 0
5536 5492 5400 5440 0
-5402 -5416 0
-5402 -5404 0
-5402 -5409 0
-5402 -5417 0
5402 5416 5404 5409 5417 0
-5407 -5416 0
-5407 -5409 0
-5407 -5417 0
5407 5416 5409 5417 0
-5472 -5412 0
-5472 -5416 0
-5472 -5414 0
5472 5412 5416 5414 0
-5415 -5416 0
-5415 -5417 0
5415 5416 5417 0
-5508 -5419 0
-5508 -5420 0
-5508 -5421 0
-5508 -5422 0
5508 5419 5420 5421 5422 0
-5500 -5424 0
-5500 -5425 0
5500 5424 5425 0
-5510 -5427 0
-5510 -5428 0
5510 5427 5428 0
-5530 -5492 0
-5530 -5431 0
-5530 -5440 0
5530 5492 5431 5440 0
-5532 -5492 0
-5532 -5435 0
-5532 -5440 0
5532 5492 5435 5440 0
-5534 -5492 0
-5534 -5439 0
-5534 -5440 0
5534 5492 5439 5440 0
-5441 -5455 0
-5441 -5443 0
-5441 -5448 0
-5441 -5456 0
5441 5455 5443 5448 5456 0
-5446 -5455 0
-5446 -5448 0
-5446 -5456 0
5446 5455 5448 5456 0
-5494 -5451 0
-5494 -5455 0
-5494 -5453 0
5494 5451 5455 5453 0
-5454 -5455 0
-5454 -5456 0
5454 5455 5456 0
-5522 -5492 0
-5522 -5459 0
-5522 -5472 0
5522 5492 5459 5472 0
-5524 -5492 0
-5524 -5463 0
-5524 -5472 0
5524 5492 5463 5472 0
-5526 -5492 0
-5526 -5467 0
-5526 -5472 0
5526 5492 5467 5472 0
-5528 -5492 0
-5528 -5471 0
-5528 -5472 0
5528 5492 5471 5472 0
-5502 -5474 0
-5502 -5475 0
5502 5474 5475 0
-5504 -5477 0
-5504 -5478 0
5504 5477 5478 0
-5514 -5492 0
-5514 -5481 0
-5514 -5494 0
5514 5492 5481 5494 0
-5516 -5492 0
-5516 -5485 0
-5516 -5494 0
5516 5492 5485 5494 0
-5518 -5492 0
-5518 -5489 0
-5518 -5494 0
5518 5492 5489 5494 0
-5520 -5492 0
-5520 -5493 0
-5520 -5494 0
5520 5492 5493 5494 0
-5496 5891 0
5496 -5891 0
-5498 5719 0
5498 -5719 0
-5500 5596 0
5500 -5596 0
-5502 5542 0
5502 -5542 0
-5504 5544 0
5504 -5544 0
-5506 5594 0
5506 -5594 0
-5508 5590 0
5508 -5590 0
-5510 5588 0
5510 -5588 0
-5512 5690 0
5512 -5690 0
-5514 5751 0
5514 -5751 0
-5516 5860 0
5516 -5860 0
-5518 5888 0
5518 -5888 0
-5520 5862 0
5520 -5862 0
-5522 5739 0
5522 -5739 0
-5524 5868 0
5524 -5868 0
-5526 5869 0
5526 -5869 0
-5528 5870 0
5528 -5870 0
-5530 5724 0
5530 -5724 0
-5532 5864 0
5532 -5864 0
-5534 5865 0
5534 -5865 0
-5536 5866 0
5536 -5866 0
5736 5891 0
-5736 -5891 0
5733 5719 0
-5733 -5719 0
5610 5542 0
-5610 -5542 0
5608 5544 0
-5608 -5544 0
5947 5751 0
-5947 -5751 0
5937 5860 0
-5937 -5860 0
5942 5888 0
-5942 -5888 0
5950 5862 0
-5950 -5862 0
5908 5739 0
-5908 -5739 0
5898 5868 0
-5898 -5868 0
5903 5869 0
-5903 -5869 0
5911 5870 0
-5911 -5870 0
5873 5724 0
-5873 -5724 0
5875 5864 0
-5875 -5864 0
5879 5865 0
-5879 -5865 0
5880 5866 0
-5880 -5866 0
5598 5570 0
-5598 -5570 0
5600 5572 0
-5600 -5572 0
5886 5719 0
-5886 -5719 0
5602 5576 0
-5602 -5576 0
5919 5862 0
-5919 -5862 0
5812 5888 0
-5812 -5888 0
5887 5860 0
-5887 -5860 0
5766 5751 0
-5766 -5751 0
5604 5866 0
-5604 -5866 0
5587 5588 0
-5587 -5588 0
5589 5590 0
-5589 -5590 0
5883 5690 0
-5883 -5690 0
5593 5594 0
-5593 -5594 0
5595 5596 0
-5595 -5596 0
5695 5598 0
-5695 -5598 0
5986 5600 0
-5986 -5600 0
5715 5602 0
-5715 -5602 0
5894 5604 0
-5894 -5604 0
5773 5880 0
-5773 -5880 0
5607 5608 0
-5607 -5608 0
5609 5610 0
-5609 -5610 0
5732 5695 0
-5732 -5695 0
5670 5986 0
-5670 -5986 0
5664 5986 0
-5664 -5986 0
5795 5986 0
-5795 -5986 0
5735 5715 0
-5735 -5715 0
5827 5910 0
-5827 -5910 0
5925 5722 0
-5925 -5722 0
5949 5966 0
-5949 -5966 0
5665 5807 0
-5665 -5807 0
5671 5814 0
-5671 -5814 0
5640 5817 0
-5640 -5817 0
5676 5817 0
-5676 -5817 0
5953 5737 0
-5953 -5737 0
5848 5949 0
-5848 -5949 0
6006 5640 0
-6006 -5640 0
5975 5749 0
-5975 -5749 0
-5922 5764 0
-5922 5690 0
5922 -5764 -5690 0
-5913 5690 0
-5913 5795 0
5913 -5690 -5795 0
-5914 5860 0
-5914 5795 0
5914 -5860 -5795 0
-5915 5862 0
-5915 5888 0
-5915 5795 0
5915 -5862 -5888 -5795 0
-5916 5919 0
-5916 5751 0
-5916 5795 0
5916 -5919 -5751 -5795 0
-5972 5817 0
-5972 5898 0
5972 -5817 -5898 0
-5992 5664 0
-5992 5665 0
5992 -5664 -5665 0
-5969 5829 0
-5969 5898 0
5969 -5829 -5898 0
-5990 5670 0
-5990 5671 0
5990 -5670 -5671 0
-5968 5676 0
-5968 5829 0
5968 -5676 -5829 0
-5971 5676 0
-5971 5775 0
5971 -5676 -5775 0
5796 -5860 0
5796 -5751 0
5796 -5690 0
-5796 5860 5751 5690 0
5793 -5862 0
5793 -5888 0
5793 -5886 0
-5793 5862 5888 5886 0
5797 -5919 0
5797 -5888 0
5797 -5860 0
5797 -5690 0
-5797 5919 5888 5860 5690 0
5792 -5766 0
5792 -5886 0
-5792 5766 5886 0
5809 -5695 0
5809 -5719 0
-5809 5695 5719 0
5776 -5887 0
5776 -5986 0
-5776 5887 5986 0
5777 -5862 0
5777 -5888 0
5777 -5766 0
5777 -5986 0
-5777 5862 5888 5766 5986 0
5779 -5860 0
5779 -5766 0
5779 -5986 0
-5779 5860 5766 5986 0
5780 -5887 0
5780 -5751 0
5780 -5886 0
5780 -5986 0
-5780 5887 5751 5886 5986 0
5816 -5715 0
5816 -5891 0
-5816 5715 5891 0
5800 -5761 0
5800 -5719 0
5800 -5751 0
5800 -5887 0
-5800 5761 5719 5751 5887 0
5722 -5874 0
5722 -5724 0
-5722 5874 5724 0
5802 -5878 0
5802 -5864 0
-5802 5878 5864 0
5805 -5773 0
5805 -5865 0
-5805 5773 5865 0
5808 -5732 0
5808 -5733 0
-5808 5732 5733 0
5815 -5735 0
5815 -5736 0
-5815 5735 5736 0
5737 -5896 0
5737 -5739 0
-5737 5896 5739 0
5833 -5901 0
5833 -5868 0
-5833 5901 5868 0
5836 -5909 0
5836 -5869 0
-5836 5909 5869 0
5839 -5827 0
5839 -5870 0
-5839 5827 5870 0
5749 -5935 0
5749 -5751 0
-5749 5935 5751 0
5851 -5940 0
5851 -5860 0
-5851 5940 5860 0
5854 -5948 0
5854 -5888 0
-5854 5948 5888 0
5857 -5848 0
5857 -5862 0
-5857 5848 5862 0
5761 5812 0
5761 5862 0
-5761 -5812 -5862 0
5764 5886 0
5764 5766 0
5764 5812 0
5764 5862 0
-5764 -5886 -5766 -5812 -5862 0
5803 5878 0
5803 5864 0
-5803 -5878 -5864 0
5806 5773 0
5806 5865 0
-5806 -5773 -5865 0
5775 5776 0
5775 5777 0
-5775 -5776 -5777 0
5811 5779 0
5811 5780 0
-5811 -5779 -5780 0
5819 5884 0
5819 5919 0
-5819 -5884 -5919 0
5918 5795 0
5918 5883 0
5918 5887 0
5918 5888 0
-5918 -5795 -5883 -5887 -5888 0
5921 5795 0
5921 5860 0
5921 5792 0
5921 5793 0
-5921 -5795 -5860 -5792 -5793 0
6000 5795 0
6000 5796 0
6000 5797 0
-6000 -5795 -5796 -5797 0
5830 5881 0
5830 5800 0
-5830 -5881 -5800 0
5929 5802 0
5929 5803 0
-5929 -5802 -5803 0
5933 5805 0
5933 5806 0
-5933 -5805 -5806 0
5807 5808 0
5807 5809 0
-5807 -5808 -5809 0
5831 5811 0
5831 5812 0
5831 5919 0
-5831 -5811 -5812 -5919 0
5814 5815 0
5814 5816 0
-5814 -5815 -5816 0
5817 5830 0
5817 5819 0
-5817 -5830 -5819 0
5834 5901 0
5834 5868 0
-5834 -5901 -5868 0
5837 5909 0
5837 5869 0
-5837 -5909 -5869 0
5840 5827 0
5840 5870 0
-5840 -5827 -5870 0
5829 5830 0
5829 5831 0
-5829 -5830 -5831 0
5957 5833 0
5957 5834 0
-5957 -5833 -5834 0
5961 5836 0
5961 5837 0
-5961 -5836 -5837 0
5965 5839 0
5965 5840 0
-5965 -5839 -5840 0
5852 5940 0
5852 5860 0
-5852 -5940 -5860 0
5855 5948 0
5855 5888 0
-5855 -5948 -5888 0
5858 5848 0
5858 5862 0
-5858 -5848 -5862 0
5979 5851 0
5979 5852 0
-5979 -5851 -5852 0
5983 5854 0
5983 5855 0
-5983 -5854 -5855 0
5987 5857 0
5987 5858 0
-5987 -5857 -5858 0
-5945 -5860 0
-5945 -5888 0
-5945 -5862 0
5945 5860 5888 5862 0
-5872 -5864 0
-5872 -5865 0
-5872 -5866 0
5872 5864 5865 5866 0
-5906 -5868 0
-5906 -5869 0
-5906 -5870 0
5906 5868 5869 5870 0
-5934 -5872 0
-5934 -5873 0
5934 5872 5873 0
-5874 -5875 0
-5874 -5879 0
-5874 -5880 0
5874 5875 5879 5880 0
-5878 -5879 0
-5878 -5880 0
5878 5879 5880 0
-5881 -5986 0
-5881 -5883 0
5881 5986 5883 0
-5884 -5986 0
-5884 -5886 0
-5884 -5887 0
-5884 -5888 0
5884 5986 5886 5887 5888 0
-5910 -5934 0
-5910 -5891 0
5910 5934 5891 0
-6030 -5986 0
-6030 -5894 0
-6030 -5934 0
6030 5986 5894 5934 0
-5896 -5910 0
-5896 -5898 0
-5896 -5903 0
-5896 -5911 0
5896 5910 5898 5903 5911 0
-5901 -5910 0
-5901 -5903 0
-5901 -5911 0
5901 5910 5903 5911 0
-5966 -5906 0
-5966 -5910 0
-5966 -5908 0
5966 5906 5910 5908 0
-5909 -5910 0
-5909 -5911 0
5909 5910 5911 0
-6002 -5913 0
-6002 -5914 0
-6002 -5915 0
-6002 -5916 0
6002 5913 5914 5915 5916 0
-5994 -5918 0
-5994 -5919 0
5994 5918 5919 0
-6004 -5921 0
-6004 -5922 0
6004 5921 5922 0
-6024 -5986 0
-6024 -5925 0
-6024 -5934 0
6024 5986 5925 5934 0
-6026 -5986 0
-6026 -5929 0
-6026 -5934 0
6026 5986 5929 5934 0
-6028 -5986 0
-6028 -5933 0
-6028 -5934 0
6028 5986 5933 5934 0
-5935 -5949 0
-5935 -5937 0
-5935 -5942 0
-5935 -5950 0
5935 5949 5937 5942 5950 0
-5940 -5949 0
-5940 -5942 0
-5940 -5950 0
5940 5949 5942 5950 0
-5988 -5945 0
-5988 -5949 0
-5988 -5947 0
5988 5945 5949 5947 0
-5948 -5949 0
-5948 -5950 0
5948 5949 5950 0
-6016 -5986 0
-6016 -5953 0
-6016 -5966 0
6016 5986 5953 5966 0
-6018 -5986 0
-6018 -5957 0
-6018 -5966 0
6018 5986 5957 5966 0
-6020 -5986 0
-6020 -5961 0
-6020 -5966 0
6020 5986 5961 5966 0
-6022 -5986 0
-6022 -5965 0
-6022 -5966 0
6022 5986 5965 5966 0
-5996 -5968 0
-5996 -5969 0
5996 5968 5969 0
-5998 -5971 0
-5998 -5972 0
5998 5971 5972 0
-6008 -5986 0
-6008 -5975 0
-6008 -5988 0
6008 5986 5975 5988 0
-6010 -5986 0
-6010 -5979 0
-6010 -5988 0
6010 5986 5979 5988 0
-6012 -5986 0
-6012 -5983 0
-6012 -5988 0
6012 5986 5983 5988 0
-6014 -5986 0
-6014 -5987 0
-6014 -5988 0
6014 5986 5987 5988 0
-5990 6385 0
5990 -6385 0
-5992 6213 0
5992 -6213 0
-5994 6090 0
5994 -6090 0
-5996 6036 0
5996 -6036 0
-5998 6038 0
5998 -6038 0
-6000 6088 0
6000 -6088 0
-6002 6084 0
6002 -6084 0
-6004 6082 0
6004 -6082 0
-6006 6184 0
6006 -6184 0
-6008 6245 0
6008 -6245 0
-6010 6354 0
6010 -6354 0
-6012 6382 0
6012 -6382 0
-6014 6356 0
6014 -6356 0
-6016 6233 0
6016 -6233 0
-6018 6362 0
6018 -6362 0
-6020 6363 0
6020 -6363 0
-6022 6364 0
6022 -6364 0
-6024 6218 0
6024 -6218 0
-6026 6358 0
6026 -6358 0
-6028 6359 0
6028 -6359 0
-6030 6360 0
6030 -6360 0
6230 6385 0
-6230 -6385 0
6227 6213 0
-6227 -6213 0
6104 6036 0
-6104 -6036 0
6102 6038 0
-6102 -6038 0
6441 6245 0
-6441 -6245 0
6431 6354 0
-6431 -6354 0
6436 6382 0
-6436 -6382 0
6444 6356 0
-6444 -6356 0
6402 6233 0
-6402 -6233 0
6392 6362 0
-6392 -6362 0
6397 6363 0
-6397 -6363 0
6405 6364 0
-6405 -6364 0
6367 6218 0
-6367 -6218 0
6369 6358 0
-6369 -6358 0
6373 6359 0
-6373 -6359 0
6374 6360 0
-6374 -6360 0
6092 6064 0
-6092 -6064 0
6094 6066 0
-6094 -6066 0
6380 6213 0
-6380 -6213 0
6096 6070 0
-6096 -6070 0
6413 6356 0
-6413 -6356 0
6306 6382 0
-6306 -6382 0
6381 6354 0
-6381 -6354 0
6260 6245 0
-6260 -6245 0
6098 6360 0
-6098 -6360 0
6081 6082 0
-6081 -6082 0
6083 6084 0
-6083 -6084 0
6377 6184 0
-6377 -6184 0
6087 6088 0
-6087 -6088 0
6089 6090 0
-6089 -6090 0
6189 6092 0
-6189 -6092 0
6480 6094 0
-6480 -6094 0
6209 6096 0
-6209 -6096 0
6388 6098 0
-6388 -6098 0
6267 6374 0
-6267 -6374 0
6101 6102 0
-6101 -6102 0
6103 6104 0
-6103 -6104 0
6226 6189 0
-6226 -6189 0
6164 6480 0
-6164 -6480 0
6158 6480 0
-6158 -6480 0
6289 6480 0
-6289 -6480 0
6229 6209 0
-6229 -6209 0
6321 6404 0
-6321 -6404 0
6419 6216 0
-6419 -6216 0
6443 6460 0
-6443 -6460 0
6159 6301 0
-6159 -6301 0
6165 6308 0
-6165 -6308 0
6134 6311 0
-6134 -6311 0
6170 6311 0
-6170 -6311 0
6447 6231 0
-6447 -6231 0
6342 6443 0
-6342 -6443 0
6500 6134 0
-6500 -6134 0
6469 6243 0
-6469 -6243 0
-6416 6258 0
-6416 6184 0
6416 -6258 -6184 0
-6407 6184 0
-6407 6289 0
6407 -6184 -6289 0
-6408 6354 0
-6408 6289 0
6408 -6354 -6289 0
-6409 6356 0
-6409 6382 0
-6409 6289 0
6409 -6356 -6382 -6289 0
-6410 6413 0
-6410 6245 0
-6410 6289 0
6410 -6413 -6245 -6289 0
-6466 6311 0
-6466 6392 0
6466 -6311 -6392 0
-6486 6158 0
-6486 6159 0
6486 -6158 -6159 0
-6463 6323 0
-6463 6392 0
6463 -6323 -6392 0
-6484 6164 0
-6484 6165 0
6484 -6164 -6165 0
-6462 6170 0
-6462 6323 0
6462 -6170 -6323 0
-6465 6170 0
-6465 6269 0
6465 -6170 -6269 0
6290 -6354 0
6290 -6245 0
6290 -6184 0
-6290 6354 6245 6184 0
6287 -6356 0
6287 -6382 0
6287 -6380 0
-6287 6356 6382 6380 0
6291 -6413 0
6291 -6382 0
6291 -6354 0
6291 -6184 0
-6291 6413 6382 6354 6184 0
6286 -6260 0
6286 -6380 0
-6286 6260 6380 0
6303 -6189 0
6303 -6213 0
-6303 6189 6213 0
6270 -6381 0
6270 -6480 0
-6270 6381 6480 0
6271 -6356 0
6271 -6382 0
6271 -6260 0
6271 -6480 0
-6271 6356 6382 6260 6480 0
6273 -6354 0
6273 -6260 0
6273 -6480 0
-6273 6354 6260 6480 0
6274 -6381 0
6274 -6245 0
6274 -6380 0
6274 -6480 0
-6274 6381 6245 6380 6480 0
6310 -6209 0
6310 -6385 0
-6310 6209 6385 0
6294 -6255 0
6294 -6213 0
6294 -6245 0
6294 -6381 0
-6294 6255 6213 6245 6381 0
6216 -6368 0
6216 -6218 0
-6216 6368 6218 0
6296 -6372 0
6296 -6358 0
-6296 6372 6358 0
6299 -6267 0
6299 -6359 0
-6299 6267 6359 0
6302 -6226 0
6302 -6227 0
-6302 6226 6227 0
6309 -6229 0
6309 -6230 0
-6309 6229 6230 0
6231 -6390 0
6231 -6233 0
-6231 6390 6233 0
6327 -6395 0
6327 -6362 0
-6327 6395 6362 0
6330 -6403 0
6330 -6363 0
-6330 6403 6363 0
6333 -6321 0
6333 -6364 0
-6333 6321 6364 0
6243 -6429 0
6243 -6245 0
-6243 6429 6245 0
6345 -6434 0
6345 -6354 0
-6345 6434 6354 0
6348 -6442 0
6348 -6382 0
-6348 6442 6382 0
6351 -6342 0
6351 -6356 0
-6351 6342 6356 0
6255 6306 0
6255 6356 0
-6255 -6306 -6356 0
6258 6380 0
6258 6260 0
6258 6306 0
6258 6356 0
-6258 -6380 -6260 -6306 -6356 0
6297 6372 0
6297 6358 0
-6297 -6372 -6358 0
6300 6267 0
6300 6359 0
-6300 -6267 -6359 0
6269 6270 0
6269 6271 0
-6269 -6270 -6271 0
6305 6273 0
6305 6274 0
-6305 -6273 -6274 0
6313 6378 0
6313 6413 0
-6313 -6378 -6413 0
6412 6289 0
6412 6377 0
6412 6381 0
6412 6382 0
-6412 -6289 -6377 -6381 -6382 0
6415 6289 0
6415 6354 0
6415 6286 0
6415 6287 0
-6415 -6289 -6354 -6286 -6287 0
6494 6289 0
6494 6290 0
6494 6291 0
-6494 -6289 -6290 -6291 0
6324 6375 0
6324 6294 0
-6324 -6375 -6294 0
6423 6296 0
6423 6297 0
-6423 -6296 -6297 0
6427 6299 0
6427 6300 0
-6427 -6299 -6300 0
6301 6302 0
6301 6303 0
-6301 -6302 -6303 0
6325 6305 0
6325 6306 0
6325 6413 0
-6325 -6305 -6306 -6413 0
6308 6309 0
6308 6310 0
-6308 -6309 -6310 0
6311 6324 0
6311 6313 0
-6311 -6324 -6313 0
6328 6395 0
6328 6362 0
-6328 -6395 -6362 0
6331 6403 0
6331 6363 0
-6331 -6403 -6363 0
6334 6321 0
6334 6364 0
-6334 -6321 -6364 0
6323 6324 0
6323 6325 0
-6323 -6324 -6325 0
6451 6327 0
6451 6328 0
-6451 -6327 -6328 0
6455 6330 0
6455 6331 0
-6455 -6330 -6331 0
6459 6333 0
6459 6334 0
-6459 -6333 -6334 0
6346 6434 0
6346 6354 0
-6346 -6434 -6354 0
6349 6442 0
6349 6382 0
-6349 -6442 -6382 0
6352 6342 0
6352 6356 0
-6352 -6342 -6356 0
6473 6345 0
6473 6346 0
-6473 -6345 -6346 0
6477 6348 0
6477 6349 0
-6477 -6348 -6349 0
6481 6351 0
6481 6352 0
-6481 -6351 -6352 0
-6439 -6354 0
-6439 -6382 0
-6439 -6356 0
6439 6354 6382 6356 0
-6366 -6358 0
-6366 -6359 0
-6366 -6360 0
6366 6358 6359 6360 0
-6400 -6362 0
-6400 -6363 0
-6400 -6364 0
6400 6362 6363 6364 0
-6428 -6366 0
-6428 -6367 0
6428 6366 6367 0
-6368 -6369 0
-6368 -6373 0
-6368 -6374 0
6368 6369 6373 6374 0
-6372 -6373 0
-6372 -6374 0
6372 6373 6374 0
-6375 -6480 0
-6375 -6377 0
6375 6480 6377 0
-6378 -6480 0
-6378 -6380 0
-6378 -6381 0
-6378 -6382 0
6378 6480 6380 6381 6382 0
-6404 -6428 0
-6404 -6385 0
6404 6428 6385 0
-6524 -6480 0
-6524 -6388 0
-6524 -6428 0
6524 6480 6388 6428 0
-6390 -6404 0
-6390 -6392 0
-6390 -6397 0
-6390 -6405 0
6390 6404 6392 6397 6405 0
-6395 -6404 0
-6395 -6397 0
-6395 -6405 0
6395 6404 6397 6405 0
-6460 -6400 0
-6460 -6404 0
-6460 -6402 0
6460 6400 6404 6402 0
-6403 -6404 0
-6403 -6405 0
6403 6404 6405 0
-6496 -6407 0
-6496 -6408 0
-6496 -6409 0
-6496 -6410 0
6496 6407 6408 6409 6410 0
-6488 -6412 0
-6488 -6413 0
6488 6412 6413 0
-6498 -6415 0
-6498 -6416 0
6498 6415 6416 0
-6518 -6480 0
-6518 -6419 0
-6518 -6428 0
6518 6480 6419 6428 0
-6520 -6480 0
-6520 -6423 0
-6520 -6428 0
6520 6480 6423 6428 0
-6522 -6480 0
-6522 -6427 0
-6522 -6428 0
6522 6480 6427 6428 0
-6429 -6443 0
-6429 -6431 0
-6429 -6436 0
-6429 -6444 0
6429 6443 6431 6436 6444 0
-6434 -6443 0
-6434 -6436 0
-6434 -6444 0
6434 6443 6436 6444 0
-6482 -6439 0
-6482 -6443 0
-6482 -6441 0
6482 6439 6443 6441 0
-6442 -6443 0
-6442 -6444 0
6442 6443 6444 0
-6510 -6480 0
-6510 -6447 0
-6510 -6460 0
6510 6480 6447 6460 0
-6512 -6480 0
-6512 -6451 0
-6512 -6460 0
6512 6480 6451 6460 0
-6514 -6480 0
-6514 -6455 0
-6514 -6460 0
6514 6480 6455 6460 0
-6516 -6480 0
-6516 -6459 0
-6516 -6460 0
6516 6480 6459 6460 0
-6490 -6462 0
-6490 -6463 0
6490 6462 6463 0
-6492 -6465 0
-6492 -6466 0
6492 6465 6466 0
-6502 -6480 0
-6502 -6469 0
-6502 -6482 0
6502 6480 6469 6482 0
-6504 -6480 0
-6504 -6473 0
-6504 -6482 0
6504 6480 6473 6482 0
-6506 -6480 0
-6506 -6477 0
-6506 -6482 0
6506 6480 6477 6482 0
-6508 -6480 0
-6508 -6481 0
-6508 -6482 0
6508 6480 6481 6482 0
-6484 6879 0
6484 -6879 0
-6486 6707 0
6486 -6707 0
-6488 6584 0
6488 -6584 0
-6490 6530 0
6490 -6530 0
-6492 6532 0
6492 -6532 0
-6494 6582 0
6494 -6582 0
-6496 6578 0
6496 -6578 0
-6498 6576 0
6498 -6576 0
-6500 6678 0
6500 -6678 0
-6502 6739 0
6502 -6739 0
-6504 6848 0
6504 -6848 0
-6506 6876 0
6506 -6876 0
-6508 6850 0
6508 -6850 0
-6510 6727 0
6510 -6727 0
-6512 6856 0
6512 -6856 0
-6514 6857 0
6514 -6857 0
-6516 6858 0
6516 -6858 0
-6518 6712 0
6518 -6712 0
-6520 6852 0
6520 -6852 0
-6522 6853 0
6522 -6853 0
-6524 6854 0
6524 -6854 0
6724 6879 0
-6724 -6879 0
6721 6707 0
-6721 -6707 0
6598 6530 0
-6598 -6530 0
6596 6532 0
-6596 -6532 0
6935 6739 0
-6935 -6739 0
6925 6848 0
-6925 -6848 0
6930 6876 0
-6930 -6876 0
6938 6850 0
-6938 -6850 0
6896 6727 0
-6896 -6727 0
6886 6856 0
-6886 -6856 0
6891 6857 0
-6891 -6857 0
6899 6858 0
-6899 -6858 0
6861 6712 0
-6861 -6712 0
6863 6852 0
-6863 -6852 0
6867 6853 0
-6867 -6853 0
6868 6854 0
-6868 -6854 0
6586 6558 0
-6586 -6558 0
6588 6560 0
-6588 -6560 0
6874 6707 0
-6874 -6707 0
6590 6564 0
-6590 -6564 0
6907 6850 0
-6907 -6850 0
6800 6876 0
-6800 -6876 0
6875 6848 0
-6875 -6848 0
6754 6739 0
-6754 -6739 0
6592 6854 0
-6592 -6854 0
6575 6576 0
-6575 -6576 0
6577 6578 0
-6577 -6578 0
6871 6678 0
-6871 -6678 0
6581 6582 0
-6581 -6582 0
6583 6584 0
-6583 -6584 0
6683 6586 0
-6683 -6586 0
6974 6588 0
-6974 -6588 0
6703 6590 0
-6703 -6590 0
6882 6592 0
-6882 -6592 0
6761 6868 0
-6761 -6868 0
6595 6596 0
-6595 -6596 0
6597 6598 0
-6597 -6598 0
6720 6683 0
-6720 -6683 0
6658 6974 0
-6658 -6974 0
6652 6974 0
-6652 -6974 0
6783 6974 0
-6783 -6974 0
6723 6703 0
-6723 -6703 0
6815 6898 0
-6815 -6898 0
6913 6710 0
-6913 -6710 0
6937 6954 0
-6937 -6954 0
6653 6795 0
-6653 -6795 0
6659 6802 0
-6659 -6802 0
6628 6805 0
-6628 -6805 0
6664 6805 0
-6664 -6805 0
6941 6725 0
-6941 -6725 0
6836 6937 0
-6836 -6937 0
6994 6628 0
-6994 -6628 0
6963 6737 0
-6963 -6737 0
-6910 6752 0
-6910 6678 0
6910 -6752 -6678 0
-6901 6678 0
-6901 6783 0
6901 -6678 -6783 0
-6902 6848 0
-6902 6783 0
6902 -6848 -6783 0
-6903 6850 0
-6903 6876 0
-6903 6783 0
6903 -6850 -6876 -6783 0
-6904 6907 0
-6904 6739 0
-6904 6783 0
6904 -6907 -6739 -6783 0
-6960 6805 0
-6960 6886 0
6960 -6805 -6886 0
-6980 6652 0
-6980 6653 0
6980 -6652 -6653 0
-6957 6817 0
-6957 6886 0
6957 -6817 -6886 0
-6978 6658 0
-6978 6659 0
6978 -6658 -6659 0
-6956 6664 0
-6956 6817 0
6956 -6664 -6817 0
-6959 6664 0
-6959 6763 0
6959 -6664 -6763 0
6784 -6848 0
6784 -6739 0
6784 -6678 0
-6784 6848 6739 6678 0
6781 -6850 0
6781 -6876 0
6781 -6874 0
-6781 6850 6876 6874 0
6785 -6907 0
6785 -6876 0
6785 -6848 0
6785 -6678 0
-6785 6907 6876 6848 6678 0
6780 -6754 0
6780 -6874 0
-6780 6754 6874 0
6797 -6683 0
6797 -6707 0
-6797 6683 6707 0
6764 -6875 0
6764 -6974 0
-6764 6875 6974 0
6765 -6850 0
6765 -6876 0
6765 -6754 0
6765 -6974 0
-6765 6850 6876 6754 6974 0
6767 -6848 0
6767 -6754 0
6767 -6974 0
-6767 6848 6754 6974 0
6768 -6875 0
6768 -6739 0
6768 -6874 0
6768 -6974 0
-6768 6875 6739 6874 6974 0
6804 -6703 0
6804 -6879 0
-6804 6703 6879 0
6788 -6749 0
6788 -6707 0
6788 -6739 0
6788 -6875 0
-6788 6749 6707 6739 6875 0
6710 -6862 0
6710 -6712 0
-6710 6862 6712 0
6790 -6866 0
6790 -6852 0
-6790 6866 6852 0
6793 -6761 0
6793 -6853 0
-6793 6761 6853 0
6796 -6720 0
6796 -6721 0
-6796 6720 6721 0
6803 -6723 0
6803 -6724 0
-6803 6723 6724 0
6725 -6884 0
6725 -6727 0
-6725 6884 6727 0
6821 -6889 0
6821 -6856 0
-6821 6889 6856 0
6824 -6897 0
6824 -6857 0
-6824 6897 6857 0
6827 -6815 0
6827 -6858 0
-6827 6815 6858 0
6737 -6923 0
6737 -6739 0
-6737 6923 6739 0
6839 -6928 0
6839 -6848 0
-6839 6928 6848 0
6842 -6936 0
6842 -6876 0
-6842 6936 6876 0
6845 -6836 0
6845 -6850 0
-6845 6836 6850 0
6749 6800 0
6749 6850 0
-6749 -6800 -6850 0
6752 6874 0
6752 6754 0
6752 6800 0
6752 6850 0
-6752 -6874 -6754 -6800 -6850 0
6791 6866 0
6791 6852 0
-6791 -6866 -6852 0
6794 6761 0
6794 6853 0
-6794 -6761 -6853 0
6763 6764 0
6763 6765 0
-6763 -6764 -6765 0
6799 6767 0
6799 6768 0
-6799 -6767 -6768 0
6807 6872 0
6807 6907 0
-6807 -6872 -6907 0
6906 6783 0
6906 6871 0
6906 6875 0
6906 6876 0
-6906 -6783 -6871 -6875 -6876 0
6909 6783 0
6909 6848 0
6909 6780 0
6909 6781 0
-6909 -6783 -6848 -6780 -6781 0
6988 6783 0
6988 6784 0
6988 6785 0
-6988 -6783 -6784 -6785 0
6818 6869 0
6818 6788 0
-6818 -6869 -6788 0
6917 6790 0
6917 6791 0
-6917 -6790 -6791 0
6921 6793 0
6921 6794 0
-6921 -6793 -6794 0
6795 6796 0
6795 6797 0
-6795 -6796 -6797 0
6819 6799 0
6819 6800 0
6819 6907 0
-6819 -6799 -6800 -6907 0
6802 6803 0
6802 6804 0
-6802 -6803 -6804 0
6805 6818 0
6805 6807 0
-6805 -6818 -6807 0
6822 6889 0
6822 6856 0
-6822 -6889 -6856 0
6825 6897 0
6825 6857 0
-6825 -6897 -6857 0
6828 6815 0
6828 6858 0
-6828 -6815 -6858 0
6817 6818 0
6817 6819 0
-6817 -6818 -6819 0
6945 6821 0
6945 6822 0
-6945 -6821 -6822 0
6949 6824 0
6949 6825 0
-6949 -6824 -6825 0
6953 6827 0
6953 6828 0
-6953 -6827 -6828 0
6840 6928 0
6840 6848 0
-6840 -6928 -6848 0
6843 6936 0
6843 6876 0
-6843 -6936 -6876 0
6846 6836 0
6846 6850 0
-6846 -6836 -6850 0
6967 6839 0
6967 6840 0
-6967 -6839 -6840 0
6971 6842 0
6971 6843 0
-6971 -6842 -6843 0
6975 6845 0
6975 6846 0
-6975 -6845 -6846 0
-6933 -6848 0
-6933 -6876 0
-6933 -6850 0
6933 6848 6876 6850 0
-6860 -6852 0
-6860 -6853 0
-6860 -6854 0
6860 6852 6853 6854 0
-6894 -6856 0
-6894 -6857 0
-6894 -6858 0
6894 6856 6857 6858 0
-6922 -6860 0
-6922 -6861 0
6922 6860 6861 0
-6862 -6863 0
-6862 -6867 0
-6862 -6868 0
6862 6863 6867 6868 0
-6866 -6867 0
-6866 -6868 0
6866 6867 6868 0
-6869 -6974 0
-6869 -6871 0
6869 6974 6871 0
-6872 -6974 0
-6872 -6874 0
-6872 -6875 0
-6872 -6876 0
6872 6974 6874 6875 6876 0
-6898 -6922 0
-6898 -6879 0
6898 6922 6879 0
-7018 -6974 0
-7018 -6882 0
-7018 -6922 0
7018 6974 6882 6922 0
-6884 -6898 0
-6884 -6886 0
-6884 -6891 0
-6884 -6899 0
6884 6898 6886 6891 6899 0
-6889 -6898 0
-6889 -6891 0
-6889 -6899 0
6889 6898 6891 6899 0
-6954 -6894 0
-6954 -6898 0
-6954 -6896 0
6954 6894 6898 6896 0
-6897 -6898 0
-6897 -6899 0
6897 6898 6899 0
-6990 -6901 0
-6990 -6902 0
-6990 -6903 0
-6990 -6904 0
6990 6901 6902 6903 6904 0
-6982 -6906 0
-6982 -6907 0
6982 6906 6907 0
-6992 -6909 0
-6992 -6910 0
6992 6909 6910 0
-7012 -6974 0
-7012 -6913 0
-7012 -6922 0
7012 6974 6913 6922 0
-7014 -6974 0
-7014 -6917 0
-7014 -6922 0
7014 6974 6917 6922 0
-7016 -6974 0
-7016 -6921 0
-7016 -6922 0
7016 6974 6921 6922 0
-6923 -6937 0
-6923 -6925 0
-6923 -6930 0
-6923 -6938 0
6923 6937 6925 6930 6938 0
-6928 -6937 0
-6928 -6930 0
-6928 -6938 0
6928 6937 6930 6938 0
-6976 -6933 0
-6976 -6937 0
-6976 -6935 0
6976 6933 6937 6935 0
-6936 -6937 0
-6936 -6938 0
6936 6937 6938 0
-7004 -6974 0
-7004 -6941 0
-7004 -6954 0
7004 6974 6941 6954 0
-7006 -6974 0
-7006 -6945 0
-7006 -6954 0
7006 6974 6945 6954 0
-7008 -6974 0
-7008 -6949 0
-7008 -6954 0
7008 6974 6949 6954 0
-7010 -6974 0
-7010 -6953 0
-7010 -6954 0
7010 6974 6953 6954 0
-6984 -6956 0
-6984 -6957 0
6984 6956 6957 0
-6986 -6959 0
-6986 -6960 0
6986 6959 6960 0
-6996 -6974 0
-6996 -6963 0
-6996 -6976 0
6996 6974 6963 6976 0
-6998 -6974 0
-6998 -6967 0
-6998 -6976 0
6998 6974 6967 6976 0
-7000 -6974 0
-7000 -6971 0
-7000 -6976 0
7000 6974 6971 6976 0
-7002 -6974 0
-7002 -6975 0
-7002 -6976 0
7002 6974 6975 6976 0
-6978 7373 0
6978 -7373 0
-6980 7201 0
6980 -7201 0
-6982 7078 0
6982 -7078 0
-6984 7024 0
6984 -7024 0
-6986 7026 0
6986 -7026 0
-6988 7076 0
6988 -7076 0
-6990 7072 0
6990 -7072 0
-6992 7070 0
6992 -7070 0
-6994 7172 0
6994 -7172 0
-6996 7233 0
6996 -7233 0
-6998 7342 0
6998 -7342 0
-7000 7370 0
7000 -7370 0
-7002 7344 0
7002 -7344 0
-7004 7221 0
7004 -7221 0
-7006 7350 0
7006 -7350 0
-7008 7351 0
7008 -7351 0
-7010 7352 0
7010 -7352 0
-7012 7206 0
7012 -7206 0
-7014 7346 0
7014 -7346 0
-7016 7347 0
7016 -7347 0
-7018 7348 0
7018 -7348 0
7218 7373 0
-7218 -7373 0
7215 7201 0
-7215 -7201 0
7092 7024 0
-7092 -7024 0
7090 7026 0
-7090 -7026 0
7429 7233 0
-7429 -7233 0
7419 7342 0
-7419 -7342 0
7424 7370 0
-7424 -7370 0
7432 7344 0
-7432 -7344 0
7390 7221 0
-7390 -7221 0
7380 7350 0
-7380 -7350 0
7385 7351 0
-7385 -7351 0
7393 7352 0
-7393 -7352 0
7355 7206 0
-7355 -7206 0
7357 7346 0
-7357 -7346 0
7361 7347 0
-7361 -7347 0
7362 7348 0
-7362 -7348 0
7080 7052 0
-7080 -7052 0
7082 7054 0
-7082 -7054 0
7368 7201 0
-7368 -7201 0
7084 7058 0
-7084 -7058 0
7401 7344 0
-7401 -7344 0
7294 7370 0
-7294 -7370 0
7369 7342 0
-7369 -7342 0
7248 7233 0
-7248 -7233 0
7086 7348 0
-7086 -7348 0
7069 7070 0
-7069 -7070 0
7071 7072 0
-7071 -7072 0
7365 7172 0
-7365 -7172 0
7075 7076 0
-7075 -7076 0
7077 7078 0
-7077 -7078 0
7177 7080 0
-7177 -7080 0
7468 7082 0
-7468 -7082 0
7197 7084 0
-7197 -7084 0
7376 7086 0
-7376 -7086 0
7255 7362 0
-7255 -7362 0
7089 7090 0
-7089 -7090 0
7091 7092 0
-7091 -7092 0
7214 7177 0
-7214 -7177 0
7152 7468 0
-7152 -7468 0
7146 7468 0
-7146 -7468 0
7277 7468 0
-7277 -7468 0
7217 7197 0
-7217 -7197 0
7309 7392 0
-7309 -7392 0
7407 7204 0
-7407 -7204 0
7431 7448 0
-7431 -7448 0
7147 7289 0
-7147 -7289 0
7153 7296 0
-7153 -7296 0
7122 7299 0
-7122 -7299 0
7158 7299 0
-7158 -7299 0
7435 7219 0
-7435 -7219 0
7330 7431 0
-7330 -7431 0
7488 7122 0
-7488 -7122 0
7457 7231 0
-7457 -7231 0
-7404 7246 0
-7404 7172 0
7404 -7246 -7172 0
-7395 7172 0
-7395 7277 0
7395 -7172 -7277 0
-7396 7342 0
-7396 7277 0
7396 -7342 -7277 0
-7397 7344 0
-7397 7370 0
-7397 7277 0
7397 -7344 -7370 -7277 0
-7398 7401 0
-7398 7233 0
-7398 7277 0
7398 -7401 -7233 -7277 0
-7454 7299 0
-7454 7380 0
7454 -7299 -7380 0
-7474 7146 0
-7474 7147 0
7474 -7146 -7147 0
-7451 7311 0
-7451 7380 0
7451 -7311 -7380 0
-7472 7152 0
-7472 7153 0
7472 -7152 -7153 0
-7450 7158 0
-7450 7311 0
7450 -7158 -7311 0
-7453 7158 0
-7453 7257 0
7453 -7158 -7257 0
7278 -7342 0
7278 -7233 0
7278 -7172 0
-7278 7342 7233 7172 0
7275 -7344 0
7275 -7370 0
7275 -7368 0
-7275 7344 7370 7368 0
7279 -7401 0
7279 -7370 0
7279 -7342 0
7279 -7172 0
-7279 7401 7370 7342 7172 0
7274 -7248 0
7274 -7368 0
-7274 7248 7368 0
7291 -7177 0
7291 -7201 0
-7291 7177 7201 0
7258 -7369 0
7258 -7468 0
-7258 7369 7468 0
7259 -7344 0
7259 -7370 0
7259 -7248 0
7259 -7468 0
-7259 7344 7370 7248 7468 0
7261 -7342 0
7261 -7248 0
7261 -7468 0
-7261 7342 7248 7468 0
7262 -7369 0
7262 -7233 0
7262 -7368 0
7262 -7468 0
-7262 7369 7233 7368 7468 0
7298 -7197 0
7298 -7373 0
-7298 7197 7373 0
7282 -7243 0
7282 -7201 0
7282 -7233 0
7282 -7369 0
-7282 7243 7201 7233 7369 0
7204 -7356 0
7204 -7206 0
-7204 7356 7206 0
7284 -7360 0
7284 -7346 0
-7284 7360 7346 0
7287 -7255 0
7287 -7347 0
-7287 7255 7347 0
7290 -7214 0
7290 -7215 0
-7290 7214 7215 0
7297 -7217 0
7297 -7218 0
-7297 7217 7218 0
7219 -7378 0
7219 -7221 0
-7219 7378 7221 0
7315 -7383 0
7315 -7350 0
-7315 7383 7350 0
7318 -7391 0
7318 -7351 0
-7318 7391 7351 0
7321 -7309 0
7321 -7352 0
-7321 7309 7352 0
7231 -7417 0
7231 -7233 0
-7231 7417 7233 0
7333 -7422 0
7333 -7342 0
-7333 7422 7342 0
7336 -7430 0
7336 -7370 0
-7336 7430 7370 0
7339 -7330 0
7339 -7344 0
-7339 7330 7344 0
7243 7294 0
7243 7344 0
-7243 -7294 -7344 0
7246 7368 0
7246 7248 0
7246 7294 0
7246 7344 0
-7246 -7368 -7248 -7294 -7344 0
7285 7360 0
7285 7346 0
-7285 -7360 -7346 0
7288 7255 0
7288 7347 0
-7288 -7255 -7347 0
7257 7258 0
7257 7259 0
-7257 -7258 -7259 0
7293 7261 0
7293 7262 0
-7293 -7261 -7262 0
7301 7366 0
7301 7401 0
-7301 -7366 -7401 0
7400 7277 0
7400 7365 0
7400 7369 0
7400 7370 0
-7400 -7277 -7365 -7369 -7370 0
7403 7277 0
7403 7342 0
7403 7274 0
7403 7275 0
-7403 -7277 -7342 -7274 -7275 0
7482 7277 0
7482 7278 0
7482 7279 0
-7482 -7277 -7278 -7279 0
7312 7363 0
7312 7282 0
-7312 -7363 -7282 0
7411 7284 0
7411 7285 0
-7411 -7284 -7285 0
7415 7287 0
7415 7288 0
-7415 -7287 -7288 0
7289 7290 0
7289 7291 0
-7289 -7290 -7291 0
7313 7293 0
7313 7294 0
7313 7401 0
-7313 -7293 -7294 -7401 0
7296 7297 0
7296 7298 0
-7296 -7297 -7298 0
7299 7312 0
7299 7301 0
-7299 -7312 -7301 0
7316 7383 0
7316 7350 0
-7316 -7383 -7350 0
7319 7391 0
7319 7351 0
-7319 -7391 -7351 0
7322 7309 0
7322 7352 0
-7322 -7309 -7352 0
7311 7312 0
7311 7313 0
-7311 -7312 -7313 0
7439 7315 0
7439 7316 0
-7439 -7315 -7316 0
7443 7318 0
7443 7319 0
-7443 -7318 -7319 0
7447 7321 0
7447 7322 0
-7447 -7321 -7322 0
7334 7422 0
7334 7342 0
-7334 -7422 -7342 0
7337 7430 0
7337 7370 0
-7337 -7430 -7370 0
7340 7330 0
7340 7344 0
-7340 -7330 -7344 0
7461 7333 0
7461 7334 0
-7461 -7333 -7334 0
7465 7336 0
7465 7337 0
-7465 -7336 -7337 0
7469 7339 0
7469 7340 0
-7469 -7339 -7340 0
-7427 -7342 0
-7427 -7370 0
-7427 -7344 0
7427 7342 7370 7344 0
-7354 -7346 0
-7354 -7347 0
-7354 -7348 0
7354 7346 7347 7348 0
-7388 -7350 0
-7388 -7351 0
-7388 -7352 0
7388 7350 7351 7352 0
-7416 -7354 0
-7416 -7355 0
7416 7354 7355 0
-7356 -7357 0
-7356 -7361 0
-7356 -7362 0
7356 7357 7361 7362 0
-7360 -7361 0
-7360 -7362 0
7360 7361 7362 0
-7363 -7468 0
-7363 -7365 0
7363 7468 7365 0
-7366 -7468 0
-7366 -7368 0
-7366 -7369 0
-7366 -7370 0
7366 7468 7368 7369 7370 0
-7392 -7416 0
-7392 -7373 0
7392 7416 7373 0
-7512 -7468 0
-7512 -7376 0
-7512 -7416 0
7512 7468 7376 7416 0
-7378 -7392 0
-7378 -7380 0
-7378 -7385 0
-7378 -7393 0
7378 7392 7380 7385 7393 0
-7383 -7392 0
-7383 -7385 0
-7383 -7393 0
7383 7392 7385 7393 0
-7448 -7388 0
-7448 -7392 0
-7448 -7390 0
7448 7388 7392 7390 0
-7391 -7392 0
-7391 -7393 0
7391 7392 7393 0
-7484 -7395 0
-7484 -7396 0
-7484 -7397 0
-7484 -7398 0
7484 7395 7396 7397 7398 0
-7476 -7400 0
-7476 -7401 0
7476 7400 7401 0
-7486 -7403 0
-7486 -7404 0
7486 7403 7404 0
-7506 -7468 0
-7506 -7407 0
-7506 -7416 0
7506 7468 7407 7416 0
-7508 -7468 0
-7508 -7411 0
-7508 -7416 0
7508 7468 7411 7416 0
-7510 -7468 0
-7510 -7415 0
-7510 -7416 0
7510 7468 7415 7416 0
-7417 -7431 0
-7417 -7419 0
-7417 -7424 0
-7417 -7432 0
7417 7431 7419 7424 7432 0
-7422 -7431 0
-7422 -7424 0
-7422 -7432 0
7422 7431 7424 7432 0
-7470 -7427 0
-7470 -7431 0
-7470 -7429 0
7470 7427 7431 7429 0
-7430 -7431 0
-7430 -7432 0
7430 7431 7432 0
-7498 -7468 0
-7498 -7435 0
-7498 -7448 0
7498 7468 7435 7448 0
-7500 -7468 0
-7500 -7439 0
-7500 -7448 0
7500 7468 7439 7448 0
-7502 -7468 0
-7502 -7443 0
-7502 -7448 0
7502 7468 7443 7448 0
-7504 -7468 0
-7504 -7447 0
-7504 -7448 0
7504 7468 7447 7448 0
-7478 -7450 0
-7478 -7451 0
7478 7450 7451 0
-7480 -7453 0
-7480 -7454 0
7480 7453 7454 0
-7490 -7468 0
-7490 -7457 0
-7490 -7470 0
7490 7468 7457 7470 0
-7492 -7468 0
-7492 -7461 0
-7492 -7470 0
7492 7468 7461 7470 0
-7494 -7468 0
-7494 -7465 0
-7494 -7470 0
7494 7468 7465 7470 0
-7496 -7468 0
-7496 -7469 0
-7496 -7470 0
7496 7468 7469 7470 0
-7472 7867 0
7472 -7867 0
-7474 7695 0
7474 -7695 0
-7476 7572 0
7476 -7572 0
-7478 7518 0
7478 -7518 0
-7480 7520 0
7480 -7520 0
-7482 7570 0
7482 -7570 0
-7484 7566 0
7484 -7566 0
-7486 7564 0
7486 -7564 0
-7488 7666 0
7488 -7666 0
-7490 7727 0
7490 -7727 0
-7492 7836 0
7492 -7836 0
-7494 7864 0
7494 -7864 0
-7496 7838 0
7496 -7838 0
-7498 7715 0
7498 -7715 0
-7500 7844 0
7500 -7844 0
-7502 7845 0
7502 -7845 0
-7504 7846 0
7504 -7846 0
-7506 7700 0
7506 -7700 0
-7508 7840 0
7508 -7840 0
-7510 7841 0
7510 -7841 0
-7512 7842 0
7512 -7842 0
7712 7867 0
-7712 -7867 0
7709 7695 0
-7709 -7695 0
7586 7518 0
-7586 -7518 0
7584 7520 0
-7584 -7520 0
7923 7727 0
-7923 -7727 0
7913 7836 0
-7913 -7836 0
7918 7864 0
-7918 -7864 0
7926 7838 0
-7926 -7838 0
7884 7715 0
-7884 -7715 0
7874 7844 0
-7874 -7844 0
7879 7845 0
-7879 -7845 0
7887 7846 0
-7887 -7846 0
7849 7700 0
-7849 -7700 0
7851 7840 0
-7851 -7840 0
7855 7841 0
-7855 -7841 0
7856 7842 0
-7856 -7842 0
7574 7546 0
-7574 -7546 0
7576 7548 0
-7576 -7548 0
7862 7695 0
-7862 -7695 0
7578 7552 0
-7578 -7552 0
7895 7838 0
-7895 -7838 0
7788 7864 0
-7788 -7864 0
7863 7836 0
-7863 -7836 0
7742 7727 0
-7742 -7727 0
7580 7842 0
-7580 -7842 0
7563 7564 0
-7563 -7564 0
7565 7566 0
-7565 -7566 0
7859 7666 0
-7859 -7666 0
7569 7570 0
-7569 -7570 0
7571 7572 0
-7571 -7572 0
7671 7574 0
-7671 -7574 0
7962 7576 0
-7962 -7576 0
7691 7578 0
-7691 -7578 0
7870 7580 0
-7870 -7580 0
7749 7856 0
-7749 -7856 0
7583 7584 0
-7583 -7584 0
7585 7586 0
-7585 -7586 0
7708 7671 0
-7708 -7671 0
7646 7962 0
-7646 -7962 0
7640 7962 0
-7640 -7962 0
7771 7962 0
-7771 -7962 0
7711 7691 0
-7711 -7691 0
7803 7886 0
-7803 -7886 0
7901 7698 0
-7901 -7698 0
7925 7942 0
-7925 -7942 0
7641 7783 0
-7641 -7783 0
7647 7790 0
-7647 -7790 0
7616 7793 0
-7616 -7793 0
7652 7793 0
-7652 -7793 0
7929 7713 0
-7929 -7713 0
7824 7925 0
-7824 -7925 0
7982 7616 0
-7982 -7616 0
7951 7725 0
-7951 -7725 0
-7898 7740 0
-7898 7666 0
7898 -7740 -7666 0
-7889 7666 0
-7889 7771 0
7889 -7666 -7771 0
-7890 7836 0
-7890 7771 0
7890 -7836 -7771 0
-7891 7838 0
-7891 7864 0
-7891 7771 0
7891 -7838 -7864 -7771 0
-7892 7895 0
-7892 7727 0
-7892 7771 0
7892 -7895 -7727 -7771 0
-7948 7793 0
-7948 7874 0
7948 -7793 -7874 0
-7968 7640 0
-7968 7641 0
7968 -7640 -7641 0
-7945 7805 0
-7945 7874 0
7945 -7805 -7874 0
-7966 7646 0
-7966 7647 0
7966 -7646 -7647 0
-7944 7652 0
-7944 7805 0
7944 -7652 -7805 0
-7947 7652 0
-7947 7751 0
7947 -7652 -7751 0
7772 -7836 0
7772 -7727 0
7772 -7666 0
-7772 7836 7727 7666 0
7769 -7838 0
7769 -7864 0
7769 -7862 0
-7769 7838 7864 7862 0
7773 -7895 0
7773 -7864 0
7773 -7836 0
7773 -7666 0
-7773 7895 7864 7836 7666 0
7768 -7742 0
7768 -7862 0
-7768 7742 7862 0
7785 -7671 0
7785 -7695 0
-7785 7671 7695 0
7752 -7863 0
7752 -7962 0
-7752 7863 7962 0
7753 -7838 0
7753 -7864 0
7753 -7742 0
7753 -7962 0
-7753 7838 7864 7742 7962 0
7755 -7836 0
7755 -7742 0
7755 -7962 0
-7755 7836 7742 7962 0
7756 -7863 0
7756 -7727 0
7756 -7862 0
7756 -7962 0
-7756 7863 7727 7862 7962 0
7792 -7691 0
7792 -7867 0
-7792 7691 7867 0
7776 -7737 0
7776 -7695 0
7776 -7727 0
7776 -7863 0
-7776 7737 7695 7727 7863 0
7698 -7850 0
7698 -7700 0
-7698 7850 7700 0
7778 -7854 0
7778 -7840 0
-7778 7854 7840 0
7781 -7749 0
7781 -7841 0
-7781 7749 7841 0
7784 -7708 0
7784 -7709 0
-7784 7708 7709 0
7791 -7711 0
7791 -7712 0
-7791 7711 7712 0
7713 -7872 0
7713 -7715 0
-7713 7872 7715 0
7809 -7877 0
7809 -7844 0
-7809 7877 7844 0
7812 -7885 0
7812 -7845 0
-7812 7885 7845 0
7815 -7803 0
7815 -7846 0
-7815 7803 7846 0
7725 -7911 0
7725 -7727 0
-7725 7911 7727 0
7827 -7916 0
7827 -7836 0
-7827 7916 7836 0
7830 -7924 0
7830 -7864 0
-7830 7924 7864 0
7833 -7824 0
7833 -7838 0
-7833 7824 7838 0
7737 7788 0
7737 7838 0
-7737 -7788 -7838 0
7740 7862 0
7740 7742 0
7740 7788 0
7740 7838 0
-7740 -7862 -7742 -7788 -7838 0
7779 7854 0
7779 7840 0
-7779 -7854 -7840 0
7782 7749 0
7782 7841 0
-7782 -7749 -7841 0
7751 7752 0
7751 7753 0
-7751 -7752 -7753 0
7787 7755 0
7787 7756 0
-7787 -7755 -7756 0
7795 7860 0
7795 7895 0
-7795 -7860 -7895 0
7894 7771 0
7894 7859 0
7894 7863 0
7894 7864 0
-7894 -7771 -7859 -7863 -7864 0
7897 7771 0
7897 7836 0
7897 7768 0
7897 7769 0
-7897 -7771 -7836 -7768 -7769 0
7976 7771 0
7976 7772 0
7976 7773 0
-7976 -7771 -7772 -7773 0
7806 7857 0
7806 7776 0
-7806 -7857 -7776 0
7905 7778 0
7905 7779 0
-7905 -7778 -7779 0
7909 7781 0
7909 7782 0
-7909 -7781 -7782 0
7783 7784 0
7783 7785 0
-7783 -7784 -7785 0
7807 7787 0
7807 7788 0
7807 7895 0
-7807 -7787 -7788 -7895 0
7790 7791 0
7790 7792 0
-7790 -7791 -7792 0
7793 7806 0
7793 7795 0
-7793 -7806 -7795 0
7810 7877 0
7810 7844 0
-7810 -7877 -7844 0
7813 7885 0
7813 7845 0
-7813 -7885 -7845 0
7816 7803 0
7816 7846 0
-7816 -7803 -7846 0
7805 7806 0
7805 7807 0
-7805 -7806 -7807 0
7933 7809 0
7933 7810 0
-7933 -7809 -7810 0
7937 7812 0
7937 7813 0
-7937 -7812 -7813 0
7941 7815 0
7941 7816 0
-7941 -7815 -7816 0
7828 7916 0
7828 7836 0
-7828 -7916 -7836 0
7831 7924 0
7831 7864 0
-7831 -7924 -7864 0
7834 7824 0
7834 7838 0
-7834 -7824 -7838 0
7955 7827 0
7955 7828 0
-7955 -7827 -7828 0
7959 7830 0
7959 7831 0
-7959 -7830 -7831 0
7963 7833 0
7963 7834 0
-7963 -7833 -7834 0
-7921 -7836 0
-7921 -7864 0
-7921 -7838 0
7921 7836 7864 7838 0
-7848 -7840 0
-7848 -7841 0
-7848 -7842 0
7848 7840 7841 7842 0
-7882 -7844 0
-7882 -7845 0
-7882 -7846 0
7882 7844 7845 7846 0
-7910 -7848 0
-7910 -7849 0
7910 7848 7849 0
-7850 -7851 0
-7850 -7855 0
-7850 -7856 0
7850 7851 7855 7856 0
-7854 -7855 0
-7854 -7856 0
7854 7855 7856 0
-7857 -7962 0
-7857 -7859 0
7857 7962 7859 0
-7860 -7962 0
-7860 -7862 0
-7860 -7863 0
-7860 -7864 0
7860 7962 7862 7863 7864 0
-7886 -7910 0
-7886 -7867 0
7886 7910 7867 0
-8006 -7962 0
-8006 -7870 0
-8006 -7910 0
8006 7962 7870 7910 0
-7872 -7886 0
-7872 -7874 0
-7872 -7879 0
-7872 -7887 0
7872 7886 7874 7879 7887 0
-7877 -7886 0
-7877 -7879 0
-7877 -7887 0
7877 7886 7879 7887 0
-7942 -7882 0
-7942 -7886 0
-7942 -7884 0
7942 7882 7886 7884 0
-7885 -7886 0
-7885 -7887 0
7885 7886 7887 0
-7978 -7889 0
-7978 -7890 0
-7978 -7891 0
-7978 -7892 0
7978 7889 7890 7891 7892 0
-7970 -7894 0
-7970 -7895 0
7970 7894 7895 0
-7980 -7897 0
-7980 -7898 0
7980 7897 7898 0
-8000 -7962 0
-8000 -7901 0
-8000 -7910 0
8000 7962 7901 7910 0
-8002 -7962 0
-8002 -7905 0
-8002 -7910 0
8002 7962 7905 7910 0
-8004 -7962 0
-8004 -7909 0
-8004 -7910 0
8004 7962 7909 7910 0
-7911 -7925 0
-7911 -7913 0
-7911 -7918 0
-7911 -7926 0
7911 7925 7913 7918 7926 0
-7916 -7925 0
-7916 -7918 0
-7916 -7926 0
7916 7925 7918 7926 0
-7964 -7921 0
-7964 -7925 0
-7964 -7923 0
7964 7921 7925 7923 0
-7924 -7925 0
-7924 -7926 0
7924 7925 7926 0
-7992 -7962 0
-7992 -7929 0
-7992 -7942 0
7992 7962 7929 7942 0
-7994 -7962 0
-7994 -7933 0
-7994 -7942 0
7994 7962 7933 7942 0
-7996 -7962 0
-7996 -7937 0
-7996 -7942 0
7996 7962 7937 7942 0
-7998 -7962 0
-7998 -7941 0
-7998 -7942 0
7998 7962 7941 7942 0
-7972 -7944 0
-7972 -7945 0
7972 7944 7945 0
-7974 -7947 0
-7974 -7948 0
7974 7947 7948 0
-7984 -7962 0
-7984 -7951 0
-7984 -7964 0
7984 7962 7951 7964 0
-7986 -7962 0
-7986 -7955 0
-7986 -7964 0
7986 7962 7955 7964 0
-7988 -7962 0
-7988 -7959 0
-7988 -7964 0
7988 7962 7959 7964 0
-7990 -7962 0
-7990 -7963 0
-7990 -7964 0
7990 7962 7963 7964 0
-7966 8361 0
7966 -8361 0
-7968 8189 0
7968 -8189 0
-7970 8066 0
7970 -8066 0
-7972 8012 0
7972 -8012 0
-7974 8014 0
7974 -8014 0
-7976 8064 0
7976 -8064 0
-7978 8060 0
7978 -8060 0
-7980 8058 0
7980 -8058 0
-7982 8160 0
7982 -8160 0
-7984 8221 0
7984 -8221 0
-7986 8330 0
7986 -8330 0
-7988 8358 0
7988 -8358 0
-7990 8332 0
7990 -8332 0
-7992 8209 0
7992 -8209 0
-7994 8338 0
7994 -8338 0
-7996 8339 0
7996 -8339 0
-7998 8340 0
7998 -8340 0
-8000 8194 0
8000 -8194 0
-8002 8334 0
8002 -8334 0
-8004 8335 0
8004 -8335 0
-8006 8336 0
8006 -8336 0
8206 8361 0
-8206 -8361 0
8203 8189 0
-8203 -8189 0
8080 8012 0
-8080 -8012 0
8078 8014 0
-8078 -8014 0
8417 8221 0
-8417 -8221 0
8407 8330 0
-8407 -8330 0
8412 8358 0
-8412 -8358 0
8420 8332 0
-8420 -8332 0
8378 8209 0
-8378 -8209 0
8368 8338 0
-8368 -8338 0
8373 8339 0
-8373 -8339 0
8381 8340 0
-8381 -8340 0
8343 8194 0
-8343 -8194 0
8345 8334 0
-8345 -8334 0
8349 8335 0
-8349 -8335 0
8350 8336 0
-8350 -8336 0
8068 8040 0
-8068 -8040 0
8070 8042 0
-8070 -8042 0
8356 8189 0
-8356 -8189 0
8072 8046 0
-8072 -8046 0
8389 8332 0
-8389 -8332 0
8282 8358 0
-8282 -8358 0
8357 8330 0
-8357 -8330 0
8236 8221 0
-8236 -8221 0
8074 8336 0
-8074 -8336 0
8057 8058 0
-8057 -8058 0
8059 8060 0
-8059 -8060 0
8353 8160 0
-8353 -8160 0
8063 8064 0
-8063 -8064 0
8065 8066 0
-8065 -8066 0
8165 8068 0
-8165 -8068 0
8456 8070 0
-8456 -8070 0
8185 8072 0
-8185 -8072 0
8364 8074 0
-8364 -8074 0
8243 8350 0
-8243 -8350 0
8077 8078 0
-8077 -8078 0
8079 8080 0
-8079 -8080 0
8202 8165 0
-8202 -8165 0
8140 8456 0
-8140 -8456 0
8134 8456 0
-8134 -8456 0
8265 8456 0
-8265 -8456 0
8205 8185 0
-8205 -8185 0
8297 8380 0
-8297 -8380 0
8395 8192 0
-8395 -8192 0
8419 8436 0
-8419 -8436 0
8135 8277 0
-8135 -8277 0
8141 8284 0
-8141 -8284 0
8110 8287 0
-8110 -8287 0
8146 8287 0
-8146 -8287 0
8423 8207 0
-8423 -8207 0
8318 8419 0
-8318 -8419 0
8476 8110 0
-8476 -8110 0
8445 8219 0
-8445 -8219 0
-8392 8234 0
-8392 8160 0
8392 -8234 -8160 0
-8383 8160 0
-8383 8265 0
8383 -8160 -8265 0
-8384 8330 0
-8384 8265 0
8384 -8330 -8265 0
-8385 8332 0
-8385 8358 0
-8385 8265 0
8385 -8332 -8358 -8265 0
-8386 8389 0
-8386 8221 0
-8386 8265 0
8386 -8389 -8221 -8265 0
-8442 8287 0
-8442 8368 0
8442 -8287 -8368 0
-8462 8134 0
-8462 8135 0
8462 -8134 -8135 0
-8439 8299 0
-8439 8368 0
8439 -8299 -8368 0
-8460 8140 0
-8460 8141 0
8460 -8140 -8141 0
-8438 8146 0
-8438 8299 0
8438 -8146 -8299 0
-8441 8146 0
-8441 8245 0
8441 -8146 -8245 0
8266 -8330 0
8266 -8221 0
8266 -8160 0
-8266 8330 8221 8160 0
8263 -8332 0
8263 -8358 0
8263 -8356 0
-8263 8332 8358 8356 0
8267 -8389 0
8267 -8358 0
8267 -8330 0
8267 -8160 0
-8267 8389 8358 8330 8160 0
8262 -8236 0
8262 -8356 0
-8262 8236 8356 0
8279 -8165 0
8279 -8189 0
-8279 8165 8189 0
8246 -8357 0
8246 -8456 0
-8246 8357 8456 0
8247 -8332 0
8247 -8358 0
8247 -8236 0
8247 -8456 0
-8247 8332 8358 8236 8456 0
8249 -8330 0
8249 -8236 0
8249 -8456 0
-8249 8330 8236 8456 0
8250 -8357 0
8250 -8221 0
8250 -8356 0
8250 -8456 0
-8250 8357 8221 8356 8456 0
8286 -8185 0
8286 -8361 0
-8286 8185 8361 0
8270 -8231 0
8270 -8189 0
8270 -8221 0
8270 -8357 0
-8270 8231 8189 8221 8357 0
8192 -8344 0
8192 -8194 0
-8192 8344 8194 0
8272 -8348 0
8272 -8334 0
-8272 8348 8334 0
8275 -8243 0
8275 -8335 0
-8275 8243 8335 0
8278 -8202 0
8278 -8203 0
-8278 8202 8203 0
8285 -8205 0
8285 -8206 0
-8285 8205 8206 0
8207 -8366 0
8207 -8209 0
-8207 8366 8209 0
8303 -8371 0
8303 -8338 0
-8303 8371 8338 0
8306 -8379 0
8306 -8339 0
-8306 8379 8339 0
8309 -8297 0
8309 -8340 0
-8309 8297 8340 0
8219 -8405 0
8219 -8221 0
-8219 8405 8221 0
8321 -8410 0
8321 -8330 0
-8321 8410 8330 0
8324 -8418 0
8324 -8358 0
-8324 8418 8358 0
8327 -8318 0
8327 -8332 0
-8327 8318 8332 0
8231 8282 0
8231 8332 0
-8231 -8282 -8332 0
8234 8356 0
8234 8236 0
8234 8282 0
8234 8332 0
-8234 -8356 -8236 -8282 -8332 0
8273 8348 0
8273 8334 0
-8273 -8348 -8334 0
8276 8243 0
8276 8335 0
-8276 -8243 -8335 0
8245 8246 0
8245 8247 0
-8245 -8246 -8247 0
8281 8249 0
8281 8250 0
-8281 -8249 -8250 0
8289 8354 0
8289 8389 0
-8289 -8354 -8389 0
8388 8265 0
8388 8353 0
8388 8357 0
8388 8358 0
-8388 -8265 -8353 -8357 -8358 0
8391 8265 0
8391 8330 0
8391 8262 0
8391 8263 0
-8391 -8265 -8330 -8262 -8263 0
8470 8265 0
8470 8266 0
8470 8267 0
-8470 -8265 -8266 -8267 0
8300 8351 0
8300 8270 0
-8300 -8351 -8270 0
8399 8272 0
8399 8273 0
-8399 -8272 -8273 0
8403 8275 0
8403 8276 0
-8403 -8275 -8276 0
8277 8278 0
8277 8279 0
-8277 -8278 -8279 0
8301 8281 0
8301 8282 0
8301 8389 0
-8301 -8281 -8282 -8389 0
8284 8285 0
8284 8286 0
-8284 -8285 -8286 0
8287 8300 0
8287 8289 0
-8287 -8300 -8289 0
8304 8371 0
8304 8338 0
-8304 -8371 -8338 0
8307 8379 0
8307 8339 0
-8307 -8379 -8339 0
8310 8297 0
8310 8340 0
-8310 -8297 -8340 0
8299 8300 0
8299 8301 0
-8299 -8300 -8301 0
8427 8303 0
8427 8304 0
-8427 -8303 -8304 0
8431 8306 0
8431 8307 0
-8431 -8306 -8307 0
8435 8309 0
8435 8310 0
-8435 -8309 -8310 0
8322 8410 0
8322 8330 0
-8322 -8410 -8330 0
8325 8418 0
8325 8358 0
-8325 -8418 -8358 0
8328 8318 0
8328 8332 0
-8328 -8318 -8332 0
8449 8321 0
8449 8322 0
-8449 -8321 -8322 0
8453 8324 0
8453 8325 0
-8453 -8324 -8325 0
8457 8327 0
8457 8328 0
-8457 -8327 -8328 0
-8415 -8330 0
-8415 -8358 0
-8415 -8332 0
8415 8330 8358 8332 0
-8342 -8334 0
-8342 -8335 0
-8342 -8336 0
8342 8334 8335 8336 0
-8376 -8338 0
-8376 -8339 0
-8376 -8340 0
8376 8338 8339 8340 0
-8404 -8342 0
-8404 -8343 0
8404 8342 8343 0
-8344 -8345 0
-8344 -8349 0
-8344 -8350 0
8344 8345 8349 8350 0
-8348 -8349 0
-8348 -8350 0
8348 8349 8350 0
-8351 -8456 0
-8351 -8353 0
8351 8456 8353 0
-8354 -8456 0
-8354 -8356 0
-8354 -8357 0
-8354 -8358 0
8354 8456 8356 8357 8358 0
-8380 -8404 0
-8380 -8361 0
8380 8404 8361 0
-8500 -8456 0
-8500 -8364 0
-8500 -8404 0
8500 8456 8364 8404 0
-8366 -8380 0
-8366 -8368 0
-8366 -8373 0
-8366 -8381 0
8366 8380 8368 8373 8381 0
-8371 -8380 0
-8371 -8373 0
-8371 -8381 0
8371 8380 8373 8381 0
-8436 -8376 0
-8436 -8380 0
-8436 -8378 0
8436 8376 8380 8378 0
-8379 -8380 0
-8379 -8381 0
8379 8380 8381 0
-8472 -8383 0
-8472 -8384 0
-8472 -8385 0
-8472 -8386 0
8472 8383 8384 8385 8386 0
-8464 -8388 0
-8464 -8389 0
8464 8388 8389 0
-8474 -8391 0
-8474 -8392 0
8474 8391 8392 0
-8494 -8456 0
-8494 -8395 0
-8494 -8404 0
8494 8456 8395 8404 0
-8496 -8456 0
-8496 -8399 0
-8496 -8404 0
8496 8456 8399 8404 0
-8498 -8456 0
-8498 -8403 0
-8498 -8404 0
8498 8456 8403 8404 0
-8405 -8419 0
-8405 -8407 0
-8405 -8412 0
-8405 -8420 0
8405 8419 8407 8412 8420 0
-8410 -8419 0
-8410 -8412 0
-8410 -8420 0
8410 8419 8412 8420 0
-8458 -8415 0
-8458 -8419 0
-8458 -8417 0
8458 8415 8419 8417 0
-8418 -8419 0
-8418 -8420 0
8418 8419 8420 0
-8486 -8456 0
-8486 -8423 0
-8486 -8436 0
8486 8456 8423 8436 0
-8488 -8456 0
-8488 -8427 0
-8488 -8436 0
8488 8456 8427 8436 0
-8490 -8456 0
-8490 -8431 0
-8490 -8436 0
8490 8456 8431 8436 0
-8492 -8456 0
-8492 -8435 0
-8492 -8436 0
8492 8456 8435 8436 0
-8466 -8438 0
-8466 -8439 0
8466 8438 8439 0
-8468 -8441 0
-8468 -8442 0
8468 8441 8442 0
-8478 -8456 0
-8478 -8445 0
-8478 -8458 0
8478 8456 8445 8458 0
-8480 -8456 0
-8480 -8449 0
-8480 -8458 0
8480 8456 8449 8458 0
-8482 -8456 0
-8482 -8453 0
-8482 -8458 0
8482 8456 8453 8458 0
-8484 -8456 0
-8484 -8457 0
-8484 -8458 0
8484 8456 8457 8458 0
-8460 8855 0
8460 -8855 0
-8462 8683 0
8462 -8683 0
-8464 8560 0
8464 -8560 0
-8466 8506 0
8466 -8506 0
-8468 8508 0
8468 -8508 0
-8470 8558 0
8470 -8558 0
-8472 8554 0
8472 -8554 0
-8474 8552 0
8474 -8552 0
-8476 8654 0
8476 -8654 0
-8478 8715 0
8478 -8715 0
-8480 8824 0
8480 -8824 0
-8482 8852 0
8482 -8852 0
-8484 8826 0
8484 -8826 0
-8486 8703 0
8486 -8703 0
-8488 8832 0
8488 -8832 0
-8490 8833 0
8490 -8833 0
-8492 8834 0
8492 -8834 0
-8494 8688 0
8494 -8688 0
-8496 8828 0
8496 -8828 0
-8498 8829 0
8498 -8829 0
-8500 8830 0
8500 -8830 0
8700 8855 0
-8700 -8855 0
8697 8683 0
-8697 -8683 0
8574 8506 0
-8574 -8506 0
8572 8508 0
-8572 -8508 0
8911 8715 0
-8911 -8715 0
8901 8824 0
-8901 -8824 0
8906 8852 0
-8906 -8852 0
8914 8826 0
-8914 -8826 0
8872 8703 0
-8872 -8703 0
8862 8832 0
-8862 -8832 0
8867 8833 0
-8867 -8833 0
8875 8834 0
-8875 -8834 0
8837 8688 0
-8837 -8688 0
8839 8828 0
-8839 -8828 0
8843 8829 0
-8843 -8829 0
8844 8830 0
-8844 -8830 0
8562 8534 0
-8562 -8534 0
8564 8536 0
-8564 -8536 0
8850 8683 0
-8850 -8683 0
8566 8540 0
-8566 -8540 0
8883 8826 0
-8883 -8826 0
8776 8852 0
-8776 -8852 0
8851 8824 0
-8851 -8824 0
8730 8715 0
-8730 -8715 0
8568 8830 0
-8568 -8830 0
8551 8552 0
-8551 -8552 0
8553 8554 0
-8553 -8554 0
8847 8654 0
-8847 -8654 0
8557 8558 0
-8557 -8558 0
8559 8560 0
-8559 -8560 0
8659 8562 0
-8659 -8562 0
8950 8564 0
-8950 -8564 0
8679 8566 0
-8679 -8566 0
8858 8568 0
-8858 -8568 0
8737 8844 0
-8737 -8844 0
8571 8572 0
-8571 -8572 0
8573 8574 0
-8573 -8574 0
8696 8659 0
-8696 -8659 0
8634 8950 0
-8634 -8950 0
8628 8950 0
-8628 -8950 0
8759 8950 0
-8759 -8950 0
8699 8679 0
-8699 -8679 0
8791 8874 0
-8791 -8874 0
8889 8686 0
-8889 -8686 0
8913 8930 0
-8913 -8930 0
8629 8771 0
-8629 -8771 0
8635 8778 0
-8635 -8778 0
8604 8781 0
-8604 -8781 0
8640 8781 0
-8640 -8781 0
8917 8701 0
-8917 -8701 0
8812 8913 0
-8812 -8913 0
8970 8604 0
-8970 -8604 0
8939 8713 0
-8939 -8713 0
-8886 8728 0
-8886 8654 0
8886 -8728 -8654 0
-8877 8654 0
-8877 8759 0
8877 -8654 -8759 0
-8878 8824 0
-8878 8759 0
8878 -8824 -8759 0
-8879 8826 0
-8879 8852 0
-8879 8759 0
8879 -8826 -8852 -8759 0
-8880 8883 0
-8880 8715 0
-8880 8759 0
8880 -8883 -8715 -8759 0
-8936 8781 0
-8936 8862 0
8936 -8781 -8862 0
-8956 8628 0
-8956 8629 0
8956 -8628 -8629 0
-8933 8793 0
-8933 8862 0
8933 -8793 -8862 0
-8954 8634 0
-8954 8635 0
8954 -8634 -8635 0
-8932 8640 0
-8932 8793 0
8932 -8640 -8793 0
-8935 8640 0
-8935 8739 0
8935 -8640 -8739 0
8760 -8824 0
8760 -8715 0
8760 -8654 0
-8760 8824 8715 8654 0
8757 -8826 0
8757 -8852 0
8757 -8850 0
-8757 8826 8852 8850 0
8761 -8883 0
8761 -8852 0
8761 -8824 0
8761 -8654 0
-8761 8883 8852 8824 8654 0
8756 -8730 0
8756 -8850 0
-8756 8730 8850 0
8773 -8659 0
8773 -8683 0
-8773 8659 8683 0
8740 -8851 0
8740 -8950 0
-8740 8851 8950 0
8741 -8826 0
8741 -8852 0
8741 -8730 0
8741 -8950 0
-8741 8826 8852 8730 8950 0
8743 -8824 0
8743 -8730 0
8743 -8950 0
-8743 8824 8730 8950 0
8744 -8851 0
8744 -8715 0
8744 -8850 0
8744 -8950 0
-8744 8851 8715 8850 8950 0
8780 -8679 0
8780 -8855 0
-8780 8679 8855 0
8764 -8725 0
8764 -8683 0
8764 -8715 0
8764 -8851 0
-8764 8725 8683 8715 8851 0
8686 -8838 0
8686 -8688 0
-8686 8838 8688 0
8766 -8842 0
8766 -8828 0
-8766 8842 8828 0
8769 -8737 0
8769 -8829 0
-8769 8737 8829 0
8772 -8696 0
8772 -8697 0
-8772 8696 8697 0
8779 -8699 0
8779 -8700 0
-8779 8699 8700 0
8701 -8860 0
8701 -8703 0
-8701 8860 8703 0
8797 -8865 0
8797 -8832 0
-8797 8865 8832 0
8800 -8873 0
8800 -8833 0
-8800 8873 8833 0
8803 -8791 0
8803 -8834 0
-8803 8791 8834 0
8713 -8899 0
8713 -8715 0
-8713 8899 8715 0
8815 -8904 0
8815 -8824 0
-8815 8904 8824 0
8818 -8912 0
8818 -8852 0
-8818 8912 8852 0
8821 -8812 0
8821 -8826 0
-8821 8812 8826 0
8725 8776 0
8725 8826 0
-8725 -8776 -8826 0
8728 8850 0
8728 8730 0
8728 8776 0
8728 8826 0
-8728 -8850 -8730 -8776 -8826 0
8767 8842 0
8767 8828 0
-8767 -8842 -8828 0
8770 8737 0
8770 8829 0
-8770 -8737 -8829 0
8739 8740 0
8739 8741 0
-8739 -8740 -8741 0
8775 8743 0
8775 8744 0
-8775 -8743 -8744 0
8783 8848 0
8783 8883 0
-8783 -8848 -8883 0
8882 8759 0
8882 8847 0
8882 8851 0
8882 8852 0
-8882 -8759 -8847 -8851 -8852 0
8885 8759 0
8885 8824 0
8885 8756 0
8885 8757 0
-8885 -8759 -8824 -8756 -8757 0
8964 8759 0
8964 8760 0
8964 8761 0
-8964 -8759 -8760 -8761 0
8794 8845 0
8794 8764 0
-8794 -8845 -8764 0
8893 8766 0
8893 8767 0
-8893 -8766 -8767 0
8897 8769 0
8897 8770 0
-8897 -8769 -8770 0
8771 8772 0
8771 8773 0
-8771 -8772 -8773 0
8795 8775 0
8795 8776 0
8795 8883 0
-8795 -8775 -8776 -8883 0
8778 8779 0
8778 8780 0
-8778 -8779 -8780 0
8781 8794 0
8781 8783 0
-8781 -8794 -8783 0
8798 8865 0
8798 8832 0
-8798 -8865 -8832 0
8801 8873 0
8801 8833 0
-8801 -8873 -8833 0
8804 8791 0
8804 8834 0
-8804 -8791 -8834 0
8793 8794 0
8793 8795 0
-8793 -8794 -8795 0
8921 8797 0
8921 8798 0
-8921 -8797 -8798 0
8925 8800 0
8925 8801 0
-8925 -8800 -8801 0
8929 8803 0
8929 8804 0
-8929 -8803 -8804 0
8816 8904 0
8816 8824 0
-8816 -8904 -8824 0
8819 8912 0
8819 8852 0
-8819 -8912 -8852 0
8822 8812 0
8822 8826 0
-8822 -8812 -8826 0
8943 8815 0
8943 8816 0
-8943 -8815 -8816 0
8947 8818 0
8947 8819 0
-8947 -8818 -8819 0
8951 8821 0
8951 8822 0
-8951 -8821 -8822 0
-8909 -8824 0
-8909 -8852 0
-8909 -8826 0
8909 8824 8852 8826 0
-8836 -8828 0
-8836 -8829 0
-8836 -8830 0
8836 8828 8829 8830 0
-8870 -8832 0
-8870 -8833 0
-8870 -8834 0
8870 8832 8833 8834 0
-8898 -8836 0
-8898 -8837 0
8898 8836 8837 0
-8838 -8839 0
-8838 -8843 0
-8838 -8844 0
8838 8839 8843 8844 0
-8842 -8843 0
-8842 -8844 0
8842 8843 8844 0
-8845 -8950 0
-8845 -8847 0
8845 8950 8847 0
-8848 -8950 0
-8848 -8850 0
-8848 -8851 0
-8848 -8852 0
8848 8950 8850 8851 8852 0
-8874 -8898 0
-8874 -8855 0
8874 8898 8855 0
-8994 -8950 0
-8994 -8858 0
-8994 -8898 0
8994 8950 8858 8898 0
-8860 -8874 0
-8860 -8862 0
-8860 -8867 0
-8860 -8875 0
8860 8874 8862 8867 8875 0
-8865 -8874 0
-8865 -8867 0
-8865 -8875 0
8865 8874 8867 8875 0
-8930 -8870 0
-8930 -8874 0
-8930 -8872 0
8930 8870 8874 8872 0
-8873 -8874 0
-8873 -8875 0
8873 8874 8875 0
-8966 -8877 0
-8966 -8878 0
-8966 -8879 0
-8966 -8880 0
8966 8877 8878 8879 8880 0
-8958 -8882 0
-8958 -8883 0
8958 8882 8883 0
-8968 -8885 0
-8968 -8886 0
8968 8885 8886 0
-8988 -8950 0
-8988 -8889 0
-8988 -8898 0
8988 8950 8889 8898 0
-8990 -8950 0
-8990 -8893 0
-8990 -8898 0
8990 8950 8893 8898 0
-8992 -8950 0
-8992 -8897 0
-8992 -8898 0
8992 8950 8897 8898 0
-8899 -8913 0
-8899 -8901 0
-8899 -8906 0
-8899 -8914 0
8899 8913 8901 8906 8914 0
-8904 -8913 0
-8904 -8906 0
-8904 -8914 0
8904 8913 8906 8914 0
-8952 -8909 0
-8952 -8913 0
-8952 -8911 0
8952 8909 8913 8911 0
-8912 -8913 0
-8912 -8914 0
8912 8913 8914 0
-8980 -8950 0
-8980 -8917 0
-8980 -8930 0
8980 8950 8917 8930 0
-8982 -8950 0
-8982 -8921 0
-8982 -8930 0
8982 8950 8921 8930 0
-8984 -8950 0
-8984 -8925 0
-8984 -8930 0
8984 8950 8925 8930 0
-8986 -8950 0
-8986 -8929 0
-8986 -8930 0
8986 8950 8929 8930 0
-8960 -8932 0
-8960 -8933 0
8960 8932 8933 0
-8962 -8935 0
-8962 -8936 0
8962 8935 8936 0
-8972 -8950 0
-8972 -8939 0
-8972 -8952 0
8972 8950 8939 8952 0
-8974 -8950 0
-8974 -8943 0
-8974 -8952 0
8974 8950 8943 8952 0
-8976 -8950 0
-8976 -8947 0
-8976 -8952 0
8976 8950 8947 8952 0
-8978 -8950 0
-8978 -8951 0
-8978 -8952 0
8978 8950 8951 8952 0
-8954 9349 0
8954 -9349 0
-8956 9177 0
8956 -9177 0
-8958 9054 0
8958 -9054 0
-8960 9000 0
8960 -9000 0
-8962 9002 0
8962 -9002 0
-8964 9052 0
8964 -9052 0
-8966 9048 0
8966 -9048 0
-8968 9046 0
8968 -9046 0
-8970 9148 0
8970 -9148 0
-8972 9209 0
8972 -9209 0
-8974 9318 0
8974 -9318 0
-8976 9346 0
8976 -9346 0
-8978 9320 0
8978 -9320 0
-8980 9197 0
8980 -9197 0
-8982 9326 0
8982 -9326 0
-8984 9327 0
8984 -9327 0
-8986 9328 0
8986 -9328 0
-8988 9182 0
8988 -9182 0
-8990 9322 0
8990 -9322 0
-8992 9323 0
8992 -9323 0
-8994 9324 0
8994 -9324 0
9194 9349 0
-9194 -9349 0
9191 9177 0
-9191 -9177 0
9068 9000 0
-9068 -9000 0
9066 9002 0
-9066 -9002 0
9405 9209 0
-9405 -9209 0
9395 9318 0
-9395 -9318 0
9400 9346 0
-9400 -9346 0
9408 9320 0
-9408 -9320 0
9366 9197 0
-9366 -9197 0
9356 9326 0
-9356 -9326 0
9361 9327 0
-9361 -9327 0
9369 9328 0
-9369 -9328 0
9331 9182 0
-9331 -9182 0
9333 9322 0
-9333 -9322 0
9337 9323 0
-9337 -9323 0
9338 9324 0
-9338 -9324 0
9056 9028 0
-9056 -9028 0
9058 9030 0
-9058 -9030 0
9344 9177 0
-9344 -9177 0
9060 9034 0
-9060 -9034 0
9377 9320 0
-9377 -9320 0
9270 9346 0
-9270 -9346 0
9345 9318 0
-9345 -9318 0
9224 9209 0
-9224 -9209 0
9062 9324 0
-9062 -9324 0
9045 9046 0
-9045 -9046 0
9047 9048 0
-9047 -9048 0
9341 9148 0
-9341 -9148 0
9051 9052 0
-9051 -9052 0
9053 9054 0
-9053 -9054 0
9153 9056 0
-9153 -9056 0
9444 9058 0
-9444 -9058 0
9173 9060 0
-9173 -9060 0
9352 9062 0
-9352 -9062 0
9231 9338 0
-9231 -9338 0
9065 9066 0
-9065 -9066 0
9067 9068 0
-9067 -9068 0
9190 9153 0
-9190 -9153 0
9128 9444 0
-9128 -9444 0
9122 9444 0
-9122 -9444 0
9253 9444 0
-9253 -9444 0
9193 9173 0
-9193 -9173 0
9285 9368 0
-9285 -9368 0
9383 9180 0
-9383 -9180 0
9407 9424 0
-9407 -9424 0
9123 9265 0
-9123 -9265 0
9129 9272 0
-9129 -9272 0
9098 9275 0
-9098 -9275 0
9134 9275 0
-9134 -9275 0
9411 9195 0
-9411 -9195 0
9306 9407 0
-9306 -9407 0
9464 9098 0
-9464 -9098 0
9433 9207 0
-9433 -9207 0
-9380 9222 0
-9380 9148 0
9380 -9222 -9148 0
-9371 9148 0
-9371 9253 0
9371 -9148 -9253 0
-9372 9318 0
-9372 9253 0
9372 -9318 -9253 0
-9373 9320 0
-9373 9346 0
-9373 9253 0
9373 -9320 -9346 -9253 0
-9374 9377 0
-9374 9209 0
-9374 9253 0
9374 -9377 -9209 -9253 0
-9430 9275 0
-9430 9356 0
9430 -9275 -9356 0
-9450 9122 0
-9450 9123 0
9450 -9122 -9123 0
-9427 9287 0
-9427 9356 0
9427 -9287 -9356 0
-9448 9128 0
-9448 9129 0
9448 -9128 -9129 0
-9426 9134 0
-9426 9287 0
9426 -9134 -9287 0
-9429 9134 0
-9429 9233 0
9429 -9134 -9233 0
9254 -9318 0
9254 -9209 0
9254 -9148 0
-9254 9318 9209 9148 0
9251 -9320 0
9251 -9346 0
9251 -9344 0
-9251 9320 9346 9344 0
9255 -9377 0
9255 -9346 0
9255 -9318 0
9255 -9148 0
-9255 9377 9346 9318 9148 0
9250 -9224 0
9250 -9344 0
-9250 9224 9344 0
9267 -9153 0
9267 -9177 0
-9267 9153 9177 0
9234 -9345 0
9234 -9444 0
-9234 9345 9444 0
9235 -9320 0
9235 -9346 0
9235 -9224 0
9235 -9444 0
-9235 9320 9346 9224 9444 0
9237 -9318 0
9237 -9224 0
9237 -9444 0
-9237 9318 9224 9444 0
9238 -9345 0
9238 -9209 0
9238 -9344 0
9238 -9444 0
-9238 9345 9209 9344 9444 0
9274 -9173 0
9274 -9349 0
-9274 9173 9349 0
9258 -9219 0
9258 -9177 0
9258 -9209 0
9258 -9345 0
-9258 9219 9177 9209 9345 0
9180 -9332 0
9180 -9182 0
-9180 9332 9182 0
9260 -9336 0
9260 -9322 0
-9260 9336 9322 0
9263 -9231 0
9263 -9323 0
-9263 9231 9323 0
9266 -9190 0
9266 -9191 0
-9266 9190 9191 0
9273 -9193 0
9273 -9194 0
-9273 9193 9194 0
9195 -9354 0
9195 -9197 0
-9195 9354 9197 0
9291 -9359 0
9291 -9326 0
-9291 9359 9326 0
9294 -9367 0
9294 -9327 0
-9294 9367 9327 0
9297 -9285 0
9297 -9328 0
-9297 9285 9328 0
9207 -9393 0
9207 -9209 0
-9207 9393 9209 0
9309 -9398 0
9309 -9318 0
-9309 9398 9318 0
9312 -9406 0
9312 -9346 0
-9312 9406 9346 0
9315 -9306 0
9315 -9320 0
-9315 9306 9320 0
9219 9270 0
9219 9320 0
-9219 -9270 -9320 0
9222 9344 0
9222 9224 0
9222 9270 0
9222 9320 0
-9222 -9344 -9224 -9270 -9320 0
9261 9336 0
9261 9322 0
-9261 -9336 -9322 0
9264 9231 0
9264 9323 0
-9264 -9231 -9323 0
9233 9234 0
9233 9235 0
-9233 -9234 -9235 0
9269 9237 0
9269 9238 0
-9269 -9237 -9238 0
9277 9342 0
9277 9377 0
-9277 -9342 -9377 0
9376 9253 0
9376 9341 0
9376 9345 0
9376 9346 0
-9376 -9253 -9341 -9345 -9346 0
9379 9253 0
9379 9318 0
9379 9250 0
9379 9251 0
-9379 -9253 -9318 -9250 -9251 0
9458 9253 0
9458 9254 0
9458 9255 0
-9458 -9253 -9254 -9255 0
9288 9339 0
9288 9258 0
-9288 -9339 -9258 0
9387 9260 0
9387 9261 0
-9387 -9260 -9261 0
9391 9263 0
9391 9264 0
-9391 -9263 -9264 0
9265 9266 0
9265 9267 0
-9265 -9266 -9267 0
9289 9269 0
9289 9270 0
9289 9377 0
-9289 -9269 -9270 -9377 0
9272 9273 0
9272 9274 0
-9272 -9273 -9274 0
9275 9288 0
9275 9277 0
-9275 -9288 -9277 0
9292 9359 0
9292 9326 0
-9292 -9359 -9326 0
9295 9367 0
9295 9327 0
-9295 -9367 -9327 0
9298 9285 0
9298 9328 0
-9298 -9285 -9328 0
9287 9288 0
9287 9289 0
-9287 -9288 -9289 0
9415 9291 0
9415 9292 0
-9415 -9291 -9292 0
9419 9294 0
9419 9295 0
-9419 -9294 -9295 0
9423 9297 0
9423 9298 0
-9423 -9297 -9298 0
9310 9398 0
9310 9318 0
-9310 -9398 -9318 0
9313 9406 0
9313 9346 0
-9313 -9406 -9346 0
9316 9306 0
9316 9320 0
-9316 -9306 -9320 0
9437 9309 0
9437 9310 0
-9437 -9309 -9310 0
9441 9312 0
9441 9313 0
-9441 -9312 -9313 0
9445 9315 0
9445 9316 0
-9445 -9315 -9316 0
-9403 -9318 0
-9403 -9346 0
-9403 -9320 0
9403 9318 9346 9320 0
-9330 -9322 0
-9330 -9323 0
-9330 -9324 0
9330 9322 9323 9324 0
-9364 -9326 0
-9364 -9327 0
-9364 -9328 0
9364 9326 9327 9328 0
-9392 -9330 0
-9392 -9331 0
9392 9330 9331 0
-9332 -9333 0
-9332 -9337 0
-9332 -9338 0
9332 9333 9337 9338 0
-9336 -9337 0
-9336 -9338 0
9336 9337 9338 0
-9339 -9444 0
-9339 -9341 0
9339 9444 9341 0
-9342 -9444 0
-9342 -9344 0
-9342 -9345 0
-9342 -9346 0
9342 9444 9344 9345 9346 0
-9368 -9392 0
-9368 -9349 0
9368 9392 9349 0
-9488 -9444 0
-9488 -9352 0
-9488 -9392 0
9488 9444 9352 9392 0
-9354 -9368 0
-9354 -9356 0
-9354 -9361 0
-9354 -9369 0
9354 9368 9356 9361 9369 0
-9359 -9368 0
-9359 -9361 0
-9359 -9369 0
9359 9368 9361 9369 0
-9424 -9364 0
-9424 -9368 0
-9424 -9366 0
9424 9364 9368 9366 0
-9367 -9368 0
-9367 -9369 0
9367 9368 9369 0
-9460 -9371 0
-9460 -9372 0
-9460 -9373 0
-9460 -9374 0
9460 9371 9372 9373 9374 0
-9452 -9376 0
-9452 -9377 0
9452 9376 9377 0
-9462 -9379 0
-9462 -9380 0
9462 9379 9380 0
-9482 -9444 0
-9482 -9383 0
-9482 -9392 0
9482 9444 9383 9392 0
-9484 -9444 0
-9484 -9387 0
-9484 -9392 0
9484 9444 9387 9392 0
-9486 -9444 0
-9486 -9391 0
-9486 -9392 0
9486 9444 9391 9392 0
-9393 -9407 0
-9393 -9395 0
-9393 -9400 0
-9393 -9408 0
9393 9407 9395 9400 9408 0
-9398 -9407 0
-9398 -9400 0
-9398 -9408 0
9398 9407 9400 9408 0
-9446 -9403 0
-9446 -9407 0
-9446 -9405 0
9446 9403 9407 9405 0
-9406 -9407 0
-9406 -9408 0
9406 9407 9408 0
-9474 -9444 0
-9474 -9411 0
-9474 -9424 0
9474 9444 9411 9424 0
-9476 -9444 0
-9476 -9415 0
-9476 -9424 0
9476 9444 9415 9424 0
-9478 -9444 0
-9478 -9419 0
-9478 -9424 0
9478 9444 9419 9424 0
-9480 -9444 0
-9480 -9423 0
-9480 -9424 0
9480 9444 9423 9424 0
-9454 -9426 0
-9454 -9427 0
9454 9426 9427 0
-9456 -9429 0
-9456 -9430 0
9456 9429 9430 0
-9466 -9444 0
-9466 -9433 0
-9466 -9446 0
9466 9444 9433 9446 0
-9468 -9444 0
-9468 -9437 0
-9468 -9446 0
9468 9444 9437 9446 0
-9470 -9444 0
-9470 -9441 0
-9470 -9446 0
9470 9444 9441 9446 0
-9472 -9444 0
-9472 -9445 0
-9472 -9446 0
9472 9444 9445 9446 0
-9448 9843 0
9448 -9843 0
-9450 9671 0
9450 -9671 0
-9452 9548 0
9452 -9548 0
-9454 9494 0
9454 -9494 0
-9456 9496 0
9456 -9496 0
-9458 9546 0
9458 -9546 0
-9460 9542 0
9460 -9542 0
-9462 9540 0
9462 -9540 0
-9464 9642 0
9464 -9642 0
-9466 9703 0
9466 -9703 0
-9468 9812 0
9468 -9812 0
-9470 9840 0
9470 -9840 0
-9472 9814 0
9472 -9814 0
-9474 9691 0
9474 -9691 0
-9476 9820 0
9476 -9820 0
-9478 9821 0
9478 -9821 0
-9480 9822 0
9480 -9822 0
-9482 9676 0
9482 -9676 0
-9484 9816 0
9484 -9816 0
-9486 9817 0
9486 -9817 0
-9488 9818 0
9488 -9818 0
9688 9843 0
-9688 -9843 0
9685 9671 0
-9685 -9671 0
9562 9494 0
-9562 -9494 0
9560 9496 0
-9560 -9496 0
9899 9703 0
-9899 -9703 0
9889 9812 0
-9889 -9812 0
9894 9840 0
-9894 -9840 0
9902 9814 0
-9902 -9814 0
9860 9691 0
-9860 -9691 0
9850 9820 0
-9850 -9820 0
9855 9821 0
-9855 -9821 0
9863 9822 0
-9863 -9822 0
9825 9676 0
-9825 -9676 0
9827 9816 0
-9827 -9816 0
9831 9817 0
-9831 -9817 0
9832 9818 0
-9832 -9818 0
9550 9522 0
-9550 -9522 0
9552 9524 0
-9552 -9524 0
9838 9671 0
-9838 -9671 0
9554 9528 0
-9554 -9528 0
9871 9814 0
-9871 -9814 0
9764 9840 0
-9764 -9840 0
9839 9812 0
-9839 -9812 0
9718 9703 0
-9718 -9703 0
9556 9818 0
-9556 -9818 0
9539 9540 0
-9539 -9540 0
9541 9542 0
-9541 -9542 0
9835 9642 0
-9835 -9642 0
9545 9546 0
-9545 -9546 0
9547 9548 0
-9547 -9548 0
9647 9550 0
-9647 -9550 0
9938 9552 0
-9938 -9552 0
9667 9554 0
-9667 -9554 0
9846 9556 0
-9846 -9556 0
9725 9832 0
-9725 -9832 0
9559 9560 0
-9559 -9560 0
9561 9562 0
-9561 -9562 0
9684 9647 0
-9684 -9647 0
9622 9938 0
-9622 -9938 0
9616 9938 0
-9616 -9938 0
9747 9938 0
-9747 -9938 0
9687 9667 0
-9687 -9667 0
9779 9862 0
-9779 -9862 0
9877 9674 0
-9877 -9674 0
9901 9918 0
-9901 -9918 0
9617 9759 0
-9617 -9759 0
9623 9766 0
-9623 -9766 0
9592 9769 0
-9592 -9769 0
9628 9769 0
-9628 -9769 0
9905 9689 0
-9905 -9689 0
9800 9901 0
-9800 -9901 0
9958 9592 0
-9958 -9592 0
9927 9701 0
-9927 -9701 0
-9874 9716 0
-9874 9642 0
9874 -9716 -9642 0
-9865 9642 0
-9865 9747 0
9865 -9642 -9747 0
-9866 9812 0
-9866 9747 0
9866 -9812 -9747 0
-9867 9814 0
-9867 9840 0
-9867 9747 0
9867 -9814 -9840 -9747 0
-9868 9871 0
-9868 9703 0
-9868 9747 0
9868 -9871 -9703 -9747 0
-9924 9769 0
-9924 9850 0
9924 -9769 -9850 0
-9944 9616 0
-9944 9617 0
9944 -9616 -9617 0
-9921 9781 0
-9921 9850 0
9921 -9781 -9850 0
-9942 9622 0
-9942 9623 0
9942 -9622 -9623 0
-9920 9628 0
-9920 9781 0
9920 -9628 -9781 0
-9923 9628 0
-9923 9727 0
9923 -9628 -9727 0
9748 -9812 0
9748 -9703 0
9748 -9642 0
-9748 9812 9703 9642 0
9745 -9814 0
9745 -9840 0
9745 -9838 0
-9745 9814 9840 9838 0
9749 -9871 0
9749 -9840 0
9749 -9812 0
9749 -9642 0
-9749 9871 9840 9812 9642 0
9744 -9718 0
9744 -9838 0
-9744 9718 9838 0
9761 -9647 0
9761 -9671 0
-9761 9647 9671 0
9728 -9839 0
9728 -9938 0
-9728 9839 9938 0
9729 -9814 0
9729 -9840 0
9729 -9718 0
9729 -9938 0
-9729 9814 9840 9718 9938 0
9731 -9812 0
9731 -9718 0
9731 -9938 0
-9731 9812 9718 9938 0
9732 -9839 0
9732 -9703 0
9732 -9838 0
9732 -9938 0
-9732 9839 9703 9838 9938 0
9768 -9667 0
9768 -9843 0
-9768 9667 9843 0
9752 -9713 0
9752 -9671 0
9752 -9703 0
9752 -9839 0
-9752 9713 9671 9703 9839 0
9674 -9826 0
9674 -9676 0
-9674 9826 9676 0
9754 -9830 0
9754 -9816 0
-9754 9830 9816 0
9757 -9725 0
9757 -9817 0
-9757 9725 9817 0
9760 -9684 0
9760 -9685 0
-9760 9684 9685 0
9767 -9687 0
9767 -9688 0
-9767 9687 9688 0
9689 -9848 0
9689 -9691 0
-9689 9848 9691 0
9785 -9853 0
9785 -9820 0
-9785 9853 9820 0
9788 -9861 0
9788 -9821 0
-9788 9861 9821 0
9791 -9779 0
9791 -9822 0
-9791 9779 9822 0
9701 -9887 0
9701 -9703 0
-9701 9887 9703 0
9803 -9892 0
9803 -9812 0
-9803 9892 9812 0
9806 -9900 0
9806 -9840 0
-9806 9900 9840 0
9809 -9800 0
9809 -9814 0
-9809 9800 9814 0
9713 9764 0
9713 9814 0
-9713 -9764 -9814 0
9716 9838 0
9716 9718 0
9716 9764 0
9716 9814 0
-9716 -9838 -9718 -9764 -9814 0
9755 9830 0
9755 9816 0
-9755 -9830 -9816 0
9758 9725 0
9758 9817 0
-9758 -9725 -9817 0
9727 9728 0
9727 9729 0
-9727 -9728 -9729 0
9763 9731 0
9763 9732 0
-9763 -9731 -9732 0
9771 9836 0
9771 9871 0
-9771 -9836 -9871 0
9870 9747 0
9870 9835 0
9870 9839 0
9870 9840 0
-9870 -9747 -9835 -9839 -9840 0
9873 9747 0
9873 9812 0
9873 9744 0
9873 9745 0
-9873 -9747 -9812 -9744 -9745 0
9952 9747 0
9952 9748 0
9952 9749 0
-9952 -9747 -9748 -9749 0
9782 9833 0
9782 9752 0
-9782 -9833 -9752 0
9881 9754 0
9881 9755 0
-9881 -9754 -9755 0
9885 9757 0
9885 9758 0
-9885 -9757 -9758 0
9759 9760 0
9759 9761 0
-9759 -9760 -9761 0
9783 9763 0
9783 9764 0
9783 9871 0
-9783 -9763 -9764 -9871 0
9766 9767 0
9766 9768 0
-9766 -9767 -9768 0
9769 9782 0
9769 9771 0
-9769 -9782 -9771 0
9786 9853 0
9786 9820 0
-9786 -9853 -9820 0
9789 9861 0
9789 9821 0
-9789 -9861 -9821 0
9792 9779 0
9792 9822 0
-9792 -9779 -9822 0
9781 9782 0
9781 9783 0
-9781 -9782 -9783 0
9909 9785 0
9909 9786 0
-9909 -9785 -9786 0
9913 9788 0
9913 9789 0
-9913 -9788 -9789 0
9917 9791 0
9917 9792 0
-9917 -9791 -9792 0
9804 9892 0
9804 9812 0
-9804 -9892 -9812 0
9807 9900 0
9807 9840 0
-9807 -9900 -9840 0
9810 9800 0
9810 9814 0
-9810 -9800 -9814 0
9931 9803 0
9931 9804 0
-9931 -9803 -9804 0
9935 9806 0
9935 9807 0
-9935 -9806 -9807 0
9939 9809 0
9939 9810 0
-9939 -9809 -9810 0
-9897 -9812 0
-9897 -9840 0
-9897 -9814 0
9897 9812 9840 9814 0
-9824 -9816 0
-9824 -9817 0
-9824 -9818 0
9824 9816 9817 9818 0
-9858 -9820 0
-9858 -9821 0
-9858 -9822 0
9858 9820 9821 9822 0
-9886 -9824 0
-9886 -9825 0
9886 9824 9825 0
-9826 -9827 0
-9826 -9831 0
-9826 -9832 0
9826 9827 9831 9832 0
-9830 -9831 0
-9830 -9832 0
9830 9831 9832 0
-9833 -9938 0
-9833 -9835 0
9833 9938 9835 0
-9836 -9938 0
-9836 -9838 0
-9836 -9839 0
-9836 -9840 0
9836 9938 9838 9839 9840 0
-9862 -9886 0
-9862 -9843 0
9862 9886 9843 0
-9982 -9938 0
-9982 -9846 0
-9982 -9886 0
9982 9938 9846 9886 0
-9848 -9862 0
-9848 -9850 0
-9848 -9855 0
-9848 -9863 0
9848 9862 9850 9855 9863 0
-9853 -9862 0
-9853 -9855 0
-9853 -9863 0
9853 9862 9855 9863 0
-9918 -9858 0
-9918 -9862 0
-9918 -9860 0
9918 9858 9862 9860 0
-9861 -9862 0
-9861 -9863 0
9861 9862 9863 0
-9954 -9865 0
-9954 -9866 0
-9954 -9867 0
-9954 -9868 0
9954 9865 9866 9867 9868 0
-9946 -9870 0
-9946 -9871 0
9946 9870 9871 0
-9956 -9873 0
-9956 -9874 0
9956 9873 9874 0
-9976 -9938 0
-9976 -9877 0
-9976 -9886 0
9976 9938 9877 9886 0
-9978 -9938 0
-9978 -9881 0
-9978 -9886 0
9978 9938 9881 9886 0
-9980 -9938 0
-9980 -9885 0
-9980 -9886 0
9980 9938 9885 9886 0
-9887 -9901 0
-9887 -9889 0
-9887 -9894 0
-9887 -9902 0
9887 9901 9889 9894 9902 0
-9892 -9901 0
-9892 -9894 0
-9892 -9902 0
9892 9901 9894 9902 0
-9940 -9897 0
-9940 -9901 0
-9940 -9899 0
9940 9897 9901 9899 0
-9900 -9901 0
-9900 -9902 0
9900 9901 9902 0
-9968 -9938 0
-9968 -9905 0
-9968 -9918 0
9968 9938 9905 9918 0
-9970 -9938 0
-9970 -9909 0
-9970 -9918 0
9970 9938 9909 9918 0
-9972 -9938 0
-9972 -9913 0
-9972 -9918 0
9972 9938 9913 9918 0
-9974 -9938 0
-9974 -9917 0
-9974 -9918 0
9974 9938 9917 9918 0
-9948 -9920 0
-9948 -9921 0
9948 9920 9921 0
-9950 -9923 0
-9950 -9924 0
9950 9923 9924 0
-9960 -9938 0
-9960 -9927 0
-9960 -9940 0
9960 9938 9927 9940 0
-9962 -9938 0
-9962 -9931 0
-9962 -9940 0
9962 9938 9931 9940 0
-9964 -9938 0
-9964 -9935 0
-9964 -9940 0
9964 9938 9935 9940 0
-9966 -9938 0
-9966 -9939 0
-9966 -9940 0
9966 9938 9939 9940 0
-9942 10337 0
9942 -10337 0
-9944 10165 0
9944 -10165 0
-9946 10042 0
9946 -10042 0
-9948 9988 0
9948 -9988 0
-9950 9990 0
9950 -9990 0
-9952 10040 0
9952 -10040 0
-9954 10036 0
9954 -10036 0
-9956 10034 0
9956 -10034 0
-9958 10136 0
9958 -10136 0
-9960 10197 0
9960 -10197 0
-9962 10306 0
9962 -10306 0
-9964 10334 0
9964 -10334 0
-9966 10308 0
9966 -10308 0
-9968 10185 0
9968 -10185 0
-9970 10314 0
9970 -10314 0
-9972 10315 0
9972 -10315 0
-9974 10316 0
9974 -10316 0
-9976 10170 0
9976 -10170 0
-9978 10310 0
9978 -10310 0
-9980 10311 0
9980 -10311 0
-9982 10312 0
9982 -10312 0
10182 10337 0
-10182 -10337 0
10179 10165 0
-10179 -10165 0
10056 9988 0
-10056 -9988 0
10054 9990 0
-10054 -9990 0
10393 10197 0
-10393 -10197 0
10383 10306 0
-10383 -10306 0
10388 10334 0
-10388 -10334 0
10396 10308 0
-10396 -10308 0
10354 10185 0
-10354 -10185 0
10344 10314 0
-10344 -10314 0
10349 10315 0
-10349 -10315 0
10357 10316 0
-10357 -10316 0
10319 10170 0
-10319 -10170 0
10321 10310 0
-10321 -10310 0
10325 10311 0
-10325 -10311 0
10326 10312 0
-10326 -10312 0
10044 10016 0
-10044 -10016 0
10046 10018 0
-10046 -10018 0
10332 10165 0
-10332 -10165 0
10048 10022 0
-10048 -10022 0
10365 10308 0
-10365 -10308 0
10258 10334 0
-10258 -10334 0
10333 10306 0
-10333 -10306 0
10212 10197 0
-10212 -10197 0
10050 10312 0
-10050 -10312 0
10033 10034 0
-10033 -10034 0
10035 10036 0
-10035 -10036 0
10329 10136 0
-10329 -10136 0
10039 10040 0
-10039 -10040 0
10041 10042 0
-10041 -10042 0
10141 10044 0
-10141 -10044 0
10432 10046 0
-10432 -10046 0
10161 10048 0
-10161 -10048 0
10340 10050 0
-10340 -10050 0
10219 10326 0
-10219 -10326 0
10053 10054 0
-10053 -10054 0
10055 10056 0
-10055 -10056 0
10178 10141 0
-10178 -10141 0
10116 10432 0
-10116 -10432 0
10110 10432 0
-10110 -10432 0
10241 10432 0
-10241 -10432 0
10181 10161 0
-10181 -10161 0
10273 10356 0
-10273 -10356 0
10371 10168 0
-10371 -10168 0
10395 10412 0
-10395 -10412 0
10111 10253 0
-10111 -10253 0
10117 10260 0
-10117 -10260 0
10086 10263 0
-10086 -10263 0
10122 10263 0
-10122 -10263 0
10399 10183 0
-10399 -10183 0
10294 10395 0
-10294 -10395 0
10452 10086 0
-10452 -10086 0
10421 10195 0
-10421 -10195 0
-10368 10210 0
-10368 10136 0
10368 -10210 -10136 0
-10359 10136 0
-10359 10241 0
10359 -10136 -10241 0
-10360 10306 0
-10360 10241 0
10360 -10306 -10241 0
-10361 10308 0
-10361 10334 0
-10361 10241 0
10361 -10308 -10334 -10241 0
-10362 10365 0
-10362 10197 0
-10362 10241 0
10362 -10365 -10197 -10241 0
-10418 10263 0
-10418 10344 0
10418 -10263 -10344 0
-10438 10110 0
-10438 10111 0
10438 -10110 -10111 0
-10415 10275 0
-10415 10344 0
10415 -10275 -10344 0
-10436 10116 0
-10436 10117 0
10436 -10116 -10117 0
-10414 10122 0
-10414 10275 0
10414 -10122 -10275 0
-10417 10122 0
-10417 10221 0
10417 -10122 -10221 0
10242 -10306 0
10242 -10197 0
10242 -10136 0
-10242 10306 10197 10136 0
10239 -10308 0
10239 -10334 0
10239 -10332 0
-10239 10308 10334 10332 0
10243 -10365 0
10243 -10334 0
10243 -10306 0
10243 -10136 0
-10243 10365 10334 10306 10136 0
10238 -10212 0
10238 -10332 0
-10238 10212 10332 0
10255 -10141 0
10255 -10165 0
-10255 10141 10165 0
10222 -10333 0
10222 -10432 0
-10222 10333 10432 0
10223 -10308 0
10223 -10334 0
10223 -10212 0
10223 -10432 0
-10223 10308 10334 10212 10432 0
10225 -10306 0
10225 -10212 0
10225 -10432 0
-10225 10306 10212 10432 0
10226 -10333 0
10226 -10197 0
10226 -10332 0
10226 -10432 0
-10226 10333 10197 10332 10432 0
10262 -10161 0
10262 -10337 0
-10262 10161 10337 0
10246 -10207 0
10246 -10165 0
10246 -10197 0
10246 -10333 0
-10246 10207 10165 10197 10333 0
10168 -10320 0
10168 -10170 0
-10168 10320 10170 0
10248 -10324 0
10248 -10310 0
-10248 10324 10310 0
10251 -10219 0
10251 -10311 0
-10251 10219 10311 0
10254 -10178 0
10254 -10179 0
-10254 10178 10179 0
10261 -10181 0
10261 -10182 0
-10261 10181 10182 0
10183 -10342 0
10183 -10185 0
-10183 10342 10185 0
10279 -10347 0
10279 -10314 0
-10279 10347 10314 0
10282 -10355 0
10282 -10315 0
-10282 10355 10315 0
10285 -10273 0
10285 -10316 0
-10285 10273 10316 0
10195 -10381 0
10195 -10197 0
-10195 10381 10197 0
10297 -10386 0
10297 -10306 0
-10297 10386 10306 0
10300 -10394 0
10300 -10334 0
-10300 10394 10334 0
10303 -10294 0
10303 -10308 0
-10303 10294 10308 0
10207 10258 0
10207 10308 0
-10207 -10258 -10308 0
10210 10332 0
10210 10212 0
10210 10258 0
10210 10308 0
-10210 -10332 -10212 -10258 -10308 0
10249 10324 0
10249 10310 0
-10249 -10324 -10310 0
10252 10219 0
10252 10311 0
-10252 -10219 -10311 0
10221 10222 0
10221 10223 0
-10221 -10222 -10223 0
10257 10225 0
10257 10226 0
-10257 -10225 -10226 0
10265 10330 0
10265 10365 0
-10265 -10330 -10365 0
10364 10241 0
10364 10329 0
10364 10333 0
10364 10334 0
-10364 -10241 -10329 -10333 -10334 0
10367 10241 0
10367 10306 0
10367 10238 0
10367 10239 0
-10367 -10241 -10306 -10238 -10239 0
10446 10241 0
10446 10242 0
10446 10243 0
-10446 -10241 -10242 -10243 0
10276 10327 0
10276 10246 0
-10276 -10327 -10246 0
10375 10248 0
10375 10249 0
-10375 -10248 -10249 0
10379 10251 0
10379 10252 0
-10379 -10251 -10252 0
10253 10254 0
10253 10255 0
-10253 -10254 -10255 0
10277 10257 0
10277 10258 0
10277 10365 0
-10277 -10257 -10258 -10365 0
10260 10261 0
10260 10262 0
-10260 -10261 -10262 0
10263 10276 0
10263 10265 0
-10263 -10276 -10265 0
10280 10347 0
10280 10314 0
-10280 -10347 -10314 0
10283 10355 0
10283 10315 0
-10283 -10355 -10315 0
10286 10273 0
10286 10316 0
-10286 -10273 -10316 0
10275 10276 0
10275 10277 0
-10275 -10276 -10277 0
10403 10279 0
10403 10280 0
-10403 -10279 -10280 0
10407 10282 0
10407 10283 0
-10407 -10282 -10283 0
10411 10285 0
10411 10286 0
-10411 -10285 -10286 0
10298 10386 0
10298 10306 0
-10298 -10386 -10306 0
10301 10394 0
10301 10334 0
-10301 -10394 -10334 0
10304 10294 0
10304 10308 0
-10304 -10294 -10308 0
10425 10297 0
10425 10298 0
-10425 -10297 -10298 0
10429 10300 0
10429 10301 0
-10429 -10300 -10301 0
10433 10303 0
10433 10304 0
-10433 -10303 -10304 0
-10391 -10306 0
-10391 -10334 0
-10391 -10308 0
10391 10306 10334 10308 0
-10318 -10310 0
-10318 -10311 0
-10318 -10312 0
10318 10310 10311 10312 0
-10352 -10314 0
-10352 -10315 0
-10352 -10316 0
10352 10314 10315 10316 0
-10380 -10318 0
-10380 -10319 0
10380 10318 10319 0
-10320 -10321 0
-10320 -10325 0
-10320 -10326 0
10320 10321 10325 10326 0
-10324 -10325 0
-10324 -10326 0
10324 10325 10326 0
-10327 -10432 0
-10327 -10329 0
10327 10432 10329 0
-10330 -10432 0
-10330 -10332 0
-10330 -10333 0
-10330 -10334 0
10330 10432 10332 10333 10334 0
-10356 -10380 0
-10356 -10337 0
10356 10380 10337 0
-10476 -10432 0
-10476 -10340 0
-10476 -10380 0
10476 10432 10340 10380 0
-10342 -10356 0
-10342 -10344 0
-10342 -10349 0
-10342 -10357 0
10342 10356 10344 10349 10357 0
-10347 -10356 0
-10347 -10349 0
-10347 -10357 0
10347 10356 10349 10357 0
-10412 -10352 0
-10412 -10356 0
-10412 -10354 0
10412 10352 10356 10354 0
-10355 -10356 0
-10355 -10357 0
10355 10356 10357 0
-10448 -10359 0
-10448 -10360 0
-10448 -10361 0
-10448 -10362 0
10448 10359 10360 10361 10362 0
-10440 -10364 0
-10440 -10365 0
10440 10364 10365 0
-10450 -10367 0
-10450 -10368 0
10450 10367 10368 0
-10470 -10432 0
-10470 -10371 0
-10470 -10380 0
10470 10432 10371 10380 0
-10472 -10432 0
-10472 -10375 0
-10472 -10380 0
10472 10432 10375 10380 0
-10474 -10432 0
-10474 -10379 0
-10474 -10380 0
10474 10432 10379 10380 0
-10381 -10395 0
-10381 -10383 0
-10381 -10388 0
-10381 -10396 0
10381 10395 10383 10388 10396 0
-10386 -10395 0
-10386 -10388 0
-10386 -10396 0
10386 10395 10388 10396 0
-10434 -10391 0
-10434 -10395 0
-10434 -10393 0
10434 10391 10395 10393 0
-10394 -10395 0
-10394 -10396 0
10394 10395 10396 0
-10462 -10432 0
-10462 -10399 0
-10462 -10412 0
10462 10432 10399 10412 0
-10464 -10432 0
-10464 -10403 0
-10464 -10412 0
10464 10432 10403 10412 0
-10466 -10432 0
-10466 -10407 0
-10466 -10412 0
10466 10432 10407 10412 0
-10468 -10432 0
-10468 -10411 0
-10468 -10412 0
10468 10432 10411 10412 0
-10442 -10414 0
-10442 -10415 0
10442 10414 10415 0
-10444 -10417 0
-10444 -10418 0
10444 10417 10418 0
-10454 -10432 0
-10454 -10421 0
-10454 -10434 0
10454 10432 10421 10434 0
-10456 -10432 0
-10456 -10425 0
-10456 -10434 0
10456 10432 10425 10434 0
-10458 -10432 0
-10458 -10429 0
-10458 -10434 0
10458 10432 10429 10434 0
-10460 -10432 0
-10460 -10433 0
-10460 -10434 0
10460 10432 10433 10434 0
-10436 10831 0
10436 -10831 0
-10438 10659 0
10438 -10659 0
-10440 10536 0
10440 -10536 0
-10442 10482 0
10442 -10482 0
-10444 10484 0
10444 -10484 0
-10446 10534 0
10446 -10534 0
-10448 10530 0
10448 -10530 0
-10450 10528 0
10450 -10528 0
-10452 10630 0
10452 -10630 0
-10454 10691 0
10454 -10691 0
-10456 10800 0
10456 -10800 0
-10458 10828 0
10458 -10828 0
-10460 10802 0
10460 -10802 0
-10462 10679 0
10462 -10679 0
-10464 10808 0
10464 -10808 0
-10466 10809 0
10466 -10809 0
-10468 10810 0
10468 -10810 0
-10470 10664 0
10470 -10664 0
-10472 10804 0
10472 -10804 0
-10474 10805 0
10474 -10805 0
-10476 10806 0
10476 -10806 0
10676 10831 0
-10676 -10831 0
10673 10659 0
-10673 -10659 0
10550 10482 0
-10550 -10482 0
10548 10484 0
-10548 -10484 0
10887 10691 0
-10887 -10691 0
10877 10800 0
-10877 -10800 0
10882 10828 0
-10882 -10828 0
10890 10802 0
-10890 -10802 0
10848 10679 0
-10848 -10679 0
10838 10808 0
-10838 -10808 0
10843 10809 0
-10843 -10809 0
10851 10810 0
-10851 -10810 0
10813 10664 0
-10813 -10664 0
10815 10804 0
-10815 -10804 0
10819 10805 0
-10819 -10805 0
10820 10806 0
-10820 -10806 0
10538 10510 0
-10538 -10510 0
10540 10512 0
-10540 -10512 0
10826 10659 0
-10826 -10659 0
10542 10516 0
-10542 -10516 0
10859 10802 0
-10859 -10802 0
10752 10828 0
-10752 -10828 0
10827 10800 0
-10827 -10800 0
10706 10691 0
-10706 -10691 0
10544 10806 0
-10544 -10806 0
10527 10528 0
-10527 -10528 0
10529 10530 0
-10529 -10530 0
10823 10630 0
-10823 -10630 0
10533 10534 0
-10533 -10534 0
10535 10536 0
-10535 -10536 0
10635 10538 0
-10635 -10538 0
10926 10540 0
-10926 -10540 0
10655 10542 0
-10655 -10542 0
10834 10544 0
-10834 -10544 0
10713 10820 0
-10713 -10820 0
10547 10548 0
-10547 -10548 0
10549 10550 0
-10549 -10550 0
10672 10635 0
-10672 -10635 0
10610 10926 0
-10610 -10926 0
10604 10926 0
-10604 -10926 0
10735 10926 0
-10735 -10926 0
10675 10655 0
-10675 -10655 0
10767 10850 0
-10767 -10850 0
10865 10662 0
-10865 -10662 0
10889 10906 0
-10889 -10906 0
10605 10747 0
-10605 -10747 0
10611 10754 0
-10611 -10754 0
10580 10757 0
-10580 -10757 0
10616 10757 0
-10616 -10757 0
10893 10677 0
-10893 -10677 0
10788 10889 0
-10788 -10889 0
10946 10580 0
-10946 -10580 0
10915 10689 0
-10915 -10689 0
-10862 10704 0
-10862 10630 0
10862 -10704 -10630 0
-10853 10630 0
-10853 10735 0
10853 -10630 -10735 0
-10854 10800 0
-10854 10735 0
10854 -10800 -10735 0
-10855 10802 0
-10855 10828 0
-10855 10735 0
10855 -10802 -10828 -10735 0
-10856 10859 0
-10856 10691 0
-10856 10735 0
10856 -10859 -10691 -10735 0
-10912 10757 0
-10912 10838 0
10912 -10757 -10838 0
-10932 10604 0
-10932 10605 0
10932 -10604 -10605 0
-10909 10769 0
-10909 10838 0
10909 -10769 -10838 0
-10930 10610 0
-10930 10611 0
10930 -10610 -10611 0
-10908 10616 0
-10908 10769 0
10908 -10616 -10769 0
-10911 10616 0
-10911 10715 0
10911 -10616 -10715 0
10736 -10800 0
10736 -10691 0
10736 -10630 0
-10736 10800 10691 10630 0
10733 -10802 0
10733 -10828 0
10733 -10826 0
-10733 10802 10828 10826 0
10737 -10859 0
10737 -10828 0
10737 -10800 0
10737 -10630 0
-10737 10859 10828 10800 10630 0
10732 -10706 0
10732 -10826 0
-10732 10706 10826 0
10749 -10635 0
10749 -10659 0
-10749 10635 10659 0
10716 -10827 0
10716 -10926 0
-10716 10827 10926 0
10717 -10802 0
10717 -10828 0
10717 -10706 0
10717 -10926 0
-10717 10802 10828 10706 10926 0
10719 -10800 0
10719 -10706 0
10719 -10926 0
-10719 10800 10706 10926 0
10720 -10827 0
10720 -10691 0
10720 -10826 0
10720 -10926 0
-10720 10827 10691 10826 10926 0
10756 -10655 0
10756 -10831 0
-10756 10655 10831 0
10740 -10701 0
10740 -10659 0
10740 -10691 0
10740 -10827 0
-10740 10701 10659 10691 10827 0
10662 -10814 0
10662 -10664 0
-10662 10814 10664 0
10742 -10818 0
10742 -10804 0
-10742 10818 10804 0
10745 -10713 0
10745 -10805 0
-10745 10713 10805 0
10748 -10672 0
10748 -10673 0
-10748 10672 10673 0
10755 -10675 0
10755 -10676 0
-10755 10675 10676 0
10677 -10836 0
10677 -10679 0
-10677 10836 10679 0
10773 -10841 0
10773 -10808 0
-10773 10841 10808 0
10776 -10849 0
10776 -10809 0
-10776 10849 10809 0
10779 -10767 0
10779 -10810 0
-10779 10767 10810 0
10689 -10875 0
10689 -10691 0
-10689 10875 10691 0
10791 -10880 0
10791 -10800 0
-10791 10880 10800 0
10794 -10888 0
10794 -10828 0
-10794 10888 10828 0
10797 -10788 0
10797 -10802 0
-10797 10788 10802 0
10701 10752 0
10701 10802 0
-10701 -10752 -10802 0
10704 10826 0
10704 10706 0
10704 10752 0
10704 10802 0
-10704 -10826 -10706 -10752 -10802 0
10743 10818 0
10743 10804 0
-10743 -10818 -10804 0
10746 10713 0
10746 10805 0
-10746 -10713 -10805 0
10715 10716 0
10715 10717 0
-10715 -10716 -10717 0
10751 10719 0
10751 10720 0
-10751 -10719 -10720 0
10759 10824 0
10759 10859 0
-10759 -10824 -10859 0
10858 10735 0
10858 10823 0
10858 10827 0
10858 10828 0
-10858 -10735 -10823 -10827 -10828 0
10861 10735 0
10861 10800 0
10861 10732 0
10861 10733 0
-10861 -10735 -10800 -10732 -10733 0
10940 10735 0
10940 10736 0
10940 10737 0
-10940 -10735 -10736 -10737 0
10770 10821 0
10770 10740 0
-10770 -10821 -10740 0
10869 10742 0
10869 10743 0
-10869 -10742 -10743 0
10873 10745 0
10873 10746 0
-10873 -10745 -10746 0
10747 10748 0
10747 10749 0
-10747 -10748 -10749 0
10771 10751 0
10771 10752 0
10771 10859 0
-10771 -10751 -10752 -10859 0
10754 10755 0
10754 10756 0
-10754 -10755 -10756 0
10757 10770 0
10757 10759 0
-10757 -10770 -10759 0
10774 10841 0
10774 10808 0
-10774 -10841 -10808 0
10777 10849 0
10777 10809 0
-10777 -10849 -10809 0
10780 10767 0
10780 10810 0
-10780 -10767 -10810 0
10769 10770 0
10769 10771 0
-10769 -10770 -10771 0
10897 10773 0
10897 10774 0
-10897 -10773 -10774 0
10901 10776 0
10901 10777 0
-10901 -10776 -10777 0
10905 10779 0
10905 10780 0
-10905 -10779 -10780 0
10792 10880 0
10792 10800 0
-10792 -10880 -10800 0
10795 10888 0
10795 10828 0
-10795 -10888 -10828 0
10798 10788 0
10798 10802 0
-10798 -10788 -10802 0
10919 10791 0
10919 10792 0
-10919 -10791 -10792 0
10923 10794 0
10923 10795 0
-10923 -10794 -10795 0
10927 10797 0
10927 10798 0
-10927 -10797 -10798 0
-10885 -10800 0
-10885 -10828 0
-10885 -10802 0
10885 10800 10828 10802 0
-10812 -10804 0
-10812 -10805 0
-10812 -10806 0
10812 10804 10805 10806 0
-10846 -10808 0
-10846 -10809 0
-10846 -10810 0
10846 10808 10809 10810 0
-10874 -10812 0
-10874 -10813 0
10874 10812 10813 0
-10814 -10815 0
-10814 -10819 0
-10814 -10820 0
10814 10815 10819 10820 0
-10818 -10819 0
-10818 -10820 0
10818 10819 10820 0
-10821 -10926 0
-10821 -10823 0
10821 10926 10823 0
-10824 -10926 0
-10824 -10826 0
-10824 -10827 0
-10824 -10828 0
10824 10926 10826 10827 10828 0
-10850 -10874 0
-10850 -10831 0
10850 10874 10831 0
-10970 -10926 0
-10970 -10834 0
-10970 -10874 0
10970 10926 10834 10874 0
-10836 -10850 0
-10836 -10838 0
-10836 -10843 0
-10836 -10851 0
10836 10850 10838 10843 10851 0
-10841 -10850 0
-10841 -10843 0
-10841 -10851 0
10841 10850 10843 10851 0
-10906 -10846 0
-10906 -10850 0
-10906 -10848 0
10906 10846 10850 10848 0
-10849 -10850 0
-10849 -10851 0
10849 10850 10851 0
-10942 -10853 0
-10942 -10854 0
-10942 -10855 0
-10942 -10856 0
10942 10853 10854 10855 10856 0
-10934 -10858 0
-10934 -10859 0
10934 10858 10859 0
-10944 -10861 0
-10944 -10862 0
10944 10861 10862 0
-10964 -10926 0
-10964 -10865 0
-10964 -10874 0
10964 10926 10865 10874 0
-10966 -10926 0
-10966 -10869 0
-10966 -10874 0
10966 10926 10869 10874 0
-10968 -10926 0
-10968 -10873 0
-10968 -10874 0
10968 10926 10873 10874 0
-10875 -10889 0
-10875 -10877 0
-10875 -10882 0
-10875 -10890 0
10875 10889 10877 10882 10890 0
-10880 -10889 0
-10880 -10882 0
-10880 -10890 0
10880 10889 10882 10890 0
-10928 -10885 0
-10928 -10889 0
-10928 -10887 0
10928 10885 10889 10887 0
-10888 -10889 0
-10888 -10890 0
10888 10889 10890 0
-10956 -10926 0
-10956 -10893 0
-10956 -10906 0
10956 10926 10893 10906 0
-10958 -10926 0
-10958 -10897 0
-10958 -10906 0
10958 10926 10897 10906 0
-10960 -10926 0
-10960 -10901 0
-10960 -10906 0
10960 10926 10901 10906 0
-10962 -10926 0
-10962 -10905 0
-10962 -10906 0
10962 10926 10905 10906 0
-10936 -10908 0
-10936 -10909 0
10936 10908 10909 0
-10938 -10911 0
-10938 -10912 0
10938 10911 10912 0
-10948 -10926 0
-10948 -10915 0
-10948 -10928 0
10948 10926 10915 10928 0
-10950 -10926 0
-10950 -10919 0
-10950 -10928 0
10950 10926 10919 10928 0
-10952 -10926 0
-10952 -10923 0
-10952 -10928 0
10952 10926 10923 10928 0
-10954 -10926 0
-10954 -10927 0
-10954 -10928 0
10954 10926 10927 10928 0
-10930 11325 0
10930 -11325 0
-10932 11153 0
10932 -11153 0
-10934 11030 0
10934 -11030 0
-10936 10976 0
10936 -10976 0
-10938 10978 0
10938 -10978 0
-10940 11028 0
10940 -11028 0
-10942 11024 0
10942 -11024 0
-10944 11022 0
10944 -11022 0
-10946 11124 0
10946 -11124 0
-10948 11185 0
10948 -11185 0
-10950 11294 0
10950 -11294 0
-10952 11322 0
10952 -11322 0
-10954 11296 0
10954 -11296 0
-10956 11173 0
10956 -11173 0
-10958 11302 0
10958 -11302 0
-10960 11303 0
10960 -11303 0
-10962 11304 0
10962 -11304 0
-10964 11158 0
10964 -11158 0
-10966 11298 0
10966 -11298 0
-10968 11299 0
10968 -11299 0
-10970 11300 0
10970 -11300 0
11170 11325 0
-11170 -11325 0
11167 11153 0
-11167 -11153 0
11044 10976 0
-11044 -10976 0
11042 10978 0
-11042 -10978 0
11381 11185 0
-11381 -11185 0
11371 11294 0
-11371 -11294 0
11376 11322 0
-11376 -11322 0
11384 11296 0
-11384 -11296 0
11342 11173 0
-11342 -11173 0
11332 11302 0
-11332 -11302 0
11337 11303 0
-11337 -11303 0
11345 11304 0
-11345 -11304 0
11307 11158 0
-11307 -11158 0
11309 11298 0
-11309 -11298 0
11313 11299 0
-11313 -11299 0
11314 11300 0
-11314 -11300 0
11032 11004 0
-11032 -11004 0
11034 11006 0
-11034 -11006 0
11320 11153 0
-11320 -11153 0
11036 11010 0
-11036 -11010 0
11353 11296 0
-11353 -11296 0
11246 11322 0
-11246 -11322 0
11321 11294 0
-11321 -11294 0
11200 11185 0
-11200 -11185 0
11038 11300 0
-11038 -11300 0
11021 11022 0
-11021 -11022 0
11023 11024 0
-11023 -11024 0
11317 11124 0
-11317 -11124 0
11027 11028 0
-11027 -11028 0
11029 11030 0
-11029 -11030 0
11129 11032 0
-11129 -11032 0
11420 11034 0
-11420 -11034 0
11149 11036 0
-11149 -11036 0
11328 11038 0
-11328 -11038 0
11207 11314 0
-11207 -11314 0
11041 11042 0
-11041 -11042 0
11043 11044 0
-11043 -11044 0
11166 11129 0
-11166 -11129 0
11104 11420 0
-11104 -11420 0
11098 11420 0
-11098 -11420 0
11229 11420 0
-11229 -11420 0
11169 11149 0
-11169 -11149 0
11261 11344 0
-11261 -11344 0
11359 11156 0
-11359 -11156 0
11383 11400 0
-11383 -11400 0
11099 11241 0
-11099 -11241 0
11105 11248 0
-11105 -11248 0
11074 11251 0
-11074 -11251 0
11110 11251 0
-11110 -11251 0
11387 11171 0
-11387 -11171 0
11282 11383 0
-11282 -11383 0
11440 11074 0
-11440 -11074 0
11409 11183 0
-11409 -11183 0
-11356 11198 0
-11356 11124 0
11356 -11198 -11124 0
-11347 11124 0
-11347 11229 0
11347 -11124 -11229 0
-11348 11294 0
-11348 11229 0
11348 -11294 -11229 0
-11349 11296 0
-11349 11322 0
-11349 11229 0
11349 -11296 -11322 -11229 0
-11350 11353 0
-11350 11185 0
-11350 11229 0
11350 -11353 -11185 -11229 0
-11406 11251 0
-11406 11332 0
11406 -11251 -11332 0
-11426 11098 0
-11426 11099 0
11426 -11098 -11099 0
-11403 11263 0
-11403 11332 0
11403 -11263 -11332 0
-11424 11104 0
-11424 11105 0
11424 -11104 -11105 0
-11402 11110 0
-11402 11263 0
11402 -11110 -11263 0
-11405 11110 0
-11405 11209 0
11405 -11110 -11209 0
11230 -11294 0
11230 -11185 0
11230 -11124 0
-11230 11294 11185 11124 0
11227 -11296 0
11227 -11322 0
11227 -11320 0
-11227 11296 11322 11320 0
11231 -11353 0
11231 -11322 0
11231 -11294 0
11231 -11124 0
-11231 11353 11322 11294 11124 0
11226 -11200 0
11226 -11320 0
-11226 11200 11320 0
11243 -11129 0
11243 -11153 0
-11243 11129 11153 0
11210 -11321 0
11210 -11420 0
-11210 11321 11420 0
11211 -11296 0
11211 -11322 0
11211 -11200 0
11211 -11420 0
-11211 11296 11322 11200 11420 0
11213 -11294 0
11213 -11200 0
11213 -11420 0
-11213 11294 11200 11420 0
11214 -11321 0
11214 -11185 0
11214 -11320 0
11214 -11420 0
-11214 11321 11185 11320 11420 0
11250 -11149 0
11250 -11325 0
-11250 11149 11325 0
11234 -11195 0
11234 -11153 0
11234 -11185 0
11234 -11321 0
-11234 11195 11153 11185 11321 0
11156 -11308 0
11156 -11158 0
-11156 11308 11158 0
11236 -11312 0
11236 -11298 0
-11236 11312 11298 0
11239 -11207 0
11239 -11299 0
-11239 11207 11299 0
11242 -11166 0
11242 -11167 0
-11242 11166 11167 0
11249 -11169 0
11249 -11170 0
-11249 11169 11170 0
11171 -11330 0
11171 -11173 0
-11171 11330 11173 0
11267 -11335 0
11267 -11302 0
-11267 11335 11302 0
11270 -11343 0
11270 -11303 0
-11270 11343 11303 0
11273 -11261 0
11273 -11304 0
-11273 11261 11304 0
11183 -11369 0
11183 -11185 0
-11183 11369 11185 0
11285 -11374 0
11285 -11294 0
-11285 11374 11294 0
11288 -11382 0
11288 -11322 0
-11288 11382 11322 0
11291 -11282 0
11291 -11296 0
-11291 11282 11296 0
11195 11246 0
11195 11296 0
-11195 -11246 -11296 0
11198 11320 0
11198 11200 0
11198 11246 0
11198 11296 0
-11198 -11320 -11200 -11246 -11296 0
11237 11312 0
11237 11298 0
-11237 -11312 -11298 0
11240 11207 0
11240 11299 0
-11240 -11207 -11299 0
11209 11210 0
11209 11211 0
-11209 -11210 -11211 0
11245 11213 0
11245 11214 0
-11245 -11213 -11214 0
11253 11318 0
11253 11353 0
-11253 -11318 -11353 0
11352 11229 0
11352 11317 0
11352 11321 0
11352 11322 0
-11352 -11229 -11317 -11321 -11322 0
11355 11229 0
11355 11294 0
11355 11226 0
11355 11227 0
-11355 -11229 -11294 -11226 -11227 0
11434 11229 0
11434 11230 0
11434 11231 0
-11434 -11229 -11230 -11231 0
11264 11315 0
11264 11234 0
-11264 -11315 -11234 0
11363 11236 0
11363 11237 0
-11363 -11236 -11237 0
11367 11239 0
11367 11240 0
-11367 -11239 -11240 0
11241 11242 0
11241 11243 0
-11241 -11242 -11243 0
11265 11245 0
11265 11246 0
11265 11353 0
-11265 -11245 -11246 -11353 0
11248 11249 0
11248 11250 0
-11248 -11249 -11250 0
11251 11264 0
11251 11253 0
-11251 -11264 -11253 0
11268 11335 0
11268 11302 0
-11268 -11335 -11302 0
11271 11343 0
11271 11303 0
-11271 -11343 -11303 0
11274 11261 0
11274 11304 0
-11274 -11261 -11304 0
11263 11264 0
11263 11265 0
-11263 -11264 -11265 0
11391 11267 0
11391 11268 0
-11391 -11267 -11268 0
11395 11270 0
11395 11271 0
-11395 -11270 -11271 0
11399 11273 0
11399 11274 0
-11399 -11273 -11274 0
11286 11374 0
11286 11294 0
-11286 -11374 -11294 0
11289 11382 0
11289 11322 0
-11289 -11382 -11322 0
11292 11282 0
11292 11296 0
-11292 -11282 -11296 0
11413 11285 0
11413 11286 0
-11413 -11285 -11286 0
11417 11288 0
11417 11289 0
-11417 -11288 -11289 0
11421 11291 0
11421 11292 0
-11421 -11291 -11292 0
-11379 -11294 0
-11379 -11322 0
-11379 -11296 0
11379 11294 11322 11296 0
-11306 -11298 0
-11306 -11299 0
-11306 -11300 0
11306 11298 11299 11300 0
-11340 -11302 0
-11340 -11303 0
-11340 -11304 0
11340 11302 11303 11304 0
-11368 -11306 0
-11368 -11307 0
11368 11306 11307 0
-11308 -11309 0
-11308 -11313 0
-11308 -11314 0
11308 11309 11313 11314 0
-11312 -11313 0
-11312 -11314 0
11312 11313 11314 0
-11315 -11420 0
-11315 -11317 0
11315 11420 11317 0
-11318 -11420 0
-11318 -11320 0
-11318 -11321 0
-11318 -11322 0
11318 11420 11320 11321 11322 0
-11344 -11368 0
-11344 -11325 0
11344 11368 11325 0
-11464 -11420 0
-11464 -11328 0
-11464 -11368 0
11464 11420 11328 11368 0
-11330 -11344 0
-11330 -11332 0
-11330 -11337 0
-11330 -11345 0
11330 11344 11332 11337 11345 0
-11335 -11344 0
-11335 -11337 0
-11335 -11345 0
11335 11344 11337 11345 0
-11400 -11340 0
-11400 -11344 0
-11400 -11342 0
11400 11340 11344 11342 0
-11343 -11344 0
-11343 -11345 0
11343 11344 11345 0
-11436 -11347 0
-11436 -11348 0
-11436 -11349 0
-11436 -11350 0
11436 11347 11348 11349 11350 0
-11428 -11352 0
-11428 -11353 0
11428 11352 11353 0
-11438 -11355 0
-11438 -11356 0
11438 11355 11356 0
-11458 -11420 0
-11458 -11359 0
-11458 -11368 0
11458 11420 11359 11368 0
-11460 -11420 0
-11460 -11363 0
-11460 -11368 0
11460 11420 11363 11368 0
-11462 -11420 0
-11462 -11367 0
-11462 -11368 0
11462 11420 11367 11368 0
-11369 -11383 0
-11369 -11371 0
-11369 -11376 0
-11369 -11384 0
11369 11383 11371 11376 11384 0
-11374 -11383 0
-11374 -11376 0
-11374 -11384 0
11374 11383 11376 11384 0
-11422 -11379 0
-11422 -11383 0
-11422 -11381 0
11422 11379 11383 11381 0
-11382 -11383 0
-11382 -11384 0
11382 11383 11384 0
-11450 -11420 0
-11450 -11387 0
-11450 -11400 0
11450 11420 11387 11400 0
-11452 -11420 0
-11452 -11391 0
-11452 -11400 0
11452 11420 11391 11400 0
-11454 -11420 0
-11454 -11395 0
-11454 -11400 0
11454 11420 11395 11400 0
-11456 -11420 0
-11456 -11399 0
-11456 -11400 0
11456 11420 11399 11400 0
-11430 -11402 0
-11430 -11403 0
11430 11402 11403 0
-11432 -11405 0
-11432 -11406 0
11432 11405 11406 0
-11442 -11420 0
-11442 -11409 0
-11442 -11422 0
11442 11420 11409 11422 0
-11444 -11420 0
-11444 -11413 0
-11444 -11422 0
11444 11420 11413 11422 0
-11446 -11420 0
-11446 -11417 0
-11446 -11422 0
11446 11420 11417 11422 0
-11448 -11420 0
-11448 -11421 0
-11448 -11422 0
11448 11420 11421 11422 0
-11424 11819 0
11424 -11819 0
-11426 11647 0
11426 -11647 0
-11428 11524 0
11428 -11524 0
-11430 11470 0
11430 -11470 0
-11432 11472 0
11432 -11472 0
-11434 11522 0
11434 -11522 0
-11436 11518 0
11436 -11518 0
-11438 11516 0
11438 -11516 0
-11440 11618 0
11440 -11618 0
-11442 11679 0
11442 -11679 0
-11444 11788 0
11444 -11788 0
-11446 11816 0
11446 -11816 0
-11448 11790 0
11448 -11790 0
-11450 11667 0
11450 -11667 0
-11452 11796 0
11452 -11796 0
-11454 11797 0
11454 -11797 0
-11456 11798 0
11456 -11798 0
-11458 11652 0
11458 -11652 0
-11460 11792 0
11460 -11792 0
-11462 11793 0
11462 -11793 0
-11464 11794 0
11464 -11794 0
11664 11819 0
-11664 -11819 0
11661 11647 0
-11661 -11647 0
11538 11470 0
-11538 -11470 0
11536 11472 0
-11536 -11472 0
11875 11679 0
-11875 -11679 0
11865 11788 0
-11865 -11788 0
11870 11816 0
-11870 -11816 0
11878 11790 0
-11878 -11790 0
11836 11667 0
-11836 -11667 0
11826 11796 0
-11826 -11796 0
11831 11797 0
-11831 -11797 0
11839 11798 0
-11839 -11798 0
11801 11652 0
-11801 -11652 0
11803 11792 0
-11803 -11792 0
11807 11793 0
-11807 -11793 0
11808 11794 0
-11808 -11794 0
11526 11498 0
-11526 -11498 0
11528 11500 0
-11528 -11500 0
11814 11647 0
-11814 -11647 0
11530 11504 0
-11530 -11504 0
11847 11790 0
-11847 -11790 0
11740 11816 0
-11740 -11816 0
11815 11788 0
-11815 -11788 0
11694 11679 0
-11694 -11679 0
11532 11794 0
-11532 -11794 0
11515 11516 0
-11515 -11516 0
11517 11518 0
-11517 -11518 0
11811 11618 0
-11811 -11618 0
11521 11522 0
-11521 -11522 0
11523 11524 0
-11523 -11524 0
11623 11526 0
-11623 -11526 0
11914 11528 0
-11914 -11528 0
11643 11530 0
-11643 -11530 0
11822 11532 0
-11822 -11532 0
11701 11808 0
-11701 -11808 0
11535 11536 0
-11535 -11536 0
11537 11538 0
-11537 -11538 0
11660 11623 0
-11660 -11623 0
11598 11914 0
-11598 -11914 0
11592 11914 0
-11592 -11914 0
11723 11914 0
-11723 -11914 0
11663 11643 0
-11663 -11643 0
11755 11838 0
-11755 -11838 0
11853 11650 0
-11853 -11650 0
11877 11894 0
-11877 -11894 0
11593 11735 0
-11593 -11735 0
11599 11742 0
-11599 -11742 0
11568 11745 0
-11568 -11745 0
11604 11745 0
-11604 -11745 0
11881 11665 0
-11881 -11665 0
11776 11877 0
-11776 -11877 0
11934 11568 0
-11934 -11568 0
11903 11677 0
-11903 -11677 0
-11850 11692 0
-11850 11618 0
11850 -11692 -11618 0
-11841 11618 0
-11841 11723 0
11841 -11618 -11723 0
-11842 11788 0
-11842 11723 0
11842 -11788 -11723 0
-11843 11790 0
-11843 11816 0
-11843 11723 0
11843 -11790 -11816 -11723 0
-11844 11847 0
-11844 11679 0
-11844 11723 0
11844 -11847 -11679 -11723 0
-11900 11745 0
-11900 11826 0
11900 -11745 -11826 0
-11920 11592 0
-11920 11593 0
11920 -11592 -11593 0
-11897 11757 0
-11897 11826 0
11897 -11757 -11826 0
-11918 11598 0
-11918 11599 0
11918 -11598 -11599 0
-11896 11604 0
-11896 11757 0
11896 -11604 -11757 0
-11899 11604 0
-11899 11703 0
11899 -11604 -11703 0
11724 -11788 0
11724 -11679 0
11724 -11618 0
-11724 11788 11679 11618 0
11721 -11790 0
11721 -11816 0
11721 -11814 0
-11721 11790 11816 11814 0
11725 -11847 0
11725 -11816 0
11725 -11788 0
11725 -11618 0
-11725 11847 11816 11788 11618 0
11720 -11694 0
11720 -11814 0
-11720 11694 11814 0
11737 -11623 0
11737 -11647 0
-11737 11623 11647 0
11704 -11815 0
11704 -11914 0
-11704 11815 11914 0
11705 -11790 0
11705 -11816 0
11705 -11694 0
11705 -11914 0
-11705 11790 11816 11694 11914 0
11707 -11788 0
11707 -11694 0
11707 -11914 0
-11707 11788 11694 11914 0
11708 -11815 0
11708 -11679 0
11708 -11814 0
11708 -11914 0
-11708 11815 11679 11814 11914 0
11744 -11643 0
11744 -11819 0
-11744 11643 11819 0
11728 -11689 0
11728 -11647 0
11728 -11679 0
11728 -11815 0
-11728 11689 11647 11679 11815 0
11650 -11802 0
11650 -11652 0
-11650 11802 11652 0
11730 -11806 0
11730 -11792 0
-11730 11806 11792 0
11733 -11701 0
11733 -11793 0
-11733 11701 11793 0
11736 -11660 0
11736 -11661 0
-11736 11660 11661 0
11743 -11663 0
11743 -11664 0
-11743 11663 11664 0
11665 -11824 0
11665 -11667 0
-11665 11824 11667 0
11761 -11829 0
11761 -11796 0
-11761 11829 11796 0
11764 -11837 0
11764 -11797 0
-11764 11837 11797 0
11767 -11755 0
11767 -11798 0
-11767 11755 11798 0
11677 -11863 0
11677 -11679 0
-11677 11863 11679 0
11779 -11868 0
11779 -11788 0
-11779 11868 11788 0
11782 -11876 0
11782 -11816 0
-11782 11876 11816 0
11785 -11776 0
11785 -11790 0
-11785 11776 11790 0
11689 11740 0
11689 11790 0
-11689 -11740 -11790 0
11692 11814 0
11692 11694 0
11692 11740 0
11692 11790 0
-11692 -11814 -11694 -11740 -11790 0
11731 11806 0
11731 11792 0
-11731 -11806 -11792 0
11734 11701 0
11734 11793 0
-11734 -11701 -11793 0
11703 11704 0
11703 11705 0
-11703 -11704 -11705 0
11739 11707 0
11739 11708 0
-11739 -11707 -11708 0
11747 11812 0
11747 11847 0
-11747 -11812 -11847 0
11846 11723 0
11846 11811 0
11846 11815 0
11846 11816 0
-11846 -11723 -11811 -11815 -11816 0
11849 11723 0
11849 11788 0
11849 11720 0
11849 11721 0
-11849 -11723 -11788 -11720 -11721 0
11928 11723 0
11928 11724 0
11928 11725 0
-11928 -11723 -11724 -11725 0
11758 11809 0
11758 11728 0
-11758 -11809 -11728 0
11857 11730 0
11857 11731 0
-11857 -11730 -11731 0
11861 11733 0
11861 11734 0
-11861 -11733 -11734 0
11735 11736 0
11735 11737 0
-11735 -11736 -11737 0
11759 11739 0
11759 11740 0
11759 11847 0
-11759 -11739 -11740 -11847 0
11742 11743 0
11742 11744 0
-11742 -11743 -11744 0
11745 11758 0
11745 11747 0
-11745 -11758 -11747 0
11762 11829 0
11762 11796 0
-11762 -11829 -11796 0
11765 11837 0
11765 11797 0
-11765 -11837 -11797 0
11768 11755 0
11768 11798 0
-11768 -11755 -11798 0
11757 11758 0
11757 11759 0
-11757 -11758 -11759 0
11885 11761 0
11885 11762 0
-11885 -11761 -11762 0
11889 11764 0
11889 11765 0
-11889 -11764 -11765 0
11893 11767 0
11893 11768 0
-11893 -11767 -11768 0
11780 11868 0
11780 11788 0
-11780 -11868 -11788 0
11783 11876 0
11783 11816 0
-11783 -11876 -11816 0
11786 11776 0
11786 11790 0
-11786 -11776 -11790 0
11907 11779 0
11907 11780 0
-11907 -11779 -11780 0
11911 11782 0
11911 11783 0
-11911 -11782 -11783 0
11915 11785 0
11915 11786 0
-11915 -11785 -11786 0
-11873 -11788 0
-11873 -11816 0
-11873 -11790 0
11873 11788 11816 11790 0
-11800 -11792 0
-11800 -11793 0
-11800 -11794 0
11800 11792 11793 11794 0
-11834 -11796 0
-11834 -11797 0
-11834 -11798 0
11834 11796 11797 11798 0
-11862 -11800 0
-11862 -11801 0
11862 11800 11801 0
-11802 -11803 0
-11802 -11807 0
-11802 -11808 0
11802 11803 11807 11808 0
-11806 -11807 0
-11806 -11808 0
11806 11807 11808 0
-11809 -11914 0
-11809 -11811 0
11809 11914 11811 0
-11812 -11914 0
-11812 -11814 0
-11812 -11815 0
-11812 -11816 0
11812 11914 11814 11815 11816 0
-11838 -11862 0
-11838 -11819 0
11838 11862 11819 0
-11958 -11914 0
-11958 -11822 0
-11958 -11862 0
11958 11914 11822 11862 0
-11824 -11838 0
-11824 -11826 0
-11824 -11831 0
-11824 -11839 0
11824 11838 11826 11831 11839 0
-11829 -11838 0
-11829 -11831 0
-11829 -11839 0
11829 11838 11831 11839 0
-11894 -11834 0
-11894 -11838 0
-11894 -11836 0
11894 11834 11838 11836 0
-11837 -11838 0
-11837 -11839 0
11837 11838 11839 0
-11930 -11841 0
-11930 -11842 0
-11930 -11843 0
-11930 -11844 0
11930 11841 11842 11843 11844 0
-11922 -11846 0
-11922 -11847 0
11922 11846 11847 0
-11932 -11849 0
-11932 -11850 0
11932 11849 11850 0
-11952 -11914 0
-11952 -11853 0
-11952 -11862 0
11952 11914 11853 11862 0
-11954 -11914 0
-11954 -11857 0
-11954 -11862 0
11954 11914 11857 11862 0
-11956 -11914 0
-11956 -11861 0
-11956 -11862 0
11956 11914 11861 11862 0
-11863 -11877 0
-11863 -11865 0
-11863 -11870 0
-11863 -11878 0
11863 11877 11865 11870 11878 0
-11868 -11877 0
-11868 -11870 0
-11868 -11878 0
11868 11877 11870 11878 0
-11916 -11873 0
-11916 -11877 0
-11916 -11875 0
11916 11873 11877 11875 0
-11876 -11877 0
-11876 -11878 0
11876 11877 11878 0
-11944 -11914 0
-11944 -11881 0
-11944 -11894 0
11944 11914 11881 11894 0
-11946 -11914 0
-11946 -11885 0
-11946 -11894 0
11946 11914 11885 11894 0
-11948 -11914 0
-11948 -11889 0
-11948 -11894 0
11948 11914 11889 11894 0
-11950 -11914 0
-11950 -11893 0
-11950 -11894 0
11950 11914 11893 11894 0
-11924 -11896 0
-11924 -11897 0
11924 11896 11897 0
-11926 -11899 0
-11926 -11900 0
11926 11899 11900 0
-11936 -11914 0
-11936 -11903 0
-11936 -11916 0
11936 11914 11903 11916 0
-11938 -11914 0
-11938 -11907 0
-11938 -11916 0
11938 11914 11907 11916 0
-11940 -11914 0
-11940 -11911 0
-11940 -11916 0
11940 11914 11911 11916 0
-11942 -11914 0
-11942 -11915 0
-11942 -11916 0
11942 11914 11915 11916 0
-11918 12313 0
11918 -12313 0
-11920 12141 0
11920 -12141 0
-11922 12018 0
11922 -12018 0
-11924 11964 0
11924 -11964 0
-11926 11966 0
11926 -11966 0
-11928 12016 0
11928 -12016 0
-11930 12012 0
11930 -12012 0
-11932 12010 0
11932 -12010 0
-11934 12112 0
11934 -12112 0
-11936 12173 0
11936 -12173 0
-11938 12282 0
11938 -12282 0
-11940 12310 0
11940 -12310 0
-11942 12284 0
11942 -12284 0
-11944 12161 0
11944 -12161 0
-11946 12290 0
11946 -12290 0
-11948 12291 0
11948 -12291 0
-11950 12292 0
11950 -12292 0
-11952 12146 0
11952 -12146 0
-11954 12286 0
11954 -12286 0
-11956 12287 0
11956 -12287 0
-11958 12288 0
11958 -12288 0
12158 12313 0
-12158 -12313 0
12155 12141 0
-12155 -12141 0
12032 11964 0
-12032 -11964 0
12030 11966 0
-12030 -11966 0
12369 12173 0
-12369 -12173 0
12359 12282 0
-12359 -12282 0
12364 12310 0
-12364 -12310 0
12372 12284 0
-12372 -12284 0
12330 12161 0
-12330 -12161 0
12320 12290 0
-12320 -12290 0
12325 12291 0
-12325 -12291 0
12333 12292 0
-12333 -12292 0
12295 12146 0
-12295 -12146 0
12297 12286 0
-12297 -12286 0
12301 12287 0
-12301 -12287 0
12302 12288 0
-12302 -12288 0
12020 11992 0
-12020 -11992 0
12022 11994 0
-12022 -11994 0
12308 12141 0
-12308 -12141 0
12024 11998 0
-12024 -11998 0
12341 12284 0
-12341 -12284 0
12234 12310 0
-12234 -12310 0
12309 12282 0
-12309 -12282 0
12188 12173 0
-12188 -12173 0
12026 12288 0
-12026 -12288 0
12412 12010 0
-12412 -12010 0
12414 12012 0
-12414 -12012 0
12305 12112 0
-12305 -12112 0
12416 12016 0
-12416 -12016 0
12418 12018 0
-12418 -12018 0
12117 12020 0
-12117 -12020 0
12408 12022 0
-12408 -12022 0
12137 12024 0
-12137 -12024 0
12316 12026 0
-12316 -12026 0
12195 12302 0
-12195 -12302 0
12420 12030 0
-12420 -12030 0
12422 12032 0
-12422 -12032 0
12154 12117 0
-12154 -12117 0
12092 12408 0
-12092 -12408 0
12086 12408 0
-12086 -12408 0
12217 12408 0
-12217 -12408 0
12157 12137 0
-12157 -12137 0
12249 12332 0
-12249 -12332 0
12347 12144 0
-12347 -12144 0
12371 12388 0
-12371 -12388 0
12087 12229 0
-12087 -12229 0
12093 12236 0
-12093 -12236 0
12062 12239 0
-12062 -12239 0
12098 12239 0
-12098 -12239 0
12375 12159 0
-12375 -12159 0
12270 12371 0
-12270 -12371 0
12061 12062 0
-12061 -12062 0
12397 12171 0
-12397 -12171 0
-12344 12186 0
-12344 12112 0
12344 -12186 -12112 0
-12335 12112 0
-12335 12217 0
12335 -12112 -12217 0
-12336 12282 0
-12336 12217 0
12336 -12282 -12217 0
-12337 12284 0
-12337 12310 0
-12337 12217 0
12337 -12284 -12310 -12217 0
-12338 12341 0
-12338 12173 0
-12338 12217 0
12338 -12341 -12173 -12217 0
-12394 12239 0
-12394 12320 0
12394 -12239 -12320 0
-12085 12086 0
-12085 12087 0
12085 -12086 -12087 0
-12391 12251 0
-12391 12320 0
12391 -12251 -12320 0
-12091 12092 0
-12091 12093 0
12091 -12092 -12093 0
-12390 12098 0
-12390 12251 0
12390 -12098 -12251 0
-12393 12098 0
-12393 12197 0
12393 -12098 -12197 0
12218 -12282 0
12218 -12173 0
12218 -12112 0
-12218 12282 12173 12112 0
12215 -12284 0
12215 -12310 0
12215 -12308 0
-12215 12284 12310 12308 0
12219 -12341 0
12219 -12310 0
12219 -12282 0
12219 -12112 0
-12219 12341 12310 12282 12112 0
12214 -12188 0
12214 -12308 0
-12214 12188 12308 0
12231 -12117 0
12231 -12141 0
-12231 12117 12141 0
12198 -12309 0
12198 -12408 0
-12198 12309 12408 0
12199 -12284 0
12199 -12310 0
12199 -12188 0
12199 -12408 0
-12199 12284 12310 12188 12408 0
12201 -12282 0
12201 -12188 0
12201 -12408 0
-12201 12282 12188 12408 0
12202 -12309 0
12202 -12173 0
12202 -12308 0
12202 -12408 0
-12202 12309 12173 12308 12408 0
12238 -12137 0
12238 -12313 0
-12238 12137 12313 0
12222 -12183 0
12222 -12141 0
12222 -12173 0
12222 -12309 0
-12222 12183 12141 12173 12309 0
12144 -12296 0
12144 -12146 0
-12144 12296 12146 0
12224 -12300 0
12224 -12286 0
-12224 12300 12286 0
12227 -12195 0
12227 -12287 0
-12227 12195 12287 0
12230 -12154 0
12230 -12155 0
-12230 12154 12155 0
12237 -12157 0
12237 -12158 0
-12237 12157 12158 0
12159 -12318 0
12159 -12161 0
-12159 12318 12161 0
12255 -12323 0
12255 -12290 0
-12255 12323 12290 0
12258 -12331 0
12258 -12291 0
-12258 12331 12291 0
12261 -12249 0
12261 -12292 0
-12261 12249 12292 0
12171 -12357 0
12171 -12173 0
-12171 12357 12173 0
12273 -12362 0
12273 -12282 0
-12273 12362 12282 0
12276 -12370 0
12276 -12310 0
-12276 12370 12310 0
12279 -12270 0
12279 -12284 0
-12279 12270 12284 0
12183 12234 0
12183 12284 0
-12183 -12234 -12284 0
12186 12308 0
12186 12188 0
12186 12234 0
12186 12284 0
-12186 -12308 -12188 -12234 -12284 0
12225 12300 0
12225 12286 0
-12225 -12300 -12286 0
12228 12195 0
12228 12287 0
-12228 -12195 -12287 0
12197 12198 0
12197 12199 0
-12197 -12198 -12199 0
12233 12201 0
12233 12202 0
-12233 -12201 -12202 0
12241 12306 0
12241 12341 0
-12241 -12306 -12341 0
12340 12217 0
12340 12305 0
12340 12309 0
12340 12310 0
-12340 -12217 -12305 -12309 -12310 0
12343 12217 0
12343 12282 0
12343 12214 0
12343 12215 0
-12343 -12217 -12282 -12214 -12215 0
12216 12217 0
12216 12218 0
12216 12219 0
-12216 -12217 -12218 -12219 0
12252 12303 0
12252 12222 0
-12252 -12303 -12222 0
12351 12224 0
12351 12225 0
-12351 -12224 -12225 0
12355 12227 0
12355 12228 0
-12355 -12227 -12228 0
12229 12230 0
12229 12231 0
-12229 -12230 -12231 0
12253 12233 0
12253 12234 0
12253 12341 0
-12253 -12233 -12234 -12341 0
12236 12237 0
12236 12238 0
-12236 -12237 -12238 0
12239 12252 0
12239 12241 0
-12239 -12252 -12241 0
12256 12323 0
12256 12290 0
-12256 -12323 -12290 0
12259 12331 0
12259 12291 0
-12259 -12331 -12291 0
12262 12249 0
12262 12292 0
-12262 -12249 -12292 0
12251 12252 0
12251 12253 0
-12251 -12252 -12253 0
12379 12255 0
12379 12256 0
-12379 -12255 -12256 0
12383 12258 0
12383 12259 0
-12383 -12258 -12259 0
12387 12261 0
12387 12262 0
-12387 -12261 -12262 0
12274 12362 0
12274 12282 0
-12274 -12362 -12282 0
12277 12370 0
12277 12310 0
-12277 -12370 -12310 0
12280 12270 0
12280 12284 0
-12280 -12270 -12284 0
12401 12273 0
12401 12274 0
-12401 -12273 -12274 0
12405 12276 0
12405 12277 0
-12405 -12276 -12277 0
12409 12279 0
12409 12280 0
-12409 -12279 -12280 0
-12367 -12282 0
-12367 -12310 0
-12367 -12284 0
12367 12282 12310 12284 0
-12294 -12286 0
-12294 -12287 0
-12294 -12288 0
12294 12286 12287 12288 0
-12328 -12290 0
-12328 -12291 0
-12328 -12292 0
12328 12290 12291 12292 0
-12356 -12294 0
-12356 -12295 0
12356 12294 12295 0
-12296 -12297 0
-12296 -12301 0
-12296 -12302 0
12296 12297 12301 12302 0
-12300 -12301 0
-12300 -12302 0
12300 12301 12302 0
-12303 -12408 0
-12303 -12305 0
12303 12408 12305 0
-12306 -12408 0
-12306 -12308 0
-12306 -12309 0
-12306 -12310 0
12306 12408 12308 12309 12310 0
-12332 -12356 0
-12332 -12313 0
12332 12356 12313 0
-12314 -12408 0
-12314 -12316 0
-12314 -12356 0
12314 12408 12316 12356 0
-12318 -12332 0
-12318 -12320 0
-12318 -12325 0
-12318 -12333 0
12318 12332 12320 12325 12333 0
-12323 -12332 0
-12323 -12325 0
-12323 -12333 0
12323 12332 12325 12333 0
-12388 -12328 0
-12388 -12332 0
-12388 -12330 0
12388 12328 12332 12330 0
-12331 -12332 0
-12331 -12333 0
12331 12332 12333 0
-12334 -12335 0
-12334 -12336 0
-12334 -12337 0
-12334 -12338 0
12334 12335 12336 12337 12338 0
-12339 -12340 0
-12339 -12341 0
12339 12340 12341 0
-12342 -12343 0
-12342 -12344 0
12342 12343 12344 0
-12345 -12408 0
-12345 -12347 0
-12345 -12356 0
12345 12408 12347 12356 0
-12349 -12408 0
-12349 -12351 0
-12349 -12356 0
12349 12408 12351 12356 0
-12353 -12408 0
-12353 -12355 0
-12353 -12356 0
12353 12408 12355 12356 0
-12357 -12371 0
-12357 -12359 0
-12357 -12364 0
-12357 -12372 0
12357 12371 12359 12364 12372 0
-12362 -12371 0
-12362 -12364 0
-12362 -12372 0
12362 12371 12364 12372 0
-12410 -12367 0
-12410 -12371 0
-12410 -12369 0
12410 12367 12371 12369 0
-12370 -12371 0
-12370 -12372 0
12370 12371 12372 0
-12373 -12408 0
-12373 -12375 0
-12373 -12388 0
12373 12408 12375 12388 0
-12377 -12408 0
-12377 -12379 0
-12377 -12388 0
12377 12408 12379 12388 0
-12381 -12408 0
-12381 -12383 0
-12381 -12388 0
12381 12408 12383 12388 0
-12385 -12408 0
-12385 -12387 0
-12385 -12388 0
12385 12408 12387 12388 0
-12389 -12390 0
-12389 -12391 0
12389 12390 12391 0
-12392 -12393 0
-12392 -12394 0
12392 12393 12394 0
-12395 -12408 0
-12395 -12397 0
-12395 -12410 0
12395 12408 12397 12410 0
-12399 -12408 0
-12399 -12401 0
-12399 -12410 0
12399 12408 12401 12410 0
-12403 -12408 0
-12403 -12405 0
-12403 -12410 0
12403 12408 12405 12410 0
-12407 -12408 0
-12407 -12409 0
-12407 -12410 0
12407 12408 12409 12410 0
12411 12412 0
-12411 -12412 0
12413 12414 0
-12413 -12414 0
12415 12416 0
-12415 -12416 0
12417 12418 0
-12417 -12418 0
12419 12420 0
-12419 -12420 0
12421 12422 0
-12421 -12422 0
-12421 0