p cnf 16188 15513
-1001 0
-1003 0
-1002 0
-1004 0
-1019 0
-1021 0
-1020 0
-1022 0
-1037 0
-1039 0
-1038 0
-1040 0
-904 0
-1051 0
-910 0
-906 0
629 958 0
-629 -958 0
626 1003 0
-626 -1003 0
635 869 0
-635 -869 0
632 1002 0
-632 -1002 0
641 1004 0
-641 -1004 0
638 934 0
-638 -934 0
960 934 0
-960 -934 0
956 1001 0
-956 -1001 0
957 1003 0
-957 -1003 0
772 958 0
-772 -958 0
647 968 0
-647 -968 0
644 1021 0
-644 -1021 0
653 881 0
-653 -881 0
650 1020 0
-650 -1020 0
659 1022 0
-659 -1022 0
656 1067 0
-656 -1067 0
970 1067 0
-970 -1067 0
966 1019 0
-966 -1019 0
967 1021 0
-967 -1021 0
786 968 0
-786 -968 0
665 978 0
-665 -978 0
662 1039 0
-662 -1039 0
671 893 0
-671 -893 0
668 1038 0
-668 -1038 0
677 1040 0
-677 -1040 0
674 1069 0
-674 -1069 0
980 1069 0
-980 -1069 0
976 1037 0
-976 -1037 0
977 1039 0
-977 -1039 0
800 978 0
-800 -978 0
683 905 0
-683 -905 0
680 910 0
-680 -910 0
689 906 0
-689 -906 0
686 1071 0
-686 -1071 0
985 1051 0
-985 -1051 0
825 910 0
-825 -910 0
901 984 0
-901 -984 0
909 905 0
-909 -905 0
988 934 0
-988 -934 0
989 1004 0
-989 -1004 0
991 1002 0
-991 -1002 0
994 1003 0
-994 -1003 0
999 1001 0
-999 -1001 0
912 992 0
-912 -992 0
1006 934 0
-1006 -934 0
1007 1022 0
-1007 -1022 0
1009 1020 0
-1009 -1020 0
1012 1021 0
-1012 -1021 0
1017 1019 0
-1017 -1019 0
918 1010 0
-918 -1010 0
1024 934 0
-1024 -934 0
1025 1040 0
-1025 -1040 0
1027 1038 0
-1027 -1038 0
1030 1039 0
-1030 -1039 0
1035 1037 0
-1035 -1037 0
924 1028 0
-924 -1028 0
1042 934 0
-1042 -934 0
1043 906 0
-1043 -906 0
1045 910 0
-1045 -910 0
1048 1051 0
-1048 -1051 0
1053 904 0
-1053 -904 0
930 1046 0
-930 -1046 0
831 990 0
-831 -990 0
828 993 0
-828 -993 0
832 597 0
-832 -597 0
829 599 0
-829 -599 0
837 711 0
-837 -711 0
834 714 0
-834 -714 0
838 605 0
-838 -605 0
835 607 0
-835 -607 0
843 723 0
-843 -723 0
840 726 0
-840 -726 0
844 613 0
-844 -613 0
841 615 0
-841 -615 0
849 735 0
-849 -735 0
846 738 0
-846 -738 0
850 621 0
-850 -621 0
847 623 0
-847 -623 0
-776 958 0
-776 626 0
776 -958 -626 0
-777 1003 0
-777 629 0
777 -1003 -629 0
-952 869 0
-952 632 0
952 -869 -632 0
-953 1002 0
-953 635 0
953 -1002 -635 0
-779 1004 0
-779 638 0
779 -1004 -638 0
-780 934 0
-780 641 0
780 -934 -641 0
-790 968 0
-790 644 0
790 -968 -644 0
-791 1021 0
-791 647 0
791 -1021 -647 0
-962 881 0
-962 650 0
962 -881 -650 0
-963 1020 0
-963 653 0
963 -1020 -653 0
-793 1022 0
-793 656 0
793 -1022 -656 0
-794 1067 0
-794 659 0
794 -1067 -659 0
-804 978 0
-804 662 0
804 -978 -662 0
-805 1039 0
-805 665 0
805 -1039 -665 0
-972 893 0
-972 668 0
972 -893 -668 0
-973 1038 0
-973 671 0
973 -1038 -671 0
-807 1040 0
-807 674 0
807 -1040 -674 0
-808 1069 0
-808 677 0
808 -1069 -677 0
-982 905 0
-982 680 0
982 -905 -680 0
-983 910 0
-983 683 0
983 -910 -683 0
-821 906 0
-821 686 0
821 -906 -686 0
-822 1071 0
-822 689 0
822 -1071 -689 0
-986 909 0
-986 910 0
986 -909 -910 0
1067 861 0
1067 863 0
-1067 -861 -863 0
1069 -776 0
1069 -777 0
-1069 776 777 0
-1071 -952 0
-1071 -953 0
1071 952 953 0
-730 1000 0
-730 1018 0
730 -1000 -1018 0
-742 730 0
-742 1036 0
742 -730 -1036 0
-751 1000 0
-751 1005 0
751 -1000 -1005 0
-711 1000 0
-711 1008 0
711 -1000 -1008 0
-714 1000 0
-714 1011 0
714 -1000 -1011 0
-760 1000 0
-760 1014 0
760 -1000 -1014 0
-757 730 0
-757 1023 0
757 -730 -1023 0
-723 730 0
-723 1026 0
723 -730 -1026 0
-726 730 0
-726 1029 0
726 -730 -1029 0
-766 730 0
-766 1032 0
766 -730 -1032 0
-763 742 0
-763 1041 0
763 -742 -1041 0
-735 742 0
-735 1044 0
735 -742 -1044 0
-738 742 0
-738 1047 0
738 -742 -1047 0
-769 742 0
-769 1050 0
769 -742 -1050 0
-1055 987 0
-1055 746 0
1055 -987 -746 0
-1056 934 0
-1056 749 0
1056 -934 -749 0
-1058 751 0
-1058 752 0
1058 -751 -752 0
-1059 996 0
-1059 755 0
1059 -996 -755 0
-1061 757 0
-1061 758 0
1061 -757 -758 0
-1062 760 0
-1062 761 0
1062 -760 -761 0
-1064 763 0
-1064 764 0
1064 -763 -764 0
-1065 766 0
-1065 767 0
1065 -766 -767 0
-768 769 0
-768 770 0
768 -769 -770 0
861 -772 0
861 -1001 0
861 -957 0
-861 772 1001 957 0
1073 -779 0
1073 -780 0
-1073 779 780 0
864 -959 0
864 -957 0
864 -960 0
-864 959 957 960 0
873 -786 0
873 -1019 0
873 -967 0
-873 786 1019 967 0
1077 -790 0
1077 -791 0
-1077 790 791 0
1081 -793 0
1081 -794 0
-1081 793 794 0
876 -969 0
876 -967 0
876 -970 0
-876 969 967 970 0
885 -800 0
885 -1037 0
885 -977 0
-885 800 1037 977 0
1085 -804 0
1085 -805 0
-1085 804 805 0
1089 -807 0
1089 -808 0
-1089 807 808 0
888 -979 0
888 -977 0
888 -980 0
-888 979 977 980 0
897 -908 0
897 -904 0
897 -985 0
-897 908 904 985 0
900 -908 0
900 -1051 0
-900 908 1051 0
1097 -821 0
1097 -822 0
-1097 821 822 0
903 -905 0
903 -825 0
903 -985 0
-903 905 825 985 0
936 -828 0
936 -829 0
-936 828 829 0
937 -831 0
937 -832 0
-937 831 832 0
940 -834 0
940 -835 0
-940 834 835 0
941 -837 0
941 -838 0
-941 837 838 0
944 -840 0
944 -841 0
-944 840 841 0
945 -843 0
945 -844 0
-945 843 844 0
948 -846 0
948 -847 0
-948 846 847 0
949 -849 0
949 -850 0
-949 849 850 0
855 -935 0
855 -939 0
-855 935 939 0
858 -855 0
858 -943 0
-858 855 943 0
857 -858 0
857 -947 0
-857 858 947 0
863 864 0
863 1001 0
-863 -864 -1001 0
959 1004 0
959 1002 0
-959 -1004 -1002 0
869 1004 0
869 934 0
-869 -1004 -934 0
1075 873 0
1075 875 0
-1075 -873 -875 0
875 876 0
875 1019 0
-875 -876 -1019 0
969 1022 0
969 1020 0
-969 -1022 -1020 0
881 1022 0
881 1067 0
-881 -1022 -1067 0
1083 885 0
1083 887 0
-1083 -885 -887 0
887 888 0
887 1037 0
-887 -888 -1037 0
979 1040 0
979 1038 0
-979 -1040 -1038 0
893 1040 0
893 1069 0
-893 -1040 -1069 0
1091 897 0
1091 902 0
-1091 -897 -902 0
1093 900 0
1093 901 0
-1093 -900 -901 0
902 903 0
902 904 0
-902 -903 -904 0
905 906 0
905 1071 0
-905 -906 -1071 0
908 909 0
908 910 0
-908 -909 -910 0
998 912 0
998 991 0
-998 -912 -991 0
992 989 0
992 934 0
-992 -989 -934 0
1016 918 0
1016 1009 0
-1016 -918 -1009 0
1010 1007 0
1010 934 0
-1010 -1007 -934 0
1034 924 0
1034 1027 0
-1034 -924 -1027 0
1028 1025 0
1028 934 0
-1028 -1025 -934 0
1052 930 0
1052 1045 0
-1052 -930 -1045 0
1046 1043 0
1046 934 0
-1046 -1043 -934 0
935 936 0
935 937 0
935 1054 0
-935 -936 -937 -1054 0
939 940 0
939 941 0
939 1057 0
-939 -940 -941 -1057 0
943 944 0
943 945 0
943 1060 0
-943 -944 -945 -1060 0
947 948 0
947 949 0
947 1063 0
-947 -948 -949 -1063 0
-954 -959 0
-954 -956 0
-954 -957 0
954 959 956 957 0
-958 -959 0
-958 -960 0
958 959 960 0
-1079 -962 0
-1079 -963 0
1079 962 963 0
-964 -969 0
-964 -966 0
-964 -967 0
964 969 966 967 0
-968 -969 0
-968 -970 0
968 969 970 0
-1087 -972 0
-1087 -973 0
1087 972 973 0
-974 -979 0
-974 -976 0
-974 -977 0
974 979 976 977 0
-978 -979 0
-978 -980 0
978 979 980 0
-1095 -982 0
-1095 -983 0
1095 982 983 0
-984 -985 0
-984 -986 0
984 985 986 0
-987 -988 0
-987 -989 0
987 988 989 0
-990 -991 0
-990 -992 0
990 991 992 0
-993 -994 0
-993 -998 0
993 994 998 0
-996 -1003 0
-996 -998 0
-996 -999 0
996 1003 998 999 0
-1000 -1001 0
-1000 -1002 0
-1000 -1003 0
-1000 -1004 0
1000 1001 1002 1003 1004 0
-1005 -1006 0
-1005 -1007 0
1005 1006 1007 0
-1008 -1009 0
-1008 -1010 0
1008 1009 1010 0
-1011 -1012 0
-1011 -1016 0
1011 1012 1016 0
-1014 -1021 0
-1014 -1016 0
-1014 -1017 0
1014 1021 1016 1017 0
-1018 -1019 0
-1018 -1020 0
-1018 -1021 0
-1018 -1022 0
1018 1019 1020 1021 1022 0
-1023 -1024 0
-1023 -1025 0
1023 1024 1025 0
-1026 -1027 0
-1026 -1028 0
1026 1027 1028 0
-1029 -1030 0
-1029 -1034 0
1029 1030 1034 0
-1032 -1039 0
-1032 -1034 0
-1032 -1035 0
1032 1039 1034 1035 0
-1036 -1037 0
-1036 -1038 0
-1036 -1039 0
-1036 -1040 0
1036 1037 1038 1039 1040 0
-1041 -1042 0
-1041 -1043 0
1041 1042 1043 0
-1044 -1045 0
-1044 -1046 0
1044 1045 1046 0
-1047 -1048 0
-1047 -1052 0
1047 1048 1052 0
-1050 -1051 0
-1050 -1052 0
-1050 -1053 0
1050 1051 1052 1053 0
-1054 -1055 0
-1054 -1056 0
1054 1055 1056 0
-1057 -1058 0
-1057 -1059 0
1057 1058 1059 0
-1060 -1061 0
-1060 -1062 0
1060 1061 1062 0
-1063 -1064 0
-1063 -1065 0
1063 1064 1065 0
-1067 1631 0
1067 -1631 0
-1069 1633 0
1069 -1633 0
-1071 1632 0
1071 -1632 0
-1073 1634 0
1073 -1634 0
-1075 1649 0
1075 -1649 0
-1077 1651 0
1077 -1651 0
-1079 1650 0
1079 -1650 0
-1081 1652 0
1081 -1652 0
-1083 1667 0
1083 -1667 0
-1085 1669 0
1085 -1669 0
-1087 1668 0
1087 -1668 0
-1089 1670 0
1089 -1670 0
-1091 1534 0
1091 -1534 0
-1093 1681 0
1093 -1681 0
-1095 1540 0
1095 -1540 0
-1097 1536 0
1097 -1536 0
1259 1588 0
-1259 -1588 0
1256 1633 0
-1256 -1633 0
1265 1499 0
-1265 -1499 0
1262 1632 0
-1262 -1632 0
1271 1634 0
-1271 -1634 0
1268 1564 0
-1268 -1564 0
1590 1564 0
-1590 -1564 0
1586 1631 0
-1586 -1631 0
1587 1633 0
-1587 -1633 0
1402 1588 0
-1402 -1588 0
1277 1598 0
-1277 -1598 0
1274 1651 0
-1274 -1651 0
1283 1511 0
-1283 -1511 0
1280 1650 0
-1280 -1650 0
1289 1652 0
-1289 -1652 0
1286 1697 0
-1286 -1697 0
1600 1697 0
-1600 -1697 0
1596 1649 0
-1596 -1649 0
1597 1651 0
-1597 -1651 0
1416 1598 0
-1416 -1598 0
1295 1608 0
-1295 -1608 0
1292 1669 0
-1292 -1669 0
1301 1523 0
-1301 -1523 0
1298 1668 0
-1298 -1668 0
1307 1670 0
-1307 -1670 0
1304 1699 0
-1304 -1699 0
1610 1699 0
-1610 -1699 0
1606 1667 0
-1606 -1667 0
1607 1669 0
-1607 -1669 0
1430 1608 0
-1430 -1608 0
1313 1535 0
-1313 -1535 0
1310 1540 0
-1310 -1540 0
1319 1536 0
-1319 -1536 0
1316 1701 0
-1316 -1701 0
1615 1681 0
-1615 -1681 0
1455 1540 0
-1455 -1540 0
1531 1614 0
-1531 -1614 0
1539 1535 0
-1539 -1535 0
1618 1564 0
-1618 -1564 0
1619 1634 0
-1619 -1634 0
1621 1632 0
-1621 -1632 0
1624 1633 0
-1624 -1633 0
1629 1631 0
-1629 -1631 0
1542 1622 0
-1542 -1622 0
1636 1564 0
-1636 -1564 0
1637 1652 0
-1637 -1652 0
1639 1650 0
-1639 -1650 0
1642 1651 0
-1642 -1651 0
1647 1649 0
-1647 -1649 0
1548 1640 0
-1548 -1640 0
1654 1564 0
-1654 -1564 0
1655 1670 0
-1655 -1670 0
1657 1668 0
-1657 -1668 0
1660 1669 0
-1660 -1669 0
1665 1667 0
-1665 -1667 0
1554 1658 0
-1554 -1658 0
1672 1564 0
-1672 -1564 0
1673 1536 0
-1673 -1536 0
1675 1540 0
-1675 -1540 0
1678 1681 0
-1678 -1681 0
1683 1534 0
-1683 -1534 0
1560 1676 0
-1560 -1676 0
1461 1620 0
-1461 -1620 0
1458 1623 0
-1458 -1623 0
1462 1227 0
-1462 -1227 0
1459 1229 0
-1459 -1229 0
1467 1341 0
-1467 -1341 0
1464 1344 0
-1464 -1344 0
1468 1235 0
-1468 -1235 0
1465 1237 0
-1465 -1237 0
1473 1353 0
-1473 -1353 0
1470 1356 0
-1470 -1356 0
1474 1243 0
-1474 -1243 0
1471 1245 0
-1471 -1245 0
1479 1365 0
-1479 -1365 0
1476 1368 0
-1476 -1368 0
1480 1251 0
-1480 -1251 0
1477 1253 0
-1477 -1253 0
-1406 1588 0
-1406 1256 0
1406 -1588 -1256 0
-1407 1633 0
-1407 1259 0
1407 -1633 -1259 0
-1582 1499 0
-1582 1262 0
1582 -1499 -1262 0
-1583 1632 0
-1583 1265 0
1583 -1632 -1265 0
-1409 1634 0
-1409 1268 0
1409 -1634 -1268 0
-1410 1564 0
-1410 1271 0
1410 -1564 -1271 0
-1420 1598 0
-1420 1274 0
1420 -1598 -1274 0
-1421 1651 0
-1421 1277 0
1421 -1651 -1277 0
-1592 1511 0
-1592 1280 0
1592 -1511 -1280 0
-1593 1650 0
-1593 1283 0
1593 -1650 -1283 0
-1423 1652 0
-1423 1286 0
1423 -1652 -1286 0
-1424 1697 0
-1424 1289 0
1424 -1697 -1289 0
-1434 1608 0
-1434 1292 0
1434 -1608 -1292 0
-1435 1669 0
-1435 1295 0
1435 -1669 -1295 0
-1602 1523 0
-1602 1298 0
1602 -1523 -1298 0
-1603 1668 0
-1603 1301 0
1603 -1668 -1301 0
-1437 1670 0
-1437 1304 0
1437 -1670 -1304 0
-1438 1699 0
-1438 1307 0
1438 -1699 -1307 0
-1612 1535 0
-1612 1310 0
1612 -1535 -1310 0
-1613 1540 0
-1613 1313 0
1613 -1540 -1313 0
-1451 1536 0
-1451 1316 0
1451 -1536 -1316 0
-1452 1701 0
-1452 1319 0
1452 -1701 -1319 0
-1616 1539 0
-1616 1540 0
1616 -1539 -1540 0
1697 1491 0
1697 1493 0
-1697 -1491 -1493 0
1699 -1406 0
1699 -1407 0
-1699 1406 1407 0
-1701 -1582 0
-1701 -1583 0
1701 1582 1583 0
-1360 1630 0
-1360 1648 0
1360 -1630 -1648 0
-1372 1360 0
-1372 1666 0
1372 -1360 -1666 0
-1381 1630 0
-1381 1635 0
1381 -1630 -1635 0
-1341 1630 0
-1341 1638 0
1341 -1630 -1638 0
-1344 1630 0
-1344 1641 0
1344 -1630 -1641 0
-1390 1630 0
-1390 1644 0
1390 -1630 -1644 0
-1387 1360 0
-1387 1653 0
1387 -1360 -1653 0
-1353 1360 0
-1353 1656 0
1353 -1360 -1656 0
-1356 1360 0
-1356 1659 0
1356 -1360 -1659 0
-1396 1360 0
-1396 1662 0
1396 -1360 -1662 0
-1393 1372 0
-1393 1671 0
1393 -1372 -1671 0
-1365 1372 0
-1365 1674 0
1365 -1372 -1674 0
-1368 1372 0
-1368 1677 0
1368 -1372 -1677 0
-1399 1372 0
-1399 1680 0
1399 -1372 -1680 0
-1685 1617 0
-1685 1376 0
1685 -1617 -1376 0
-1686 1564 0
-1686 1379 0
1686 -1564 -1379 0
-1688 1381 0
-1688 1382 0
1688 -1381 -1382 0
-1689 1626 0
-1689 1385 0
1689 -1626 -1385 0
-1691 1387 0
-1691 1388 0
1691 -1387 -1388 0
-1692 1390 0
-1692 1391 0
1692 -1390 -1391 0
-1694 1393 0
-1694 1394 0
1694 -1393 -1394 0
-1695 1396 0
-1695 1397 0
1695 -1396 -1397 0
-1398 1399 0
-1398 1400 0
1398 -1399 -1400 0
1491 -1402 0
1491 -1631 0
1491 -1587 0
-1491 1402 1631 1587 0
1703 -1409 0
1703 -1410 0
-1703 1409 1410 0
1494 -1589 0
1494 -1587 0
1494 -1590 0
-1494 1589 1587 1590 0
1503 -1416 0
1503 -1649 0
1503 -1597 0
-1503 1416 1649 1597 0
1707 -1420 0
1707 -1421 0
-1707 1420 1421 0
1711 -1423 0
1711 -1424 0
-1711 1423 1424 0
1506 -1599 0
1506 -1597 0
1506 -1600 0
-1506 1599 1597 1600 0
1515 -1430 0
1515 -1667 0
1515 -1607 0
-1515 1430 1667 1607 0
1715 -1434 0
1715 -1435 0
-1715 1434 1435 0
1719 -1437 0
1719 -1438 0
-1719 1437 1438 0
1518 -1609 0
1518 -1607 0
1518 -1610 0
-1518 1609 1607 1610 0
1527 -1538 0
1527 -1534 0
1527 -1615 0
-1527 1538 1534 1615 0
1530 -1538 0
1530 -1681 0
-1530 1538 1681 0
1727 -1451 0
1727 -1452 0
-1727 1451 1452 0
1533 -1535 0
1533 -1455 0
1533 -1615 0
-1533 1535 1455 1615 0
1566 -1458 0
1566 -1459 0
-1566 1458 1459 0
1567 -1461 0
1567 -1462 0
-1567 1461 1462 0
1570 -1464 0
1570 -1465 0
-1570 1464 1465 0
1571 -1467 0
1571 -1468 0
-1571 1467 1468 0
1574 -1470 0
1574 -1471 0
-1574 1470 1471 0
1575 -1473 0
1575 -1474 0
-1575 1473 1474 0
1578 -1476 0
1578 -1477 0
-1578 1476 1477 0
1579 -1479 0
1579 -1480 0
-1579 1479 1480 0
1485 -1565 0
1485 -1569 0
-1485 1565 1569 0
1488 -1485 0
1488 -1573 0
-1488 1485 1573 0
1487 -1488 0
1487 -1577 0
-1487 1488 1577 0
1493 1494 0
1493 1631 0
-1493 -1494 -1631 0
1589 1634 0
1589 1632 0
-1589 -1634 -1632 0
1499 1634 0
1499 1564 0
-1499 -1634 -1564 0
1705 1503 0
1705 1505 0
-1705 -1503 -1505 0
1505 1506 0
1505 1649 0
-1505 -1506 -1649 0
1599 1652 0
1599 1650 0
-1599 -1652 -1650 0
1511 1652 0
1511 1697 0
-1511 -1652 -1697 0
1713 1515 0
1713 1517 0
-1713 -1515 -1517 0
1517 1518 0
1517 1667 0
-1517 -1518 -1667 0
1609 1670 0
1609 1668 0
-1609 -1670 -1668 0
1523 1670 0
1523 1699 0
-1523 -1670 -1699 0
1721 1527 0
1721 1532 0
-1721 -1527 -1532 0
1723 1530 0
1723 1531 0
-1723 -1530 -1531 0
1532 1533 0
1532 1534 0
-1532 -1533 -1534 0
1535 1536 0
1535 1701 0
-1535 -1536 -1701 0
1538 1539 0
1538 1540 0
-1538 -1539 -1540 0
1628 1542 0
1628 1621 0
-1628 -1542 -1621 0
1622 1619 0
1622 1564 0
-1622 -1619 -1564 0
1646 1548 0
1646 1639 0
-1646 -1548 -1639 0
1640 1637 0
1640 1564 0
-1640 -1637 -1564 0
1664 1554 0
1664 1657 0
-1664 -1554 -1657 0
1658 1655 0
1658 1564 0
-1658 -1655 -1564 0
1682 1560 0
1682 1675 0
-1682 -1560 -1675 0
1676 1673 0
1676 1564 0
-1676 -1673 -1564 0
1565 1566 0
1565 1567 0
1565 1684 0
-1565 -1566 -1567 -1684 0
1569 1570 0
1569 1571 0
1569 1687 0
-1569 -1570 -1571 -1687 0
1573 1574 0
1573 1575 0
1573 1690 0
-1573 -1574 -1575 -1690 0
1577 1578 0
1577 1579 0
1577 1693 0
-1577 -1578 -1579 -1693 0
-1584 -1589 0
-1584 -1586 0
-1584 -1587 0
1584 1589 1586 1587 0
-1588 -1589 0
-1588 -1590 0
1588 1589 1590 0
-1709 -1592 0
-1709 -1593 0
1709 1592 1593 0
-1594 -1599 0
-1594 -1596 0
-1594 -1597 0
1594 1599 1596 1597 0
-1598 -1599 0
-1598 -1600 0
1598 1599 1600 0
-1717 -1602 0
-1717 -1603 0
1717 1602 1603 0
-1604 -1609 0
-1604 -1606 0
-1604 -1607 0
1604 1609 1606 1607 0
-1608 -1609 0
-1608 -1610 0
1608 1609 1610 0
-1725 -1612 0
-1725 -1613 0
1725 1612 1613 0
-1614 -1615 0
-1614 -1616 0
1614 1615 1616 0
-1617 -1618 0
-1617 -1619 0
1617 1618 1619 0
-1620 -1621 0
-1620 -1622 0
1620 1621 1622 0
-1623 -1624 0
-1623 -1628 0
1623 1624 1628 0
-1626 -1633 0
-1626 -1628 0
-1626 -1629 0
1626 1633 1628 1629 0
-1630 -1631 0
-1630 -1632 0
-1630 -1633 0
-1630 -1634 0
1630 1631 1632 1633 1634 0
-1635 -1636 0
-1635 -1637 0
1635 1636 1637 0
-1638 -1639 0
-1638 -1640 0
1638 1639 1640 0
-1641 -1642 0
-1641 -1646 0
1641 1642 1646 0
-1644 -1651 0
-1644 -1646 0
-1644 -1647 0
1644 1651 1646 1647 0
-1648 -1649 0
-1648 -1650 0
-1648 -1651 0
-1648 -1652 0
1648 1649 1650 1651 1652 0
-1653 -1654 0
-1653 -1655 0
1653 1654 1655 0
-1656 -1657 0
-1656 -1658 0
1656 1657 1658 0
-1659 -1660 0
-1659 -1664 0
1659 1660 1664 0
-1662 -1669 0
-1662 -1664 0
-1662 -1665 0
1662 1669 1664 1665 0
-1666 -1667 0
-1666 -1668 0
-1666 -1669 0
-1666 -1670 0
1666 1667 1668 1669 1670 0
-1671 -1672 0
-1671 -1673 0
1671 1672 1673 0
-1674 -1675 0
-1674 -1676 0
1674 1675 1676 0
-1677 -1678 0
-1677 -1682 0
1677 1678 1682 0
-1680 -1681 0
-1680 -1682 0
-1680 -1683 0
1680 1681 1682 1683 0
-1684 -1685 0
-1684 -1686 0
1684 1685 1686 0
-1687 -1688 0
-1687 -1689 0
1687 1688 1689 0
-1690 -1691 0
-1690 -1692 0
1690 1691 1692 0
-1693 -1694 0
-1693 -1695 0
1693 1694 1695 0
-1697 2261 0
1697 -2261 0
-1699 2263 0
1699 -2263 0
-1701 2262 0
1701 -2262 0
-1703 2264 0
1703 -2264 0
-1705 2279 0
1705 -2279 0
-1707 2281 0
1707 -2281 0
-1709 2280 0
1709 -2280 0
-1711 2282 0
1711 -2282 0
-1713 2297 0
1713 -2297 0
-1715 2299 0
1715 -2299 0
-1717 2298 0
1717 -2298 0
-1719 2300 0
1719 -2300 0
-1721 2164 0
1721 -2164 0
-1723 2311 0
1723 -2311 0
-1725 2170 0
1725 -2170 0
-1727 2166 0
1727 -2166 0
1889 2218 0
-1889 -2218 0
1886 2263 0
-1886 -2263 0
1895 2129 0
-1895 -2129 0
1892 2262 0
-1892 -2262 0
1901 2264 0
-1901 -2264 0
1898 2194 0
-1898 -2194 0
2220 2194 0
-2220 -2194 0
2216 2261 0
-2216 -2261 0
2217 2263 0
-2217 -2263 0
2032 2218 0
-2032 -2218 0
1907 2228 0
-1907 -2228 0
1904 2281 0
-1904 -2281 0
1913 2141 0
-1913 -2141 0
1910 2280 0
-1910 -2280 0
1919 2282 0
-1919 -2282 0
1916 2327 0
-1916 -2327 0
2230 2327 0
-2230 -2327 0
2226 2279 0
-2226 -2279 0
2227 2281 0
-2227 -2281 0
2046 2228 0
-2046 -2228 0
1925 2238 0
-1925 -2238 0
1922 2299 0
-1922 -2299 0
1931 2153 0
-1931 -2153 0
1928 2298 0
-1928 -2298 0
1937 2300 0
-1937 -2300 0
1934 2329 0
-1934 -2329 0
2240 2329 0
-2240 -2329 0
2236 2297 0
-2236 -2297 0
2237 2299 0
-2237 -2299 0
2060 2238 0
-2060 -2238 0
1943 2165 0
-1943 -2165 0
1940 2170 0
-1940 -2170 0
1949 2166 0
-1949 -2166 0
1946 2331 0
-1946 -2331 0
2245 2311 0
-2245 -2311 0
2085 2170 0
-2085 -2170 0
2161 2244 0
-2161 -2244 0
2169 2165 0
-2169 -2165 0
2248 2194 0
-2248 -2194 0
2249 2264 0
-2249 -2264 0
2251 2262 0
-2251 -2262 0
2254 2263 0
-2254 -2263 0
2259 2261 0
-2259 -2261 0
2172 2252 0
-2172 -2252 0
2266 2194 0
-2266 -2194 0
2267 2282 0
-2267 -2282 0
2269 2280 0
-2269 -2280 0
2272 2281 0
-2272 -2281 0
2277 2279 0
-2277 -2279 0
2178 2270 0
-2178 -2270 0
2284 2194 0
-2284 -2194 0
2285 2300 0
-2285 -2300 0
2287 2298 0
-2287 -2298 0
2290 2299 0
-2290 -2299 0
2295 2297 0
-2295 -2297 0
2184 2288 0
-2184 -2288 0
2302 2194 0
-2302 -2194 0
2303 2166 0
-2303 -2166 0
2305 2170 0
-2305 -2170 0
2308 2311 0
-2308 -2311 0
2313 2164 0
-2313 -2164 0
2190 2306 0
-2190 -2306 0
2091 2250 0
-2091 -2250 0
2088 2253 0
-2088 -2253 0
2092 1857 0
-2092 -1857 0
2089 1859 0
-2089 -1859 0
2097 1971 0
-2097 -1971 0
2094 1974 0
-2094 -1974 0
2098 1865 0
-2098 -1865 0
2095 1867 0
-2095 -1867 0
2103 1983 0
-2103 -1983 0
2100 1986 0
-2100 -1986 0
2104 1873 0
-2104 -1873 0
2101 1875 0
-2101 -1875 0
2109 1995 0
-2109 -1995 0
2106 1998 0
-2106 -1998 0
2110 1881 0
-2110 -1881 0
2107 1883 0
-2107 -1883 0
-2036 2218 0
-2036 1886 0
2036 -2218 -1886 0
-2037 2263 0
-2037 1889 0
2037 -2263 -1889 0
-2212 2129 0
-2212 1892 0
2212 -2129 -1892 0
-2213 2262 0
-2213 1895 0
2213 -2262 -1895 0
-2039 2264 0
-2039 1898 0
2039 -2264 -1898 0
-2040 2194 0
-2040 1901 0
2040 -2194 -1901 0
-2050 2228 0
-2050 1904 0
2050 -2228 -1904 0
-2051 2281 0
-2051 1907 0
2051 -2281 -1907 0
-2222 2141 0
-2222 1910 0
2222 -2141 -1910 0
-2223 2280 0
-2223 1913 0
2223 -2280 -1913 0
-2053 2282 0
-2053 1916 0
2053 -2282 -1916 0
-2054 2327 0
-2054 1919 0
2054 -2327 -1919 0
-2064 2238 0
-2064 1922 0
2064 -2238 -1922 0
-2065 2299 0
-2065 1925 0
2065 -2299 -1925 0
-2232 2153 0
-2232 1928 0
2232 -2153 -1928 0
-2233 2298 0
-2233 1931 0
2233 -2298 -1931 0
-2067 2300 0
-2067 1934 0
2067 -2300 -1934 0
-2068 2329 0
-2068 1937 0
2068 -2329 -1937 0
-2242 2165 0
-2242 1940 0
2242 -2165 -1940 0
-2243 2170 0
-2243 1943 0
2243 -2170 -1943 0
-2081 2166 0
-2081 1946 0
2081 -2166 -1946 0
-2082 2331 0
-2082 1949 0
2082 -2331 -1949 0
-2246 2169 0
-2246 2170 0
2246 -2169 -2170 0
2327 2121 0
2327 2123 0
-2327 -2121 -2123 0
2329 -2036 0
2329 -2037 0
-2329 2036 2037 0
-2331 -2212 0
-2331 -2213 0
2331 2212 2213 0
-1990 2260 0
-1990 2278 0
1990 -2260 -2278 0
-2002 1990 0
-2002 2296 0
2002 -1990 -2296 0
-2011 2260 0
-2011 2265 0
2011 -2260 -2265 0
-1971 2260 0
-1971 2268 0
1971 -2260 -2268 0
-1974 2260 0
-1974 2271 0
1974 -2260 -2271 0
-2020 2260 0
-2020 2274 0
2020 -2260 -2274 0
-2017 1990 0
-2017 2283 0
2017 -1990 -2283 0
-1983 1990 0
-1983 2286 0
1983 -1990 -2286 0
-1986 1990 0
-1986 2289 0
1986 -1990 -2289 0
-2026 1990 0
-2026 2292 0
2026 -1990 -2292 0
-2023 2002 0
-2023 2301 0
2023 -2002 -2301 0
-1995 2002 0
-1995 2304 0
1995 -2002 -2304 0
-1998 2002 0
-1998 2307 0
1998 -2002 -2307 0
-2029 2002 0
-2029 2310 0
2029 -2002 -2310 0
-2315 2247 0
-2315 2006 0
2315 -2247 -2006 0
-2316 2194 0
-2316 2009 0
2316 -2194 -2009 0
-2318 2011 0
-2318 2012 0
2318 -2011 -2012 0
-2319 2256 0
-2319 2015 0
2319 -2256 -2015 0
-2321 2017 0
-2321 2018 0
2321 -2017 -2018 0
-2322 2020 0
-2322 2021 0
2322 -2020 -2021 0
-2324 2023 0
-2324 2024 0
2324 -2023 -2024 0
-2325 2026 0
-2325 2027 0
2325 -2026 -2027 0
-2028 2029 0
-2028 2030 0
2028 -2029 -2030 0
2121 -2032 0
2121 -2261 0
2121 -2217 0
-2121 2032 2261 2217 0
2333 -2039 0
2333 -2040 0
-2333 2039 2040 0
2124 -2219 0
2124 -2217 0
2124 -2220 0
-2124 2219 2217 2220 0
2133 -2046 0
2133 -2279 0
2133 -2227 0
-2133 2046 2279 2227 0
2337 -2050 0
2337 -2051 0
-2337 2050 2051 0
2341 -2053 0
2341 -2054 0
-2341 2053 2054 0
2136 -2229 0
2136 -2227 0
2136 -2230 0
-2136 2229 2227 2230 0
2145 -2060 0
2145 -2297 0
2145 -2237 0
-2145 2060 2297 2237 0
2345 -2064 0
2345 -2065 0
-2345 2064 2065 0
2349 -2067 0
2349 -2068 0
-2349 2067 2068 0
2148 -2239 0
2148 -2237 0
2148 -2240 0
-2148 2239 2237 2240 0
2157 -2168 0
2157 -2164 0
2157 -2245 0
-2157 2168 2164 2245 0
2160 -2168 0
2160 -2311 0
-2160 2168 2311 0
2357 -2081 0
2357 -2082 0
-2357 2081 2082 0
2163 -2165 0
2163 -2085 0
2163 -2245 0
-2163 2165 2085 2245 0
2196 -2088 0
2196 -2089 0
-2196 2088 2089 0
2197 -2091 0
2197 -2092 0
-2197 2091 2092 0
2200 -2094 0
2200 -2095 0
-2200 2094 2095 0
2201 -2097 0
2201 -2098 0
-2201 2097 2098 0
2204 -2100 0
2204 -2101 0
-2204 2100 2101 0
2205 -2103 0
2205 -2104 0
-2205 2103 2104 0
2208 -2106 0
2208 -2107 0
-2208 2106 2107 0
2209 -2109 0
2209 -2110 0
-2209 2109 2110 0
2115 -2195 0
2115 -2199 0
-2115 2195 2199 0
2118 -2115 0
2118 -2203 0
-2118 2115 2203 0
2117 -2118 0
2117 -2207 0
-2117 2118 2207 0
2123 2124 0
2123 2261 0
-2123 -2124 -2261 0
2219 2264 0
2219 2262 0
-2219 -2264 -2262 0
2129 2264 0
2129 2194 0
-2129 -2264 -2194 0
2335 2133 0
2335 2135 0
-2335 -2133 -2135 0
2135 2136 0
2135 2279 0
-2135 -2136 -2279 0
2229 2282 0
2229 2280 0
-2229 -2282 -2280 0
2141 2282 0
2141 2327 0
-2141 -2282 -2327 0
2343 2145 0
2343 2147 0
-2343 -2145 -2147 0
2147 2148 0
2147 2297 0
-2147 -2148 -2297 0
2239 2300 0
2239 2298 0
-2239 -2300 -2298 0
2153 2300 0
2153 2329 0
-2153 -2300 -2329 0
2351 2157 0
2351 2162 0
-2351 -2157 -2162 0
2353 2160 0
2353 2161 0
-2353 -2160 -2161 0
2162 2163 0
2162 2164 0
-2162 -2163 -2164 0
2165 2166 0
2165 2331 0
-2165 -2166 -2331 0
2168 2169 0
2168 2170 0
-2168 -2169 -2170 0
2258 2172 0
2258 2251 0
-2258 -2172 -2251 0
2252 2249 0
2252 2194 0
-2252 -2249 -2194 0
2276 2178 0
2276 2269 0
-2276 -2178 -2269 0
2270 2267 0
2270 2194 0
-2270 -2267 -2194 0
2294 2184 0
2294 2287 0
-2294 -2184 -2287 0
2288 2285 0
2288 2194 0
-2288 -2285 -2194 0
2312 2190 0
2312 2305 0
-2312 -2190 -2305 0
2306 2303 0
2306 2194 0
-2306 -2303 -2194 0
2195 2196 0
2195 2197 0
2195 2314 0
-2195 -2196 -2197 -2314 0
2199 2200 0
2199 2201 0
2199 2317 0
-2199 -2200 -2201 -2317 0
2203 2204 0
2203 2205 0
2203 2320 0
-2203 -2204 -2205 -2320 0
2207 2208 0
2207 2209 0
2207 2323 0
-2207 -2208 -2209 -2323 0
-2214 -2219 0
-2214 -2216 0
-2214 -2217 0
2214 2219 2216 2217 0
-2218 -2219 0
-2218 -2220 0
2218 2219 2220 0
-2339 -2222 0
-2339 -2223 0
2339 2222 2223 0
-2224 -2229 0
-2224 -2226 0
-2224 -2227 0
2224 2229 2226 2227 0
-2228 -2229 0
-2228 -2230 0
2228 2229 2230 0
-2347 -2232 0
-2347 -2233 0
2347 2232 2233 0
-2234 -2239 0
-2234 -2236 0
-2234 -2237 0
2234 2239 2236 2237 0
-2238 -2239 0
-2238 -2240 0
2238 2239 2240 0
-2355 -2242 0
-2355 -2243 0
2355 2242 2243 0
-2244 -2245 0
-2244 -2246 0
2244 2245 2246 0
-2247 -2248 0
-2247 -2249 0
2247 2248 2249 0
-2250 -2251 0
-2250 -2252 0
2250 2251 2252 0
-2253 -2254 0
-2253 -2258 0
2253 2254 2258 0
-2256 -2263 0
-2256 -2258 0
-2256 -2259 0
2256 2263 2258 2259 0
-2260 -2261 0
-2260 -2262 0
-2260 -2263 0
-2260 -2264 0
2260 2261 2262 2263 2264 0
-2265 -2266 0
-2265 -2267 0
2265 2266 2267 0
-2268 -2269 0
-2268 -2270 0
2268 2269 2270 0
-2271 -2272 0
-2271 -2276 0
2271 2272 2276 0
-2274 -2281 0
-2274 -2276 0
-2274 -2277 0
2274 2281 2276 2277 0
-2278 -2279 0
-2278 -2280 0
-2278 -2281 0
-2278 -2282 0
2278 2279 2280 2281 2282 0
-2283 -2284 0
-2283 -2285 0
2283 2284 2285 0
-2286 -2287 0
-2286 -2288 0
2286 2287 2288 0
-2289 -2290 0
-2289 -2294 0
2289 2290 2294 0
-2292 -2299 0
-2292 -2294 0
-2292 -2295 0
2292 2299 2294 2295 0
-2296 -2297 0
-2296 -2298 0
-2296 -2299 0
-2296 -2300 0
2296 2297 2298 2299 2300 0
-2301 -2302 0
-2301 -2303 0
2301 2302 2303 0
-2304 -2305 0
-2304 -2306 0
2304 2305 2306 0
-2307 -2308 0
-2307 -2312 0
2307 2308 2312 0
-2310 -2311 0
-2310 -2312 0
-2310 -2313 0
2310 2311 2312 2313 0
-2314 -2315 0
-2314 -2316 0
2314 2315 2316 0
-2317 -2318 0
-2317 -2319 0
2317 2318 2319 0
-2320 -2321 0
-2320 -2322 0
2320 2321 2322 0
-2323 -2324 0
-2323 -2325 0
2323 2324 2325 0
-2327 2891 0
2327 -2891 0
-2329 2893 0
2329 -2893 0
-2331 2892 0
2331 -2892 0
-2333 2894 0
2333 -2894 0
-2335 2909 0
2335 -2909 0
-2337 2911 0
2337 -2911 0
-2339 2910 0
2339 -2910 0
-2341 2912 0
2341 -2912 0
-2343 2927 0
2343 -2927 0
-2345 2929 0
2345 -2929 0
-2347 2928 0
2347 -2928 0
-2349 2930 0
2349 -2930 0
-2351 2794 0
2351 -2794 0
-2353 2941 0
2353 -2941 0
-2355 2800 0
2355 -2800 0
-2357 2796 0
2357 -2796 0
2519 2848 0
-2519 -2848 0
2516 2893 0
-2516 -2893 0
2525 2759 0
-2525 -2759 0
2522 2892 0
-2522 -2892 0
2531 2894 0
-2531 -2894 0
2528 2824 0
-2528 -2824 0
2850 2824 0
-2850 -2824 0
2846 2891 0
-2846 -2891 0
2847 2893 0
-2847 -2893 0
2662 2848 0
-2662 -2848 0
2537 2858 0
-2537 -2858 0
2534 2911 0
-2534 -2911 0
2543 2771 0
-2543 -2771 0
2540 2910 0
-2540 -2910 0
2549 2912 0
-2549 -2912 0
2546 2957 0
-2546 -2957 0
2860 2957 0
-2860 -2957 0
2856 2909 0
-2856 -2909 0
2857 2911 0
-2857 -2911 0
2676 2858 0
-2676 -2858 0
2555 2868 0
-2555 -2868 0
2552 2929 0
-2552 -2929 0
2561 2783 0
-2561 -2783 0
2558 2928 0
-2558 -2928 0
2567 2930 0
-2567 -2930 0
2564 2959 0
-2564 -2959 0
2870 2959 0
-2870 -2959 0
2866 2927 0
-2866 -2927 0
2867 2929 0
-2867 -2929 0
2690 2868 0
-2690 -2868 0
2573 2795 0
-2573 -2795 0
2570 2800 0
-2570 -2800 0
2579 2796 0
-2579 -2796 0
2576 2961 0
-2576 -2961 0
2875 2941 0
-2875 -2941 0
2715 2800 0
-2715 -2800 0
2791 2874 0
-2791 -2874 0
2799 2795 0
-2799 -2795 0
2878 2824 0
-2878 -2824 0
2879 2894 0
-2879 -2894 0
2881 2892 0
-2881 -2892 0
2884 2893 0
-2884 -2893 0
2889 2891 0
-2889 -2891 0
2802 2882 0
-2802 -2882 0
2896 2824 0
-2896 -2824 0
2897 2912 0
-2897 -2912 0
2899 2910 0
-2899 -2910 0
2902 2911 0
-2902 -2911 0
2907 2909 0
-2907 -2909 0
2808 2900 0
-2808 -2900 0
2914 2824 0
-2914 -2824 0
2915 2930 0
-2915 -2930 0
2917 2928 0
-2917 -2928 0
2920 2929 0
-2920 -2929 0
2925 2927 0
-2925 -2927 0
2814 2918 0
-2814 -2918 0
2932 2824 0
-2932 -2824 0
2933 2796 0
-2933 -2796 0
2935 2800 0
-2935 -2800 0
2938 2941 0
-2938 -2941 0
2943 2794 0
-2943 -2794 0
2820 2936 0
-2820 -2936 0
2721 2880 0
-2721 -2880 0
2718 2883 0
-2718 -2883 0
2722 2487 0
-2722 -2487 0
2719 2489 0
-2719 -2489 0
2727 2601 0
-2727 -2601 0
2724 2604 0
-2724 -2604 0
2728 2495 0
-2728 -2495 0
2725 2497 0
-2725 -2497 0
2733 2613 0
-2733 -2613 0
2730 2616 0
-2730 -2616 0
2734 2503 0
-2734 -2503 0
2731 2505 0
-2731 -2505 0
2739 2625 0
-2739 -2625 0
2736 2628 0
-2736 -2628 0
2740 2511 0
-2740 -2511 0
2737 2513 0
-2737 -2513 0
-2666 2848 0
-2666 2516 0
2666 -2848 -2516 0
-2667 2893 0
-2667 2519 0
2667 -2893 -2519 0
-2842 2759 0
-2842 2522 0
2842 -2759 -2522 0
-2843 2892 0
-2843 2525 0
2843 -2892 -2525 0
-2669 2894 0
-2669 2528 0
2669 -2894 -2528 0
-2670 2824 0
-2670 2531 0
2670 -2824 -2531 0
-2680 2858 0
-2680 2534 0
2680 -2858 -2534 0
-2681 2911 0
-2681 2537 0
2681 -2911 -2537 0
-2852 2771 0
-2852 2540 0
2852 -2771 -2540 0
-2853 2910 0
-2853 2543 0
2853 -2910 -2543 0
-2683 2912 0
-2683 2546 0
2683 -2912 -2546 0
-2684 2957 0
-2684 2549 0
2684 -2957 -2549 0
-2694 2868 0
-2694 2552 0
2694 -2868 -2552 0
-2695 2929 0
-2695 2555 0
2695 -2929 -2555 0
-2862 2783 0
-2862 2558 0
2862 -2783 -2558 0
-2863 2928 0
-2863 2561 0
2863 -2928 -2561 0
-2697 2930 0
-2697 2564 0
2697 -2930 -2564 0
-2698 2959 0
-2698 2567 0
2698 -2959 -2567 0
-2872 2795 0
-2872 2570 0
2872 -2795 -2570 0
-2873 2800 0
-2873 2573 0
2873 -2800 -2573 0
-2711 2796 0
-2711 2576 0
2711 -2796 -2576 0
-2712 2961 0
-2712 2579 0
2712 -2961 -2579 0
-2876 2799 0
-2876 2800 0
2876 -2799 -2800 0
2957 2751 0
2957 2753 0
-2957 -2751 -2753 0
2959 -2666 0
2959 -2667 0
-2959 2666 2667 0
-2961 -2842 0
-2961 -2843 0
2961 2842 2843 0
-2620 2890 0
-2620 2908 0
2620 -2890 -2908 0
-2632 2620 0
-2632 2926 0
2632 -2620 -2926 0
-2641 2890 0
-2641 2895 0
2641 -2890 -2895 0
-2601 2890 0
-2601 2898 0
2601 -2890 -2898 0
-2604 2890 0
-2604 2901 0
2604 -2890 -2901 0
-2650 2890 0
-2650 2904 0
2650 -2890 -2904 0
-2647 2620 0
-2647 2913 0
2647 -2620 -2913 0
-2613 2620 0
-2613 2916 0
2613 -2620 -2916 0
-2616 2620 0
-2616 2919 0
2616 -2620 -2919 0
-2656 2620 0
-2656 2922 0
2656 -2620 -2922 0
-2653 2632 0
-2653 2931 0
2653 -2632 -2931 0
-2625 2632 0
-2625 2934 0
2625 -2632 -2934 0
-2628 2632 0
-2628 2937 0
2628 -2632 -2937 0
-2659 2632 0
-2659 2940 0
2659 -2632 -2940 0
-2945 2877 0
-2945 2636 0
2945 -2877 -2636 0
-2946 2824 0
-2946 2639 0
2946 -2824 -2639 0
-2948 2641 0
-2948 2642 0
2948 -2641 -2642 0
-2949 2886 0
-2949 2645 0
2949 -2886 -2645 0
-2951 2647 0
-2951 2648 0
2951 -2647 -2648 0
-2952 2650 0
-2952 2651 0
2952 -2650 -2651 0
-2954 2653 0
-2954 2654 0
2954 -2653 -2654 0
-2955 2656 0
-2955 2657 0
2955 -2656 -2657 0
-2658 2659 0
-2658 2660 0
2658 -2659 -2660 0
2751 -2662 0
2751 -2891 0
2751 -2847 0
-2751 2662 2891 2847 0
2963 -2669 0
2963 -2670 0
-2963 2669 2670 0
2754 -2849 0
2754 -2847 0
2754 -2850 0
-2754 2849 2847 2850 0
2763 -2676 0
2763 -2909 0
2763 -2857 0
-2763 2676 2909 2857 0
2967 -2680 0
2967 -2681 0
-2967 2680 2681 0
2971 -2683 0
2971 -2684 0
-2971 2683 2684 0
2766 -2859 0
2766 -2857 0
2766 -2860 0
-2766 2859 2857 2860 0
2775 -2690 0
2775 -2927 0
2775 -2867 0
-2775 2690 2927 2867 0
2975 -2694 0
2975 -2695 0
-2975 2694 2695 0
2979 -2697 0
2979 -2698 0
-2979 2697 2698 0
2778 -2869 0
2778 -2867 0
2778 -2870 0
-2778 2869 2867 2870 0
2787 -2798 0
2787 -2794 0
2787 -2875 0
-2787 2798 2794 2875 0
2790 -2798 0
2790 -2941 0
-2790 2798 2941 0
2987 -2711 0
2987 -2712 0
-2987 2711 2712 0
2793 -2795 0
2793 -2715 0
2793 -2875 0
-2793 2795 2715 2875 0
2826 -2718 0
2826 -2719 0
-2826 2718 2719 0
2827 -2721 0
2827 -2722 0
-2827 2721 2722 0
2830 -2724 0
2830 -2725 0
-2830 2724 2725 0
2831 -2727 0
2831 -2728 0
-2831 2727 2728 0
2834 -2730 0
2834 -2731 0
-2834 2730 2731 0
2835 -2733 0
2835 -2734 0
-2835 2733 2734 0
2838 -2736 0
2838 -2737 0
-2838 2736 2737 0
2839 -2739 0
2839 -2740 0
-2839 2739 2740 0
2745 -2825 0
2745 -2829 0
-2745 2825 2829 0
2748 -2745 0
2748 -2833 0
-2748 2745 2833 0
2747 -2748 0
2747 -2837 0
-2747 2748 2837 0
2753 2754 0
2753 2891 0
-2753 -2754 -2891 0
2849 2894 0
2849 2892 0
-2849 -2894 -2892 0
2759 2894 0
2759 2824 0
-2759 -2894 -2824 0
2965 2763 0
2965 2765 0
-2965 -2763 -2765 0
2765 2766 0
2765 2909 0
-2765 -2766 -2909 0
2859 2912 0
2859 2910 0
-2859 -2912 -2910 0
2771 2912 0
2771 2957 0
-2771 -2912 -2957 0
2973 2775 0
2973 2777 0
-2973 -2775 -2777 0
2777 2778 0
2777 2927 0
-2777 -2778 -2927 0
2869 2930 0
2869 2928 0
-2869 -2930 -2928 0
2783 2930 0
2783 2959 0
-2783 -2930 -2959 0
2981 2787 0
2981 2792 0
-2981 -2787 -2792 0
2983 2790 0
2983 2791 0
-2983 -2790 -2791 0
2792 2793 0
2792 2794 0
-2792 -2793 -2794 0
2795 2796 0
2795 2961 0
-2795 -2796 -2961 0
2798 2799 0
2798 2800 0
-2798 -2799 -2800 0
2888 2802 0
2888 2881 0
-2888 -2802 -2881 0
2882 2879 0
2882 2824 0
-2882 -2879 -2824 0
2906 2808 0
2906 2899 0
-2906 -2808 -2899 0
2900 2897 0
2900 2824 0
-2900 -2897 -2824 0
2924 2814 0
2924 2917 0
-2924 -2814 -2917 0
2918 2915 0
2918 2824 0
-2918 -2915 -2824 0
2942 2820 0
2942 2935 0
-2942 -2820 -2935 0
2936 2933 0
2936 2824 0
-2936 -2933 -2824 0
2825 2826 0
2825 2827 0
2825 2944 0
-2825 -2826 -2827 -2944 0
2829 2830 0
2829 2831 0
2829 2947 0
-2829 -2830 -2831 -2947 0
2833 2834 0
2833 2835 0
2833 2950 0
-2833 -2834 -2835 -2950 0
2837 2838 0
2837 2839 0
2837 2953 0
-2837 -2838 -2839 -2953 0
-2844 -2849 0
-2844 -2846 0
-2844 -2847 0
2844 2849 2846 2847 0
-2848 -2849 0
-2848 -2850 0
2848 2849 2850 0
-2969 -2852 0
-2969 -2853 0
2969 2852 2853 0
-2854 -2859 0
-2854 -2856 0
-2854 -2857 0
2854 2859 2856 2857 0
-2858 -2859 0
-2858 -2860 0
2858 2859 2860 0
-2977 -2862 0
-2977 -2863 0
2977 2862 2863 0
-2864 -2869 0
-2864 -2866 0
-2864 -2867 0
2864 2869 2866 2867 0
-2868 -2869 0
-2868 -2870 0
2868 2869 2870 0
-2985 -2872 0
-2985 -2873 0
2985 2872 2873 0
-2874 -2875 0
-2874 -2876 0
2874 2875 2876 0
-2877 -2878 0
-2877 -2879 0
2877 2878 2879 0
-2880 -2881 0
-2880 -2882 0
2880 2881 2882 0
-2883 -2884 0
-2883 -2888 0
2883 2884 2888 0
-2886 -2893 0
-2886 -2888 0
-2886 -2889 0
2886 2893 2888 2889 0
-2890 -2891 0
-2890 -2892 0
-2890 -2893 0
-2890 -2894 0
2890 2891 2892 2893 2894 0
-2895 -2896 0
-2895 -2897 0
2895 2896 2897 0
-2898 -2899 0
-2898 -2900 0
2898 2899 2900 0
-2901 -2902 0
-2901 -2906 0
2901 2902 2906 0
-2904 -2911 0
-2904 -2906 0
-2904 -2907 0
2904 2911 2906 2907 0
-2908 -2909 0
-2908 -2910 0
-2908 -2911 0
-2908 -2912 0
2908 2909 2910 2911 2912 0
-2913 -2914 0
-2913 -2915 0
2913 2914 2915 0
-2916 -2917 0
-2916 -2918 0
2916 2917 2918 0
-2919 -2920 0
-2919 -2924 0
2919 2920 2924 0
-2922 -2929 0
-2922 -2924 0
-2922 -2925 0
2922 2929 2924 2925 0
-2926 -2927 0
-2926 -2928 0
-2926 -2929 0
-2926 -2930 0
2926 2927 2928 2929 2930 0
-2931 -2932 0
-2931 -2933 0
2931 2932 2933 0
-2934 -2935 0
-2934 -2936 0
2934 2935 2936 0
-2937 -2938 0
-2937 -2942 0
2937 2938 2942 0
-2940 -2941 0
-2940 -2942 0
-2940 -2943 0
2940 2941 2942 2943 0
-2944 -2945 0
-2944 -2946 0
2944 2945 2946 0
-2947 -2948 0
-2947 -2949 0
2947 2948 2949 0
-2950 -2951 0
-2950 -2952 0
2950 2951 2952 0
-2953 -2954 0
-2953 -2955 0
2953 2954 2955 0
-2957 3521 0
2957 -3521 0
-2959 3523 0
2959 -3523 0
-2961 3522 0
2961 -3522 0
-2963 3524 0
2963 -3524 0
-2965 3539 0
2965 -3539 0
-2967 3541 0
2967 -3541 0
-2969 3540 0
2969 -3540 0
-2971 3542 0
2971 -3542 0
-2973 3557 0
2973 -3557 0
-2975 3559 0
2975 -3559 0
-2977 3558 0
2977 -3558 0
-2979 3560 0
2979 -3560 0
-2981 3424 0
2981 -3424 0
-2983 3571 0
2983 -3571 0
-2985 3430 0
2985 -3430 0
-2987 3426 0
2987 -3426 0
3149 3478 0
-3149 -3478 0
3146 3523 0
-3146 -3523 0
3155 3389 0
-3155 -3389 0
3152 3522 0
-3152 -3522 0
3161 3524 0
-3161 -3524 0
3158 3454 0
-3158 -3454 0
3480 3454 0
-3480 -3454 0
3476 3521 0
-3476 -3521 0
3477 3523 0
-3477 -3523 0
3292 3478 0
-3292 -3478 0
3167 3488 0
-3167 -3488 0
3164 3541 0
-3164 -3541 0
3173 3401 0
-3173 -3401 0
3170 3540 0
-3170 -3540 0
3179 3542 0
-3179 -3542 0
3176 3587 0
-3176 -3587 0
3490 3587 0
-3490 -3587 0
3486 3539 0
-3486 -3539 0
3487 3541 0
-3487 -3541 0
3306 3488 0
-3306 -3488 0
3185 3498 0
-3185 -3498 0
3182 3559 0
-3182 -3559 0
3191 3413 0
-3191 -3413 0
3188 3558 0
-3188 -3558 0
3197 3560 0
-3197 -3560 0
3194 3589 0
-3194 -3589 0
3500 3589 0
-3500 -3589 0
3496 3557 0
-3496 -3557 0
3497 3559 0
-3497 -3559 0
3320 3498 0
-3320 -3498 0
3203 3425 0
-3203 -3425 0
3200 3430 0
-3200 -3430 0
3209 3426 0
-3209 -3426 0
3206 3591 0
-3206 -3591 0
3505 3571 0
-3505 -3571 0
3345 3430 0
-3345 -3430 0
3421 3504 0
-3421 -3504 0
3429 3425 0
-3429 -3425 0
3508 3454 0
-3508 -3454 0
3509 3524 0
-3509 -3524 0
3511 3522 0
-3511 -3522 0
3514 3523 0
-3514 -3523 0
3519 3521 0
-3519 -3521 0
3432 3512 0
-3432 -3512 0
3526 3454 0
-3526 -3454 0
3527 3542 0
-3527 -3542 0
3529 3540 0
-3529 -3540 0
3532 3541 0
-3532 -3541 0
3537 3539 0
-3537 -3539 0
3438 3530 0
-3438 -3530 0
3544 3454 0
-3544 -3454 0
3545 3560 0
-3545 -3560 0
3547 3558 0
-3547 -3558 0
3550 3559 0
-3550 -3559 0
3555 3557 0
-3555 -3557 0
3444 3548 0
-3444 -3548 0
3562 3454 0
-3562 -3454 0
3563 3426 0
-3563 -3426 0
3565 3430 0
-3565 -3430 0
3568 3571 0
-3568 -3571 0
3573 3424 0
-3573 -3424 0
3450 3566 0
-3450 -3566 0
3351 3510 0
-3351 -3510 0
3348 3513 0
-3348 -3513 0
3352 3117 0
-3352 -3117 0
3349 3119 0
-3349 -3119 0
3357 3231 0
-3357 -3231 0
3354 3234 0
-3354 -3234 0
3358 3125 0
-3358 -3125 0
3355 3127 0
-3355 -3127 0
3363 3243 0
-3363 -3243 0
3360 3246 0
-3360 -3246 0
3364 3133 0
-3364 -3133 0
3361 3135 0
-3361 -3135 0
3369 3255 0
-3369 -3255 0
3366 3258 0
-3366 -3258 0
3370 3141 0
-3370 -3141 0
3367 3143 0
-3367 -3143 0
-3296 3478 0
-3296 3146 0
3296 -3478 -3146 0
-3297 3523 0
-3297 3149 0
3297 -3523 -3149 0
-3472 3389 0
-3472 3152 0
3472 -3389 -3152 0
-3473 3522 0
-3473 3155 0
3473 -3522 -3155 0
-3299 3524 0
-3299 3158 0
3299 -3524 -3158 0
-3300 3454 0
-3300 3161 0
3300 -3454 -3161 0
-3310 3488 0
-3310 3164 0
3310 -3488 -3164 0
-3311 3541 0
-3311 3167 0
3311 -3541 -3167 0
-3482 3401 0
-3482 3170 0
3482 -3401 -3170 0
-3483 3540 0
-3483 3173 0
3483 -3540 -3173 0
-3313 3542 0
-3313 3176 0
3313 -3542 -3176 0
-3314 3587 0
-3314 3179 0
3314 -3587 -3179 0
-3324 3498 0
-3324 3182 0
3324 -3498 -3182 0
-3325 3559 0
-3325 3185 0
3325 -3559 -3185 0
-3492 3413 0
-3492 3188 0
3492 -3413 -3188 0
-3493 3558 0
-3493 3191 0
3493 -3558 -3191 0
-3327 3560 0
-3327 3194 0
3327 -3560 -3194 0
-3328 3589 0
-3328 3197 0
3328 -3589 -3197 0
-3502 3425 0
-3502 3200 0
3502 -3425 -3200 0
-3503 3430 0
-3503 3203 0
3503 -3430 -3203 0
-3341 3426 0
-3341 3206 0
3341 -3426 -3206 0
-3342 3591 0
-3342 3209 0
3342 -3591 -3209 0
-3506 3429 0
-3506 3430 0
3506 -3429 -3430 0
3587 3381 0
3587 3383 0
-3587 -3381 -3383 0
3589 -3296 0
3589 -3297 0
-3589 3296 3297 0
-3591 -3472 0
-3591 -3473 0
3591 3472 3473 0
-3250 3520 0
-3250 3538 0
3250 -3520 -3538 0
-3262 3250 0
-3262 3556 0
3262 -3250 -3556 0
-3271 3520 0
-3271 3525 0
3271 -3520 -3525 0
-3231 3520 0
-3231 3528 0
3231 -3520 -3528 0
-3234 3520 0
-3234 3531 0
3234 -3520 -3531 0
-3280 3520 0
-3280 3534 0
3280 -3520 -3534 0
-3277 3250 0
-3277 3543 0
3277 -3250 -3543 0
-3243 3250 0
-3243 3546 0
3243 -3250 -3546 0
-3246 3250 0
-3246 3549 0
3246 -3250 -3549 0
-3286 3250 0
-3286 3552 0
3286 -3250 -3552 0
-3283 3262 0
-3283 3561 0
3283 -3262 -3561 0
-3255 3262 0
-3255 3564 0
3255 -3262 -3564 0
-3258 3262 0
-3258 3567 0
3258 -3262 -3567 0
-3289 3262 0
-3289 3570 0
3289 -3262 -3570 0
-3575 3507 0
-3575 3266 0
3575 -3507 -3266 0
-3576 3454 0
-3576 3269 0
3576 -3454 -3269 0
-3578 3271 0
-3578 3272 0
3578 -3271 -3272 0
-3579 3516 0
-3579 3275 0
3579 -3516 -3275 0
-3581 3277 0
-3581 3278 0
3581 -3277 -3278 0
-3582 3280 0
-3582 3281 0
3582 -3280 -3281 0
-3584 3283 0
-3584 3284 0
3584 -3283 -3284 0
-3585 3286 0
-3585 3287 0
3585 -3286 -3287 0
-3288 3289 0
-3288 3290 0
3288 -3289 -3290 0
3381 -3292 0
3381 -3521 0
3381 -3477 0
-3381 3292 3521 3477 0
3593 -3299 0
3593 -3300 0
-3593 3299 3300 0
3384 -3479 0
3384 -3477 0
3384 -3480 0
-3384 3479 3477 3480 0
3393 -3306 0
3393 -3539 0
3393 -3487 0
-3393 3306 3539 3487 0
3597 -3310 0
3597 -3311 0
-3597 3310 3311 0
3601 -3313 0
3601 -3314 0
-3601 3313 3314 0
3396 -3489 0
3396 -3487 0
3396 -3490 0
-3396 3489 3487 3490 0
3405 -3320 0
3405 -3557 0
3405 -3497 0
-3405 3320 3557 3497 0
3605 -3324 0
3605 -3325 0
-3605 3324 3325 0
3609 -3327 0
3609 -3328 0
-3609 3327 3328 0
3408 -3499 0
3408 -3497 0
3408 -3500 0
-3408 3499 3497 3500 0
3417 -3428 0
3417 -3424 0
3417 -3505 0
-3417 3428 3424 3505 0
3420 -3428 0
3420 -3571 0
-3420 3428 3571 0
3617 -3341 0
3617 -3342 0
-3617 3341 3342 0
3423 -3425 0
3423 -3345 0
3423 -3505 0
-3423 3425 3345 3505 0
3456 -3348 0
3456 -3349 0
-3456 3348 3349 0
3457 -3351 0
3457 -3352 0
-3457 3351 3352 0
3460 -3354 0
3460 -3355 0
-3460 3354 3355 0
3461 -3357 0
3461 -3358 0
-3461 3357 3358 0
3464 -3360 0
3464 -3361 0
-3464 3360 3361 0
3465 -3363 0
3465 -3364 0
-3465 3363 3364 0
3468 -3366 0
3468 -3367 0
-3468 3366 3367 0
3469 -3369 0
3469 -3370 0
-3469 3369 3370 0
3375 -3455 0
3375 -3459 0
-3375 3455 3459 0
3378 -3375 0
3378 -3463 0
-3378 3375 3463 0
3377 -3378 0
3377 -3467 0
-3377 3378 3467 0
3383 3384 0
3383 3521 0
-3383 -3384 -3521 0
3479 3524 0
3479 3522 0
-3479 -3524 -3522 0
3389 3524 0
3389 3454 0
-3389 -3524 -3454 0
3595 3393 0
3595 3395 0
-3595 -3393 -3395 0
3395 3396 0
3395 3539 0
-3395 -3396 -3539 0
3489 3542 0
3489 3540 0
-3489 -3542 -3540 0
3401 3542 0
3401 3587 0
-3401 -3542 -3587 0
3603 3405 0
3603 3407 0
-3603 -3405 -3407 0
3407 3408 0
3407 3557 0
-3407 -3408 -3557 0
3499 3560 0
3499 3558 0
-3499 -3560 -3558 0
3413 3560 0
3413 3589 0
-3413 -3560 -3589 0
3611 3417 0
3611 3422 0
-3611 -3417 -3422 0
3613 3420 0
3613 3421 0
-3613 -3420 -3421 0
3422 3423 0
3422 3424 0
-3422 -3423 -3424 0
3425 3426 0
3425 3591 0
-3425 -3426 -3591 0
3428 3429 0
3428 3430 0
-3428 -3429 -3430 0
3518 3432 0
3518 3511 0
-3518 -3432 -3511 0
3512 3509 0
3512 3454 0
-3512 -3509 -3454 0
3536 3438 0
3536 3529 0
-3536 -3438 -3529 0
3530 3527 0
3530 3454 0
-3530 -3527 -3454 0
3554 3444 0
3554 3547 0
-3554 -3444 -3547 0
3548 3545 0
3548 3454 0
-3548 -3545 -3454 0
3572 3450 0
3572 3565 0
-3572 -3450 -3565 0
3566 3563 0
3566 3454 0
-3566 -3563 -3454 0
3455 3456 0
3455 3457 0
3455 3574 0
-3455 -3456 -3457 -3574 0
3459 3460 0
3459 3461 0
3459 3577 0
-3459 -3460 -3461 -3577 0
3463 3464 0
3463 3465 0
3463 3580 0
-3463 -3464 -3465 -3580 0
3467 3468 0
3467 3469 0
3467 3583 0
-3467 -3468 -3469 -3583 0
-3474 -3479 0
-3474 -3476 0
-3474 -3477 0
3474 3479 3476 3477 0
-3478 -3479 0
-3478 -3480 0
3478 3479 3480 0
-3599 -3482 0
-3599 -3483 0
3599 3482 3483 0
-3484 -3489 0
-3484 -3486 0
-3484 -3487 0
3484 3489 3486 3487 0
-3488 -3489 0
-3488 -3490 0
3488 3489 3490 0
-3607 -3492 0
-3607 -3493 0
3607 3492 3493 0
-3494 -3499 0
-3494 -3496 0
-3494 -3497 0
3494 3499 3496 3497 0
-3498 -3499 0
-3498 -3500 0
3498 3499 3500 0
-3615 -3502 0
-3615 -3503 0
3615 3502 3503 0
-3504 -3505 0
-3504 -3506 0
3504 3505 3506 0
-3507 -3508 0
-3507 -3509 0
3507 3508 3509 0
-3510 -3511 0
-3510 -3512 0
3510 3511 3512 0
-3513 -3514 0
-3513 -3518 0
3513 3514 3518 0
-3516 -3523 0
-3516 -3518 0
-3516 -3519 0
3516 3523 3518 3519 0
-3520 -3521 0
-3520 -3522 0
-3520 -3523 0
-3520 -3524 0
3520 3521 3522 3523 3524 0
-3525 -3526 0
-3525 -3527 0
3525 3526 3527 0
-3528 -3529 0
-3528 -3530 0
3528 3529 3530 0
-3531 -3532 0
-3531 -3536 0
3531 3532 3536 0
-3534 -3541 0
-3534 -3536 0
-3534 -3537 0
3534 3541 3536 3537 0
-3538 -3539 0
-3538 -3540 0
-3538 -3541 0
-3538 -3542 0
3538 3539 3540 3541 3542 0
-3543 -3544 0
-3543 -3545 0
3543 3544 3545 0
-3546 -3547 0
-3546 -3548 0
3546 3547 3548 0
-3549 -3550 0
-3549 -3554 0
3549 3550 3554 0
-3552 -3559 0
-3552 -3554 0
-3552 -3555 0
3552 3559 3554 3555 0
-3556 -3557 0
-3556 -3558 0
-3556 -3559 0
-3556 -3560 0
3556 3557 3558 3559 3560 0
-3561 -3562 0
-3561 -3563 0
3561 3562 3563 0
-3564 -3565 0
-3564 -3566 0
3564 3565 3566 0
-3567 -3568 0
-3567 -3572 0
3567 3568 3572 0
-3570 -3571 0
-3570 -3572 0
-3570 -3573 0
3570 3571 3572 3573 0
-3574 -3575 0
-3574 -3576 0
3574 3575 3576 0
-3577 -3578 0
-3577 -3579 0
3577 3578 3579 0
-3580 -3581 0
-3580 -3582 0
3580 3581 3582 0
-3583 -3584 0
-3583 -3585 0
3583 3584 3585 0
-3587 4151 0
3587 -4151 0
-3589 4153 0
3589 -4153 0
-3591 4152 0
3591 -4152 0
-3593 4154 0
3593 -4154 0
-3595 4169 0
3595 -4169 0
-3597 4171 0
3597 -4171 0
-3599 4170 0
3599 -4170 0
-3601 4172 0
3601 -4172 0
-3603 4187 0
3603 -4187 0
-3605 4189 0
3605 -4189 0
-3607 4188 0
3607 -4188 0
-3609 4190 0
3609 -4190 0
-3611 4054 0
3611 -4054 0
-3613 4201 0
3613 -4201 0
-3615 4060 0
3615 -4060 0
-3617 4056 0
3617 -4056 0
3779 4108 0
-3779 -4108 0
3776 4153 0
-3776 -4153 0
3785 4019 0
-3785 -4019 0
3782 4152 0
-3782 -4152 0
3791 4154 0
-3791 -4154 0
3788 4084 0
-3788 -4084 0
4110 4084 0
-4110 -4084 0
4106 4151 0
-4106 -4151 0
4107 4153 0
-4107 -4153 0
3922 4108 0
-3922 -4108 0
3797 4118 0
-3797 -4118 0
3794 4171 0
-3794 -4171 0
3803 4031 0
-3803 -4031 0
3800 4170 0
-3800 -4170 0
3809 4172 0
-3809 -4172 0
3806 4217 0
-3806 -4217 0
4120 4217 0
-4120 -4217 0
4116 4169 0
-4116 -4169 0
4117 4171 0
-4117 -4171 0
3936 4118 0
-3936 -4118 0
3815 4128 0
-3815 -4128 0
3812 4189 0
-3812 -4189 0
3821 4043 0
-3821 -4043 0
3818 4188 0
-3818 -4188 0
3827 4190 0
-3827 -4190 0
3824 4219 0
-3824 -4219 0
4130 4219 0
-4130 -4219 0
4126 4187 0
-4126 -4187 0
4127 4189 0
-4127 -4189 0
3950 4128 0
-3950 -4128 0
3833 4055 0
-3833 -4055 0
3830 4060 0
-3830 -4060 0
3839 4056 0
-3839 -4056 0
3836 4221 0
-3836 -4221 0
4135 4201 0
-4135 -4201 0
3975 4060 0
-3975 -4060 0
4051 4134 0
-4051 -4134 0
4059 4055 0
-4059 -4055 0
4138 4084 0
-4138 -4084 0
4139 4154 0
-4139 -4154 0
4141 4152 0
-4141 -4152 0
4144 4153 0
-4144 -4153 0
4149 4151 0
-4149 -4151 0
4062 4142 0
-4062 -4142 0
4156 4084 0
-4156 -4084 0
4157 4172 0
-4157 -4172 0
4159 4170 0
-4159 -4170 0
4162 4171 0
-4162 -4171 0
4167 4169 0
-4167 -4169 0
4068 4160 0
-4068 -4160 0
4174 4084 0
-4174 -4084 0
4175 4190 0
-4175 -4190 0
4177 4188 0
-4177 -4188 0
4180 4189 0
-4180 -4189 0
4185 4187 0
-4185 -4187 0
4074 4178 0
-4074 -4178 0
4192 4084 0
-4192 -4084 0
4193 4056 0
-4193 -4056 0
4195 4060 0
-4195 -4060 0
4198 4201 0
-4198 -4201 0
4203 4054 0
-4203 -4054 0
4080 4196 0
-4080 -4196 0
3981 4140 0
-3981 -4140 0
3978 4143 0
-3978 -4143 0
3982 3747 0
-3982 -3747 0
3979 3749 0
-3979 -3749 0
3987 3861 0
-3987 -3861 0
3984 3864 0
-3984 -3864 0
3988 3755 0
-3988 -3755 0
3985 3757 0
-3985 -3757 0
3993 3873 0
-3993 -3873 0
3990 3876 0
-3990 -3876 0
3994 3763 0
-3994 -3763 0
3991 3765 0
-3991 -3765 0
3999 3885 0
-3999 -3885 0
3996 3888 0
-3996 -3888 0
4000 3771 0
-4000 -3771 0
3997 3773 0
-3997 -3773 0
-3926 4108 0
-3926 3776 0
3926 -4108 -3776 0
-3927 4153 0
-3927 3779 0
3927 -4153 -3779 0
-4102 4019 0
-4102 3782 0
4102 -4019 -3782 0
-4103 4152 0
-4103 3785 0
4103 -4152 -3785 0
-3929 4154 0
-3929 3788 0
3929 -4154 -3788 0
-3930 4084 0
-3930 3791 0
3930 -4084 -3791 0
-3940 4118 0
-3940 3794 0
3940 -4118 -3794 0
-3941 4171 0
-3941 3797 0
3941 -4171 -3797 0
-4112 4031 0
-4112 3800 0
4112 -4031 -3800 0
-4113 4170 0
-4113 3803 0
4113 -4170 -3803 0
-3943 4172 0
-3943 3806 0
3943 -4172 -3806 0
-3944 4217 0
-3944 3809 0
3944 -4217 -3809 0
-3954 4128 0
-3954 3812 0
3954 -4128 -3812 0
-3955 4189 0
-3955 3815 0
3955 -4189 -3815 0
-4122 4043 0
-4122 3818 0
4122 -4043 -3818 0
-4123 4188 0
-4123 3821 0
4123 -4188 -3821 0
-3957 4190 0
-3957 3824 0
3957 -4190 -3824 0
-3958 4219 0
-3958 3827 0
3958 -4219 -3827 0
-4132 4055 0
-4132 3830 0
4132 -4055 -3830 0
-4133 4060 0
-4133 3833 0
4133 -4060 -3833 0
-3971 4056 0
-3971 3836 0
3971 -4056 -3836 0
-3972 4221 0
-3972 3839 0
3972 -4221 -3839 0
-4136 4059 0
-4136 4060 0
4136 -4059 -4060 0
4217 4011 0
4217 4013 0
-4217 -4011 -4013 0
4219 -3926 0
4219 -3927 0
-4219 3926 3927 0
-4221 -4102 0
-4221 -4103 0
4221 4102 4103 0
-3880 4150 0
-3880 4168 0
3880 -4150 -4168 0
-3892 3880 0
-3892 4186 0
3892 -3880 -4186 0
-3901 4150 0
-3901 4155 0
3901 -4150 -4155 0
-3861 4150 0
-3861 4158 0
3861 -4150 -4158 0
-3864 4150 0
-3864 4161 0
3864 -4150 -4161 0
-3910 4150 0
-3910 4164 0
3910 -4150 -4164 0
-3907 3880 0
-3907 4173 0
3907 -3880 -4173 0
-3873 3880 0
-3873 4176 0
3873 -3880 -4176 0
-3876 3880 0
-3876 4179 0
3876 -3880 -4179 0
-3916 3880 0
-3916 4182 0
3916 -3880 -4182 0
-3913 3892 0
-3913 4191 0
3913 -3892 -4191 0
-3885 3892 0
-3885 4194 0
3885 -3892 -4194 0
-3888 3892 0
-3888 4197 0
3888 -3892 -4197 0
-3919 3892 0
-3919 4200 0
3919 -3892 -4200 0
-4205 4137 0
-4205 3896 0
4205 -4137 -3896 0
-4206 4084 0
-4206 3899 0
4206 -4084 -3899 0
-4208 3901 0
-4208 3902 0
4208 -3901 -3902 0
-4209 4146 0
-4209 3905 0
4209 -4146 -3905 0
-4211 3907 0
-4211 3908 0
4211 -3907 -3908 0
-4212 3910 0
-4212 3911 0
4212 -3910 -3911 0
-4214 3913 0
-4214 3914 0
4214 -3913 -3914 0
-4215 3916 0
-4215 3917 0
4215 -3916 -3917 0
-3918 3919 0
-3918 3920 0
3918 -3919 -3920 0
4011 -3922 0
4011 -4151 0
4011 -4107 0
-4011 3922 4151 4107 0
4223 -3929 0
4223 -3930 0
-4223 3929 3930 0
4014 -4109 0
4014 -4107 0
4014 -4110 0
-4014 4109 4107 4110 0
4023 -3936 0
4023 -4169 0
4023 -4117 0
-4023 3936 4169 4117 0
4227 -3940 0
4227 -3941 0
-4227 3940 3941 0
4231 -3943 0
4231 -3944 0
-4231 3943 3944 0
4026 -4119 0
4026 -4117 0
4026 -4120 0
-4026 4119 4117 4120 0
4035 -3950 0
4035 -4187 0
4035 -4127 0
-4035 3950 4187 4127 0
4235 -3954 0
4235 -3955 0
-4235 3954 3955 0
4239 -3957 0
4239 -3958 0
-4239 3957 3958 0
4038 -4129 0
4038 -4127 0
4038 -4130 0
-4038 4129 4127 4130 0
4047 -4058 0
4047 -4054 0
4047 -4135 0
-4047 4058 4054 4135 0
4050 -4058 0
4050 -4201 0
-4050 4058 4201 0
4247 -3971 0
4247 -3972 0
-4247 3971 3972 0
4053 -4055 0
4053 -3975 0
4053 -4135 0
-4053 4055 3975 4135 0
4086 -3978 0
4086 -3979 0
-4086 3978 3979 0
4087 -3981 0
4087 -3982 0
-4087 3981 3982 0
4090 -3984 0
4090 -3985 0
-4090 3984 3985 0
4091 -3987 0
4091 -3988 0
-4091 3987 3988 0
4094 -3990 0
4094 -3991 0
-4094 3990 3991 0
4095 -3993 0
4095 -3994 0
-4095 3993 3994 0
4098 -3996 0
4098 -3997 0
-4098 3996 3997 0
4099 -3999 0
4099 -4000 0
-4099 3999 4000 0
4005 -4085 0
4005 -4089 0
-4005 4085 4089 0
4008 -4005 0
4008 -4093 0
-4008 4005 4093 0
4007 -4008 0
4007 -4097 0
-4007 4008 4097 0
4013 4014 0
4013 4151 0
-4013 -4014 -4151 0
4109 4154 0
4109 4152 0
-4109 -4154 -4152 0
4019 4154 0
4019 4084 0
-4019 -4154 -4084 0
4225 4023 0
4225 4025 0
-4225 -4023 -4025 0
4025 4026 0
4025 4169 0
-4025 -4026 -4169 0
4119 4172 0
4119 4170 0
-4119 -4172 -4170 0
4031 4172 0
4031 4217 0
-4031 -4172 -4217 0
4233 4035 0
4233 4037 0
-4233 -4035 -4037 0
4037 4038 0
4037 4187 0
-4037 -4038 -4187 0
4129 4190 0
4129 4188 0
-4129 -4190 -4188 0
4043 4190 0
4043 4219 0
-4043 -4190 -4219 0
4241 4047 0
4241 4052 0
-4241 -4047 -4052 0
4243 4050 0
4243 4051 0
-4243 -4050 -4051 0
4052 4053 0
4052 4054 0
-4052 -4053 -4054 0
4055 4056 0
4055 4221 0
-4055 -4056 -4221 0
4058 4059 0
4058 4060 0
-4058 -4059 -4060 0
4148 4062 0
4148 4141 0
-4148 -4062 -4141 0
4142 4139 0
4142 4084 0
-4142 -4139 -4084 0
4166 4068 0
4166 4159 0
-4166 -4068 -4159 0
4160 4157 0
4160 4084 0
-4160 -4157 -4084 0
4184 4074 0
4184 4177 0
-4184 -4074 -4177 0
4178 4175 0
4178 4084 0
-4178 -4175 -4084 0
4202 4080 0
4202 4195 0
-4202 -4080 -4195 0
4196 4193 0
4196 4084 0
-4196 -4193 -4084 0
4085 4086 0
4085 4087 0
4085 4204 0
-4085 -4086 -4087 -4204 0
4089 4090 0
4089 4091 0
4089 4207 0
-4089 -4090 -4091 -4207 0
4093 4094 0
4093 4095 0
4093 4210 0
-4093 -4094 -4095 -4210 0
4097 4098 0
4097 4099 0
4097 4213 0
-4097 -4098 -4099 -4213 0
-4104 -4109 0
-4104 -4106 0
-4104 -4107 0
4104 4109 4106 4107 0
-4108 -4109 0
-4108 -4110 0
4108 4109 4110 0
-4229 -4112 0
-4229 -4113 0
4229 4112 4113 0
-4114 -4119 0
-4114 -4116 0
-4114 -4117 0
4114 4119 4116 4117 0
-4118 -4119 0
-4118 -4120 0
4118 4119 4120 0
-4237 -4122 0
-4237 -4123 0
4237 4122 4123 0
-4124 -4129 0
-4124 -4126 0
-4124 -4127 0
4124 4129 4126 4127 0
-4128 -4129 0
-4128 -4130 0
4128 4129 4130 0
-4245 -4132 0
-4245 -4133 0
4245 4132 4133 0
-4134 -4135 0
-4134 -4136 0
4134 4135 4136 0
-4137 -4138 0
-4137 -4139 0
4137 4138 4139 0
-4140 -4141 0
-4140 -4142 0
4140 4141 4142 0
-4143 -4144 0
-4143 -4148 0
4143 4144 4148 0
-4146 -4153 0
-4146 -4148 0
-4146 -4149 0
4146 4153 4148 4149 0
-4150 -4151 0
-4150 -4152 0
-4150 -4153 0
-4150 -4154 0
4150 4151 4152 4153 4154 0
-4155 -4156 0
-4155 -4157 0
4155 4156 4157 0
-4158 -4159 0
-4158 -4160 0
4158 4159 4160 0
-4161 -4162 0
-4161 -4166 0
4161 4162 4166 0
-4164 -4171 0
-4164 -4166 0
-4164 -4167 0
4164 4171 4166 4167 0
-4168 -4169 0
-4168 -4170 0
-4168 -4171 0
-4168 -4172 0
4168 4169 4170 4171 4172 0
-4173 -4174 0
-4173 -4175 0
4173 4174 4175 0
-4176 -4177 0
-4176 -4178 0
4176 4177 4178 0
-4179 -4180 0
-4179 -4184 0
4179 4180 4184 0
-4182 -4189 0
-4182 -4184 0
-4182 -4185 0
4182 4189 4184 4185 0
-4186 -4187 0
-4186 -4188 0
-4186 -4189 0
-4186 -4190 0
4186 4187 4188 4189 4190 0
-4191 -4192 0
-4191 -4193 0
4191 4192 4193 0
-4194 -4195 0
-4194 -4196 0
4194 4195 4196 0
-4197 -4198 0
-4197 -4202 0
4197 4198 4202 0
-4200 -4201 0
-4200 -4202 0
-4200 -4203 0
4200 4201 4202 4203 0
-4204 -4205 0
-4204 -4206 0
4204 4205 4206 0
-4207 -4208 0
-4207 -4209 0
4207 4208 4209 0
-4210 -4211 0
-4210 -4212 0
4210 4211 4212 0
-4213 -4214 0
-4213 -4215 0
4213 4214 4215 0
-4217 4781 0
4217 -4781 0
-4219 4783 0
4219 -4783 0
-4221 4782 0
4221 -4782 0
-4223 4784 0
4223 -4784 0
-4225 4799 0
4225 -4799 0
-4227 4801 0
4227 -4801 0
-4229 4800 0
4229 -4800 0
-4231 4802 0
4231 -4802 0
-4233 4817 0
4233 -4817 0
-4235 4819 0
4235 -4819 0
-4237 4818 0
4237 -4818 0
-4239 4820 0
4239 -4820 0
-4241 4684 0
4241 -4684 0
-4243 4831 0
4243 -4831 0
-4245 4690 0
4245 -4690 0
-4247 4686 0
4247 -4686 0
4409 4738 0
-4409 -4738 0
4406 4783 0
-4406 -4783 0
4415 4649 0
-4415 -4649 0
4412 4782 0
-4412 -4782 0
4421 4784 0
-4421 -4784 0
4418 4714 0
-4418 -4714 0
4740 4714 0
-4740 -4714 0
4736 4781 0
-4736 -4781 0
4737 4783 0
-4737 -4783 0
4552 4738 0
-4552 -4738 0
4427 4748 0
-4427 -4748 0
4424 4801 0
-4424 -4801 0
4433 4661 0
-4433 -4661 0
4430 4800 0
-4430 -4800 0
4439 4802 0
-4439 -4802 0
4436 4847 0
-4436 -4847 0
4750 4847 0
-4750 -4847 0
4746 4799 0
-4746 -4799 0
4747 4801 0
-4747 -4801 0
4566 4748 0
-4566 -4748 0
4445 4758 0
-4445 -4758 0
4442 4819 0
-4442 -4819 0
4451 4673 0
-4451 -4673 0
4448 4818 0
-4448 -4818 0
4457 4820 0
-4457 -4820 0
4454 4849 0
-4454 -4849 0
4760 4849 0
-4760 -4849 0
4756 4817 0
-4756 -4817 0
4757 4819 0
-4757 -4819 0
4580 4758 0
-4580 -4758 0
4463 4685 0
-4463 -4685 0
4460 4690 0
-4460 -4690 0
4469 4686 0
-4469 -4686 0
4466 4851 0
-4466 -4851 0
4765 4831 0
-4765 -4831 0
4605 4690 0
-4605 -4690 0
4681 4764 0
-4681 -4764 0
4689 4685 0
-4689 -4685 0
4768 4714 0
-4768 -4714 0
4769 4784 0
-4769 -4784 0
4771 4782 0
-4771 -4782 0
4774 4783 0
-4774 -4783 0
4779 4781 0
-4779 -4781 0
4692 4772 0
-4692 -4772 0
4786 4714 0
-4786 -4714 0
4787 4802 0
-4787 -4802 0
4789 4800 0
-4789 -4800 0
4792 4801 0
-4792 -4801 0
4797 4799 0
-4797 -4799 0
4698 4790 0
-4698 -4790 0
4804 4714 0
-4804 -4714 0
4805 4820 0
-4805 -4820 0
4807 4818 0
-4807 -4818 0
4810 4819 0
-4810 -4819 0
4815 4817 0
-4815 -4817 0
4704 4808 0
-4704 -4808 0
4822 4714 0
-4822 -4714 0
4823 4686 0
-4823 -4686 0
4825 4690 0
-4825 -4690 0
4828 4831 0
-4828 -4831 0
4833 4684 0
-4833 -4684 0
4710 4826 0
-4710 -4826 0
4611 4770 0
-4611 -4770 0
4608 4773 0
-4608 -4773 0
4612 4377 0
-4612 -4377 0
4609 4379 0
-4609 -4379 0
4617 4491 0
-4617 -4491 0
4614 4494 0
-4614 -4494 0
4618 4385 0
-4618 -4385 0
4615 4387 0
-4615 -4387 0
4623 4503 0
-4623 -4503 0
4620 4506 0
-4620 -4506 0
4624 4393 0
-4624 -4393 0
4621 4395 0
-4621 -4395 0
4629 4515 0
-4629 -4515 0
4626 4518 0
-4626 -4518 0
4630 4401 0
-4630 -4401 0
4627 4403 0
-4627 -4403 0
-4556 4738 0
-4556 4406 0
4556 -4738 -4406 0
-4557 4783 0
-4557 4409 0
4557 -4783 -4409 0
-4732 4649 0
-4732 4412 0
4732 -4649 -4412 0
-4733 4782 0
-4733 4415 0
4733 -4782 -4415 0
-4559 4784 0
-4559 4418 0
4559 -4784 -4418 0
-4560 4714 0
-4560 4421 0
4560 -4714 -4421 0
-4570 4748 0
-4570 4424 0
4570 -4748 -4424 0
-4571 4801 0
-4571 4427 0
4571 -4801 -4427 0
-4742 4661 0
-4742 4430 0
4742 -4661 -4430 0
-4743 4800 0
-4743 4433 0
4743 -4800 -4433 0
-4573 4802 0
-4573 4436 0
4573 -4802 -4436 0
-4574 4847 0
-4574 4439 0
4574 -4847 -4439 0
-4584 4758 0
-4584 4442 0
4584 -4758 -4442 0
-4585 4819 0
-4585 4445 0
4585 -4819 -4445 0
-4752 4673 0
-4752 4448 0
4752 -4673 -4448 0
-4753 4818 0
-4753 4451 0
4753 -4818 -4451 0
-4587 4820 0
-4587 4454 0
4587 -4820 -4454 0
-4588 4849 0
-4588 4457 0
4588 -4849 -4457 0
-4762 4685 0
-4762 4460 0
4762 -4685 -4460 0
-4763 4690 0
-4763 4463 0
4763 -4690 -4463 0
-4601 4686 0
-4601 4466 0
4601 -4686 -4466 0
-4602 4851 0
-4602 4469 0
4602 -4851 -4469 0
-4766 4689 0
-4766 4690 0
4766 -4689 -4690 0
4847 4641 0
4847 4643 0
-4847 -4641 -4643 0
4849 -4556 0
4849 -4557 0
-4849 4556 4557 0
-4851 -4732 0
-4851 -4733 0
4851 4732 4733 0
-4510 4780 0
-4510 4798 0
4510 -4780 -4798 0
-4522 4510 0
-4522 4816 0
4522 -4510 -4816 0
-4531 4780 0
-4531 4785 0
4531 -4780 -4785 0
-4491 4780 0
-4491 4788 0
4491 -4780 -4788 0
-4494 4780 0
-4494 4791 0
4494 -4780 -4791 0
-4540 4780 0
-4540 4794 0
4540 -4780 -4794 0
-4537 4510 0
-4537 4803 0
4537 -4510 -4803 0
-4503 4510 0
-4503 4806 0
4503 -4510 -4806 0
-4506 4510 0
-4506 4809 0
4506 -4510 -4809 0
-4546 4510 0
-4546 4812 0
4546 -4510 -4812 0
-4543 4522 0
-4543 4821 0
4543 -4522 -4821 0
-4515 4522 0
-4515 4824 0
4515 -4522 -4824 0
-4518 4522 0
-4518 4827 0
4518 -4522 -4827 0
-4549 4522 0
-4549 4830 0
4549 -4522 -4830 0
-4835 4767 0
-4835 4526 0
4835 -4767 -4526 0
-4836 4714 0
-4836 4529 0
4836 -4714 -4529 0
-4838 4531 0
-4838 4532 0
4838 -4531 -4532 0
-4839 4776 0
-4839 4535 0
4839 -4776 -4535 0
-4841 4537 0
-4841 4538 0
4841 -4537 -4538 0
-4842 4540 0
-4842 4541 0
4842 -4540 -4541 0
-4844 4543 0
-4844 4544 0
4844 -4543 -4544 0
-4845 4546 0
-4845 4547 0
4845 -4546 -4547 0
-4548 4549 0
-4548 4550 0
4548 -4549 -4550 0
4641 -4552 0
4641 -4781 0
4641 -4737 0
-4641 4552 4781 4737 0
4853 -4559 0
4853 -4560 0
-4853 4559 4560 0
4644 -4739 0
4644 -4737 0
4644 -4740 0
-4644 4739 4737 4740 0
4653 -4566 0
4653 -4799 0
4653 -4747 0
-4653 4566 4799 4747 0
4857 -4570 0
4857 -4571 0
-4857 4570 4571 0
4861 -4573 0
4861 -4574 0
-4861 4573 4574 0
4656 -4749 0
4656 -4747 0
4656 -4750 0
-4656 4749 4747 4750 0
4665 -4580 0
4665 -4817 0
4665 -4757 0
-4665 4580 4817 4757 0
4865 -4584 0
4865 -4585 0
-4865 4584 4585 0
4869 -4587 0
4869 -4588 0
-4869 4587 4588 0
4668 -4759 0
4668 -4757 0
4668 -4760 0
-4668 4759 4757 4760 0
4677 -4688 0
4677 -4684 0
4677 -4765 0
-4677 4688 4684 4765 0
4680 -4688 0
4680 -4831 0
-4680 4688 4831 0
4877 -4601 0
4877 -4602 0
-4877 4601 4602 0
4683 -4685 0
4683 -4605 0
4683 -4765 0
-4683 4685 4605 4765 0
4716 -4608 0
4716 -4609 0
-4716 4608 4609 0
4717 -4611 0
4717 -4612 0
-4717 4611 4612 0
4720 -4614 0
4720 -4615 0
-4720 4614 4615 0
4721 -4617 0
4721 -4618 0
-4721 4617 4618 0
4724 -4620 0
4724 -4621 0
-4724 4620 4621 0
4725 -4623 0
4725 -4624 0
-4725 4623 4624 0
4728 -4626 0
4728 -4627 0
-4728 4626 4627 0
4729 -4629 0
4729 -4630 0
-4729 4629 4630 0
4635 -4715 0
4635 -4719 0
-4635 4715 4719 0
4638 -4635 0
4638 -4723 0
-4638 4635 4723 0
4637 -4638 0
4637 -4727 0
-4637 4638 4727 0
4643 4644 0
4643 4781 0
-4643 -4644 -4781 0
4739 4784 0
4739 4782 0
-4739 -4784 -4782 0
4649 4784 0
4649 4714 0
-4649 -4784 -4714 0
4855 4653 0
4855 4655 0
-4855 -4653 -4655 0
4655 4656 0
4655 4799 0
-4655 -4656 -4799 0
4749 4802 0
4749 4800 0
-4749 -4802 -4800 0
4661 4802 0
4661 4847 0
-4661 -4802 -4847 0
4863 4665 0
4863 4667 0
-4863 -4665 -4667 0
4667 4668 0
4667 4817 0
-4667 -4668 -4817 0
4759 4820 0
4759 4818 0
-4759 -4820 -4818 0
4673 4820 0
4673 4849 0
-4673 -4820 -4849 0
4871 4677 0
4871 4682 0
-4871 -4677 -4682 0
4873 4680 0
4873 4681 0
-4873 -4680 -4681 0
4682 4683 0
4682 4684 0
-4682 -4683 -4684 0
4685 4686 0
4685 4851 0
-4685 -4686 -4851 0
4688 4689 0
4688 4690 0
-4688 -4689 -4690 0
4778 4692 0
4778 4771 0
-4778 -4692 -4771 0
4772 4769 0
4772 4714 0
-4772 -4769 -4714 0
4796 4698 0
4796 4789 0
-4796 -4698 -4789 0
4790 4787 0
4790 4714 0
-4790 -4787 -4714 0
4814 4704 0
4814 4807 0
-4814 -4704 -4807 0
4808 4805 0
4808 4714 0
-4808 -4805 -4714 0
4832 4710 0
4832 4825 0
-4832 -4710 -4825 0
4826 4823 0
4826 4714 0
-4826 -4823 -4714 0
4715 4716 0
4715 4717 0
4715 4834 0
-4715 -4716 -4717 -4834 0
4719 4720 0
4719 4721 0
4719 4837 0
-4719 -4720 -4721 -4837 0
4723 4724 0
4723 4725 0
4723 4840 0
-4723 -4724 -4725 -4840 0
4727 4728 0
4727 4729 0
4727 4843 0
-4727 -4728 -4729 -4843 0
-4734 -4739 0
-4734 -4736 0
-4734 -4737 0
4734 4739 4736 4737 0
-4738 -4739 0
-4738 -4740 0
4738 4739 4740 0
-4859 -4742 0
-4859 -4743 0
4859 4742 4743 0
-4744 -4749 0
-4744 -4746 0
-4744 -4747 0
4744 4749 4746 4747 0
-4748 -4749 0
-4748 -4750 0
4748 4749 4750 0
-4867 -4752 0
-4867 -4753 0
4867 4752 4753 0
-4754 -4759 0
-4754 -4756 0
-4754 -4757 0
4754 4759 4756 4757 0
-4758 -4759 0
-4758 -4760 0
4758 4759 4760 0
-4875 -4762 0
-4875 -4763 0
4875 4762 4763 0
-4764 -4765 0
-4764 -4766 0
4764 4765 4766 0
-4767 -4768 0
-4767 -4769 0
4767 4768 4769 0
-4770 -4771 0
-4770 -4772 0
4770 4771 4772 0
-4773 -4774 0
-4773 -4778 0
4773 4774 4778 0
-4776 -4783 0
-4776 -4778 0
-4776 -4779 0
4776 4783 4778 4779 0
-4780 -4781 0
-4780 -4782 0
-4780 -4783 0
-4780 -4784 0
4780 4781 4782 4783 4784 0
-4785 -4786 0
-4785 -4787 0
4785 4786 4787 0
-4788 -4789 0
-4788 -4790 0
4788 4789 4790 0
-4791 -4792 0
-4791 -4796 0
4791 4792 4796 0
-4794 -4801 0
-4794 -4796 0
-4794 -4797 0
4794 4801 4796 4797 0
-4798 -4799 0
-4798 -4800 0
-4798 -4801 0
-4798 -4802 0
4798 4799 4800 4801 4802 0
-4803 -4804 0
-4803 -4805 0
4803 4804 4805 0
-4806 -4807 0
-4806 -4808 0
4806 4807 4808 0
-4809 -4810 0
-4809 -4814 0
4809 4810 4814 0
-4812 -4819 0
-4812 -4814 0
-4812 -4815 0
4812 4819 4814 4815 0
-4816 -4817 0
-4816 -4818 0
-4816 -4819 0
-4816 -4820 0
4816 4817 4818 4819 4820 0
-4821 -4822 0
-4821 -4823 0
4821 4822 4823 0
-4824 -4825 0
-4824 -4826 0
4824 4825 4826 0
-4827 -4828 0
-4827 -4832 0
4827 4828 4832 0
-4830 -4831 0
-4830 -4832 0
-4830 -4833 0
4830 4831 4832 4833 0
-4834 -4835 0
-4834 -4836 0
4834 4835 4836 0
-4837 -4838 0
-4837 -4839 0
4837 4838 4839 0
-4840 -4841 0
-4840 -4842 0
4840 4841 4842 0
-4843 -4844 0
-4843 -4845 0
4843 4844 4845 0
-4847 5411 0
4847 -5411 0
-4849 5413 0
4849 -5413 0
-4851 5412 0
4851 -5412 0
-4853 5414 0
4853 -5414 0
-4855 5429 0
4855 -5429 0
-4857 5431 0
4857 -5431 0
-4859 5430 0
4859 -5430 0
-4861 5432 0
4861 -5432 0
-4863 5447 0
4863 -5447 0
-4865 5449 0
4865 -5449 0
-4867 5448 0
4867 -5448 0
-4869 5450 0
4869 -5450 0
-4871 5314 0
4871 -5314 0
-4873 5461 0
4873 -5461 0
-4875 5320 0
4875 -5320 0
-4877 5316 0
4877 -5316 0
5039 5368 0
-5039 -5368 0
5036 5413 0
-5036 -5413 0
5045 5279 0
-5045 -5279 0
5042 5412 0
-5042 -5412 0
5051 5414 0
-5051 -5414 0
5048 5344 0
-5048 -5344 0
5370 5344 0
-5370 -5344 0
5366 5411 0
-5366 -5411 0
5367 5413 0
-5367 -5413 0
5182 5368 0
-5182 -5368 0
5057 5378 0
-5057 -5378 0
5054 5431 0
-5054 -5431 0
5063 5291 0
-5063 -5291 0
5060 5430 0
-5060 -5430 0
5069 5432 0
-5069 -5432 0
5066 5477 0
-5066 -5477 0
5380 5477 0
-5380 -5477 0
5376 5429 0
-5376 -5429 0
5377 5431 0
-5377 -5431 0
5196 5378 0
-5196 -5378 0
5075 5388 0
-5075 -5388 0
5072 5449 0
-5072 -5449 0
5081 5303 0
-5081 -5303 0
5078 5448 0
-5078 -5448 0
5087 5450 0
-5087 -5450 0
5084 5479 0
-5084 -5479 0
5390 5479 0
-5390 -5479 0
5386 5447 0
-5386 -5447 0
5387 5449 0
-5387 -5449 0
5210 5388 0
-5210 -5388 0
5093 5315 0
-5093 -5315 0
5090 5320 0
-5090 -5320 0
5099 5316 0
-5099 -5316 0
5096 5481 0
-5096 -5481 0
5395 5461 0
-5395 -5461 0
5235 5320 0
-5235 -5320 0
5311 5394 0
-5311 -5394 0
5319 5315 0
-5319 -5315 0
5398 5344 0
-5398 -5344 0
5399 5414 0
-5399 -5414 0
5401 5412 0
-5401 -5412 0
5404 5413 0
-5404 -5413 0
5409 5411 0
-5409 -5411 0
5322 5402 0
-5322 -5402 0
5416 5344 0
-5416 -5344 0
5417 5432 0
-5417 -5432 0
5419 5430 0
-5419 -5430 0
5422 5431 0
-5422 -5431 0
5427 5429 0
-5427 -5429 0
5328 5420 0
-5328 -5420 0
5434 5344 0
-5434 -5344 0
5435 5450 0
-5435 -5450 0
5437 5448 0
-5437 -5448 0
5440 5449 0
-5440 -5449 0
5445 5447 0
-5445 -5447 0
5334 5438 0
-5334 -5438 0
5452 5344 0
-5452 -5344 0
5453 5316 0
-5453 -5316 0
5455 5320 0
-5455 -5320 0
5458 5461 0
-5458 -5461 0
5463 5314 0
-5463 -5314 0
5340 5456 0
-5340 -5456 0
5241 5400 0
-5241 -5400 0
5238 5403 0
-5238 -5403 0
5242 5007 0
-5242 -5007 0
5239 5009 0
-5239 -5009 0
5247 5121 0
-5247 -5121 0
5244 5124 0
-5244 -5124 0
5248 5015 0
-5248 -5015 0
5245 5017 0
-5245 -5017 0
5253 5133 0
-5253 -5133 0
5250 5136 0
-5250 -5136 0
5254 5023 0
-5254 -5023 0
5251 5025 0
-5251 -5025 0
5259 5145 0
-5259 -5145 0
5256 5148 0
-5256 -5148 0
5260 5031 0
-5260 -5031 0
5257 5033 0
-5257 -5033 0
-5186 5368 0
-5186 5036 0
5186 -5368 -5036 0
-5187 5413 0
-5187 5039 0
5187 -5413 -5039 0
-5362 5279 0
-5362 5042 0
5362 -5279 -5042 0
-5363 5412 0
-5363 5045 0
5363 -5412 -5045 0
-5189 5414 0
-5189 5048 0
5189 -5414 -5048 0
-5190 5344 0
-5190 5051 0
5190 -5344 -5051 0
-5200 5378 0
-5200 5054 0
5200 -5378 -5054 0
-5201 5431 0
-5201 5057 0
5201 -5431 -5057 0
-5372 5291 0
-5372 5060 0
5372 -5291 -5060 0
-5373 5430 0
-5373 5063 0
5373 -5430 -5063 0
-5203 5432 0
-5203 5066 0
5203 -5432 -5066 0
-5204 5477 0
-5204 5069 0
5204 -5477 -5069 0
-5214 5388 0
-5214 5072 0
5214 -5388 -5072 0
-5215 5449 0
-5215 5075 0
5215 -5449 -5075 0
-5382 5303 0
-5382 5078 0
5382 -5303 -5078 0
-5383 5448 0
-5383 5081 0
5383 -5448 -5081 0
-5217 5450 0
-5217 5084 0
5217 -5450 -5084 0
-5218 5479 0
-5218 5087 0
5218 -5479 -5087 0
-5392 5315 0
-5392 5090 0
5392 -5315 -5090 0
-5393 5320 0
-5393 5093 0
5393 -5320 -5093 0
-5231 5316 0
-5231 5096 0
5231 -5316 -5096 0
-5232 5481 0
-5232 5099 0
5232 -5481 -5099 0
-5396 5319 0
-5396 5320 0
5396 -5319 -5320 0
5477 5271 0
5477 5273 0
-5477 -5271 -5273 0
5479 -5186 0
5479 -5187 0
-5479 5186 5187 0
-5481 -5362 0
-5481 -5363 0
5481 5362 5363 0
-5140 5410 0
-5140 5428 0
5140 -5410 -5428 0
-5152 5140 0
-5152 5446 0
5152 -5140 -5446 0
-5161 5410 0
-5161 5415 0
5161 -5410 -5415 0
-5121 5410 0
-5121 5418 0
5121 -5410 -5418 0
-5124 5410 0
-5124 5421 0
5124 -5410 -5421 0
-5170 5410 0
-5170 5424 0
5170 -5410 -5424 0
-5167 5140 0
-5167 5433 0
5167 -5140 -5433 0
-5133 5140 0
-5133 5436 0
5133 -5140 -5436 0
-5136 5140 0
-5136 5439 0
5136 -5140 -5439 0
-5176 5140 0
-5176 5442 0
5176 -5140 -5442 0
-5173 5152 0
-5173 5451 0
5173 -5152 -5451 0
-5145 5152 0
-5145 5454 0
5145 -5152 -5454 0
-5148 5152 0
-5148 5457 0
5148 -5152 -5457 0
-5179 5152 0
-5179 5460 0
5179 -5152 -5460 0
-5465 5397 0
-5465 5156 0
5465 -5397 -5156 0
-5466 5344 0
-5466 5159 0
5466 -5344 -5159 0
-5468 5161 0
-5468 5162 0
5468 -5161 -5162 0
-5469 5406 0
-5469 5165 0
5469 -5406 -5165 0
-5471 5167 0
-5471 5168 0
5471 -5167 -5168 0
-5472 5170 0
-5472 5171 0
5472 -5170 -5171 0
-5474 5173 0
-5474 5174 0
5474 -5173 -5174 0
-5475 5176 0
-5475 5177 0
5475 -5176 -5177 0
-5178 5179 0
-5178 5180 0
5178 -5179 -5180 0
5271 -5182 0
5271 -5411 0
5271 -5367 0
-5271 5182 5411 5367 0
5483 -5189 0
5483 -5190 0
-5483 5189 5190 0
5274 -5369 0
5274 -5367 0
5274 -5370 0
-5274 5369 5367 5370 0
5283 -5196 0
5283 -5429 0
5283 -5377 0
-5283 5196 5429 5377 0
5487 -5200 0
5487 -5201 0
-5487 5200 5201 0
5491 -5203 0
5491 -5204 0
-5491 5203 5204 0
5286 -5379 0
5286 -5377 0
5286 -5380 0
-5286 5379 5377 5380 0
5295 -5210 0
5295 -5447 0
5295 -5387 0
-5295 5210 5447 5387 0
5495 -5214 0
5495 -5215 0
-5495 5214 5215 0
5499 -5217 0
5499 -5218 0
-5499 5217 5218 0
5298 -5389 0
5298 -5387 0
5298 -5390 0
-5298 5389 5387 5390 0
5307 -5318 0
5307 -5314 0
5307 -5395 0
-5307 5318 5314 5395 0
5310 -5318 0
5310 -5461 0
-5310 5318 5461 0
5507 -5231 0
5507 -5232 0
-5507 5231 5232 0
5313 -5315 0
5313 -5235 0
5313 -5395 0
-5313 5315 5235 5395 0
5346 -5238 0
5346 -5239 0
-5346 5238 5239 0
5347 -5241 0
5347 -5242 0
-5347 5241 5242 0
5350 -5244 0
5350 -5245 0
-5350 5244 5245 0
5351 -5247 0
5351 -5248 0
-5351 5247 5248 0
5354 -5250 0
5354 -5251 0
-5354 5250 5251 0
5355 -5253 0
5355 -5254 0
-5355 5253 5254 0
5358 -5256 0
5358 -5257 0
-5358 5256 5257 0
5359 -5259 0
5359 -5260 0
-5359 5259 5260 0
5265 -5345 0
5265 -5349 0
-5265 5345 5349 0
5268 -5265 0
5268 -5353 0
-5268 5265 5353 0
5267 -5268 0
5267 -5357 0
-5267 5268 5357 0
5273 5274 0
5273 5411 0
-5273 -5274 -5411 0
5369 5414 0
5369 5412 0
-5369 -5414 -5412 0
5279 5414 0
5279 5344 0
-5279 -5414 -5344 0
5485 5283 0
5485 5285 0
-5485 -5283 -5285 0
5285 5286 0
5285 5429 0
-5285 -5286 -5429 0
5379 5432 0
5379 5430 0
-5379 -5432 -5430 0
5291 5432 0
5291 5477 0
-5291 -5432 -5477 0
5493 5295 0
5493 5297 0
-5493 -5295 -5297 0
5297 5298 0
5297 5447 0
-5297 -5298 -5447 0
5389 5450 0
5389 5448 0
-5389 -5450 -5448 0
5303 5450 0
5303 5479 0
-5303 -5450 -5479 0
5501 5307 0
5501 5312 0
-5501 -5307 -5312 0
5503 5310 0
5503 5311 0
-5503 -5310 -5311 0
5312 5313 0
5312 5314 0
-5312 -5313 -5314 0
5315 5316 0
5315 5481 0
-5315 -5316 -5481 0
5318 5319 0
5318 5320 0
-5318 -5319 -5320 0
5408 5322 0
5408 5401 0
-5408 -5322 -5401 0
5402 5399 0
5402 5344 0
-5402 -5399 -5344 0
5426 5328 0
5426 5419 0
-5426 -5328 -5419 0
5420 5417 0
5420 5344 0
-5420 -5417 -5344 0
5444 5334 0
5444 5437 0
-5444 -5334 -5437 0
5438 5435 0
5438 5344 0
-5438 -5435 -5344 0
5462 5340 0
5462 5455 0
-5462 -5340 -5455 0
5456 5453 0
5456 5344 0
-5456 -5453 -5344 0
5345 5346 0
5345 5347 0
5345 5464 0
-5345 -5346 -5347 -5464 0
5349 5350 0
5349 5351 0
5349 5467 0
-5349 -5350 -5351 -5467 0
5353 5354 0
5353 5355 0
5353 5470 0
-5353 -5354 -5355 -5470 0
5357 5358 0
5357 5359 0
5357 5473 0
-5357 -5358 -5359 -5473 0
-5364 -5369 0
-5364 -5366 0
-5364 -5367 0
5364 5369 5366 5367 0
-5368 -5369 0
-5368 -5370 0
5368 5369 5370 0
-5489 -5372 0
-5489 -5373 0
5489 5372 5373 0
-5374 -5379 0
-5374 -5376 0
-5374 -5377 0
5374 5379 5376 5377 0
-5378 -5379 0
-5378 -5380 0
5378 5379 5380 0
-5497 -5382 0
-5497 -5383 0
5497 5382 5383 0
-5384 -5389 0
-5384 -5386 0
-5384 -5387 0
5384 5389 5386 5387 0
-5388 -5389 0
-5388 -5390 0
5388 5389 5390 0
-5505 -5392 0
-5505 -5393 0
5505 5392 5393 0
-5394 -5395 0
-5394 -5396 0
5394 5395 5396 0
-5397 -5398 0
-5397 -5399 0
5397 5398 5399 0
-5400 -5401 0
-5400 -5402 0
5400 5401 5402 0
-5403 -5404 0
-5403 -5408 0
5403 5404 5408 0
-5406 -5413 0
-5406 -5408 0
-5406 -5409 0
5406 5413 5408 5409 0
-5410 -5411 0
-5410 -5412 0
-5410 -5413 0
-5410 -5414 0
5410 5411 5412 5413 5414 0
-5415 -5416 0
-5415 -5417 0
5415 5416 5417 0
-5418 -5419 0
-5418 -5420 0
5418 5419 5420 0
-5421 -5422 0
-5421 -5426 0
5421 5422 5426 0
-5424 -5431 0
-5424 -5426 0
-5424 -5427 0
5424 5431 5426 5427 0
-5428 -5429 0
-5428 -5430 0
-5428 -5431 0
-5428 -5432 0
5428 5429 5430 5431 5432 0
-5433 -5434 0
-5433 -5435 0
5433 5434 5435 0
-5436 -5437 0
-5436 -5438 0
5436 5437 5438 0
-5439 -5440 0
-5439 -5444 0
5439 5440 5444 0
-5442 -5449 0
-5442 -5444 0
-5442 -5445 0
5442 5449 5444 5445 0
-5446 -5447 0
-5446 -5448 0
-5446 -5449 0
-5446 -5450 0
5446 5447 5448 5449 5450 0
-5451 -5452 0
-5451 -5453 0
5451 5452 5453 0
-5454 -5455 0
-5454 -5456 0
5454 5455 5456 0
-5457 -5458 0
-5457 -5462 0
5457 5458 5462 0
-5460 -5461 0
-5460 -5462 0
-5460 -5463 0
5460 5461 5462 5463 0
-5464 -5465 0
-5464 -5466 0
5464 5465 5466 0
-5467 -5468 0
-5467 -5469 0
5467 5468 5469 0
-5470 -5471 0
-5470 -5472 0
5470 5471 5472 0
-5473 -5474 0
-5473 -5475 0
5473 5474 5475 0
-5477 6041 0
5477 -6041 0
-5479 6043 0
5479 -6043 0
-5481 6042 0
5481 -6042 0
-5483 6044 0
5483 -6044 0
-5485 6059 0
5485 -6059 0
-5487 6061 0
5487 -6061 0
-5489 6060 0
5489 -6060 0
-5491 6062 0
5491 -6062 0
-5493 6077 0
5493 -6077 0
-5495 6079 0
5495 -6079 0
-5497 6078 0
5497 -6078 0
-5499 6080 0
5499 -6080 0
-5501 5944 0
5501 -5944 0
-5503 6091 0
5503 -6091 0
-5505 5950 0
5505 -5950 0
-5507 5946 0
5507 -5946 0
5669 5998 0
-5669 -5998 0
5666 6043 0
-5666 -6043 0
5675 5909 0
-5675 -5909 0
5672 6042 0
-5672 -6042 0
5681 6044 0
-5681 -6044 0
5678 5974 0
-5678 -5974 0
6000 5974 0
-6000 -5974 0
5996 6041 0
-5996 -6041 0
5997 6043 0
-5997 -6043 0
5812 5998 0
-5812 -5998 0
5687 6008 0
-5687 -6008 0
5684 6061 0
-5684 -6061 0
5693 5921 0
-5693 -5921 0
5690 6060 0
-5690 -6060 0
5699 6062 0
-5699 -6062 0
5696 6107 0
-5696 -6107 0
6010 6107 0
-6010 -6107 0
6006 6059 0
-6006 -6059 0
6007 6061 0
-6007 -6061 0
5826 6008 0
-5826 -6008 0
5705 6018 0
-5705 -6018 0
5702 6079 0
-5702 -6079 0
5711 5933 0
-5711 -5933 0
5708 6078 0
-5708 -6078 0
5717 6080 0
-5717 -6080 0
5714 6109 0
-5714 -6109 0
6020 6109 0
-6020 -6109 0
6016 6077 0
-6016 -6077 0
6017 6079 0
-6017 -6079 0
5840 6018 0
-5840 -6018 0
5723 5945 0
-5723 -5945 0
5720 5950 0
-5720 -5950 0
5729 5946 0
-5729 -5946 0
5726 6111 0
-5726 -6111 0
6025 6091 0
-6025 -6091 0
5865 5950 0
-5865 -5950 0
5941 6024 0
-5941 -6024 0
5949 5945 0
-5949 -5945 0
6028 5974 0
-6028 -5974 0
6029 6044 0
-6029 -6044 0
6031 6042 0
-6031 -6042 0
6034 6043 0
-6034 -6043 0
6039 6041 0
-6039 -6041 0
5952 6032 0
-5952 -6032 0
6046 5974 0
-6046 -5974 0
6047 6062 0
-6047 -6062 0
6049 6060 0
-6049 -6060 0
6052 6061 0
-6052 -6061 0
6057 6059 0
-6057 -6059 0
5958 6050 0
-5958 -6050 0
6064 5974 0
-6064 -5974 0
6065 6080 0
-6065 -6080 0
6067 6078 0
-6067 -6078 0
6070 6079 0
-6070 -6079 0
6075 6077 0
-6075 -6077 0
5964 6068 0
-5964 -6068 0
6082 5974 0
-6082 -5974 0
6083 5946 0
-6083 -5946 0
6085 5950 0
-6085 -5950 0
6088 6091 0
-6088 -6091 0
6093 5944 0
-6093 -5944 0
5970 6086 0
-5970 -6086 0
5871 6030 0
-5871 -6030 0
5868 6033 0
-5868 -6033 0
5872 5637 0
-5872 -5637 0
5869 5639 0
-5869 -5639 0
5877 5751 0
-5877 -5751 0
5874 5754 0
-5874 -5754 0
5878 5645 0
-5878 -5645 0
5875 5647 0
-5875 -5647 0
5883 5763 0
-5883 -5763 0
5880 5766 0
-5880 -5766 0
5884 5653 0
-5884 -5653 0
5881 5655 0
-5881 -5655 0
5889 5775 0
-5889 -5775 0
5886 5778 0
-5886 -5778 0
5890 5661 0
-5890 -5661 0
5887 5663 0
-5887 -5663 0
-5816 5998 0
-5816 5666 0
5816 -5998 -5666 0
-5817 6043 0
-5817 5669 0
5817 -6043 -5669 0
-5992 5909 0
-5992 5672 0
5992 -5909 -5672 0
-5993 6042 0
-5993 5675 0
5993 -6042 -5675 0
-5819 6044 0
-5819 5678 0
5819 -6044 -5678 0
-5820 5974 0
-5820 5681 0
5820 -5974 -5681 0
-5830 6008 0
-5830 5684 0
5830 -6008 -5684 0
-5831 6061 0
-5831 5687 0
5831 -6061 -5687 0
-6002 5921 0
-6002 5690 0
6002 -5921 -5690 0
-6003 6060 0
-6003 5693 0
6003 -6060 -5693 0
-5833 6062 0
-5833 5696 0
5833 -6062 -5696 0
-5834 6107 0
-5834 5699 0
5834 -6107 -5699 0
-5844 6018 0
-5844 5702 0
5844 -6018 -5702 0
-5845 6079 0
-5845 5705 0
5845 -6079 -5705 0
-6012 5933 0
-6012 5708 0
6012 -5933 -5708 0
-6013 6078 0
-6013 5711 0
6013 -6078 -5711 0
-5847 6080 0
-5847 5714 0
5847 -6080 -5714 0
-5848 6109 0
-5848 5717 0
5848 -6109 -5717 0
-6022 5945 0
-6022 5720 0
6022 -5945 -5720 0
-6023 5950 0
-6023 5723 0
6023 -5950 -5723 0
-5861 5946 0
-5861 5726 0
5861 -5946 -5726 0
-5862 6111 0
-5862 5729 0
5862 -6111 -5729 0
-6026 5949 0
-6026 5950 0
6026 -5949 -5950 0
6107 5901 0
6107 5903 0
-6107 -5901 -5903 0
6109 -5816 0
6109 -5817 0
-6109 5816 5817 0
-6111 -5992 0
-6111 -5993 0
6111 5992 5993 0
-5770 6040 0
-5770 6058 0
5770 -6040 -6058 0
-5782 5770 0
-5782 6076 0
5782 -5770 -6076 0
-5791 6040 0
-5791 6045 0
5791 -6040 -6045 0
-5751 6040 0
-5751 6048 0
5751 -6040 -6048 0
-5754 6040 0
-5754 6051 0
5754 -6040 -6051 0
-5800 6040 0
-5800 6054 0
5800 -6040 -6054 0
-5797 5770 0
-5797 6063 0
5797 -5770 -6063 0
-5763 5770 0
-5763 6066 0
5763 -5770 -6066 0
-5766 5770 0
-5766 6069 0
5766 -5770 -6069 0
-5806 5770 0
-5806 6072 0
5806 -5770 -6072 0
-5803 5782 0
-5803 6081 0
5803 -5782 -6081 0
-5775 5782 0
-5775 6084 0
5775 -5782 -6084 0
-5778 5782 0
-5778 6087 0
5778 -5782 -6087 0
-5809 5782 0
-5809 6090 0
5809 -5782 -6090 0
-6095 6027 0
-6095 5786 0
6095 -6027 -5786 0
-6096 5974 0
-6096 5789 0
6096 -5974 -5789 0
-6098 5791 0
-6098 5792 0
6098 -5791 -5792 0
-6099 6036 0
-6099 5795 0
6099 -6036 -5795 0
-6101 5797 0
-6101 5798 0
6101 -5797 -5798 0
-6102 5800 0
-6102 5801 0
6102 -5800 -5801 0
-6104 5803 0
-6104 5804 0
6104 -5803 -5804 0
-6105 5806 0
-6105 5807 0
6105 -5806 -5807 0
-5808 5809 0
-5808 5810 0
5808 -5809 -5810 0
5901 -5812 0
5901 -6041 0
5901 -5997 0
-5901 5812 6041 5997 0
6113 -5819 0
6113 -5820 0
-6113 5819 5820 0
5904 -5999 0
5904 -5997 0
5904 -6000 0
-5904 5999 5997 6000 0
5913 -5826 0
5913 -6059 0
5913 -6007 0
-5913 5826 6059 6007 0
6117 -5830 0
6117 -5831 0
-6117 5830 5831 0
6121 -5833 0
6121 -5834 0
-6121 5833 5834 0
5916 -6009 0
5916 -6007 0
5916 -6010 0
-5916 6009 6007 6010 0
5925 -5840 0
5925 -6077 0
5925 -6017 0
-5925 5840 6077 6017 0
6125 -5844 0
6125 -5845 0
-6125 5844 5845 0
6129 -5847 0
6129 -5848 0
-6129 5847 5848 0
5928 -6019 0
5928 -6017 0
5928 -6020 0
-5928 6019 6017 6020 0
5937 -5948 0
5937 -5944 0
5937 -6025 0
-5937 5948 5944 6025 0
5940 -5948 0
5940 -6091 0
-5940 5948 6091 0
6137 -5861 0
6137 -5862 0
-6137 5861 5862 0
5943 -5945 0
5943 -5865 0
5943 -6025 0
-5943 5945 5865 6025 0
5976 -5868 0
5976 -5869 0
-5976 5868 5869 0
5977 -5871 0
5977 -5872 0
-5977 5871 5872 0
5980 -5874 0
5980 -5875 0
-5980 5874 5875 0
5981 -5877 0
5981 -5878 0
-5981 5877 5878 0
5984 -5880 0
5984 -5881 0
-5984 5880 5881 0
5985 -5883 0
5985 -5884 0
-5985 5883 5884 0
5988 -5886 0
5988 -5887 0
-5988 5886 5887 0
5989 -5889 0
5989 -5890 0
-5989 5889 5890 0
5895 -5975 0
5895 -5979 0
-5895 5975 5979 0
5898 -5895 0
5898 -5983 0
-5898 5895 5983 0
5897 -5898 0
5897 -5987 0
-5897 5898 5987 0
5903 5904 0
5903 6041 0
-5903 -5904 -6041 0
5999 6044 0
5999 6042 0
-5999 -6044 -6042 0
5909 6044 0
5909 5974 0
-5909 -6044 -5974 0
6115 5913 0
6115 5915 0
-6115 -5913 -5915 0
5915 5916 0
5915 6059 0
-5915 -5916 -6059 0
6009 6062 0
6009 6060 0
-6009 -6062 -6060 0
5921 6062 0
5921 6107 0
-5921 -6062 -6107 0
6123 5925 0
6123 5927 0
-6123 -5925 -5927 0
5927 5928 0
5927 6077 0
-5927 -5928 -6077 0
6019 6080 0
6019 6078 0
-6019 -6080 -6078 0
5933 6080 0
5933 6109 0
-5933 -6080 -6109 0
6131 5937 0
6131 5942 0
-6131 -5937 -5942 0
6133 5940 0
6133 5941 0
-6133 -5940 -5941 0
5942 5943 0
5942 5944 0
-5942 -5943 -5944 0
5945 5946 0
5945 6111 0
-5945 -5946 -6111 0
5948 5949 0
5948 5950 0
-5948 -5949 -5950 0
6038 5952 0
6038 6031 0
-6038 -5952 -6031 0
6032 6029 0
6032 5974 0
-6032 -6029 -5974 0
6056 5958 0
6056 6049 0
-6056 -5958 -6049 0
6050 6047 0
6050 5974 0
-6050 -6047 -5974 0
6074 5964 0
6074 6067 0
-6074 -5964 -6067 0
6068 6065 0
6068 5974 0
-6068 -6065 -5974 0
6092 5970 0
6092 6085 0
-6092 -5970 -6085 0
6086 6083 0
6086 5974 0
-6086 -6083 -5974 0
5975 5976 0
5975 5977 0
5975 6094 0
-5975 -5976 -5977 -6094 0
5979 5980 0
5979 5981 0
5979 6097 0
-5979 -5980 -5981 -6097 0
5983 5984 0
5983 5985 0
5983 6100 0
-5983 -5984 -5985 -6100 0
5987 5988 0
5987 5989 0
5987 6103 0
-5987 -5988 -5989 -6103 0
-5994 -5999 0
-5994 -5996 0
-5994 -5997 0
5994 5999 5996 5997 0
-5998 -5999 0
-5998 -6000 0
5998 5999 6000 0
-6119 -6002 0
-6119 -6003 0
6119 6002 6003 0
-6004 -6009 0
-6004 -6006 0
-6004 -6007 0
6004 6009 6006 6007 0
-6008 -6009 0
-6008 -6010 0
6008 6009 6010 0
-6127 -6012 0
-6127 -6013 0
6127 6012 6013 0
-6014 -6019 0
-6014 -6016 0
-6014 -6017 0
6014 6019 6016 6017 0
-6018 -6019 0
-6018 -6020 0
6018 6019 6020 0
-6135 -6022 0
-6135 -6023 0
6135 6022 6023 0
-6024 -6025 0
-6024 -6026 0
6024 6025 6026 0
-6027 -6028 0
-6027 -6029 0
6027 6028 6029 0
-6030 -6031 0
-6030 -6032 0
6030 6031 6032 0
-6033 -6034 0
-6033 -6038 0
6033 6034 6038 0
-6036 -6043 0
-6036 -6038 0
-6036 -6039 0
6036 6043 6038 6039 0
-6040 -6041 0
-6040 -6042 0
-6040 -6043 0
-6040 -6044 0
6040 6041 6042 6043 6044 0
-6045 -6046 0
-6045 -6047 0
6045 6046 6047 0
-6048 -6049 0
-6048 -6050 0
6048 6049 6050 0
-6051 -6052 0
-6051 -6056 0
6051 6052 6056 0
-6054 -6061 0
-6054 -6056 0
-6054 -6057 0
6054 6061 6056 6057 0
-6058 -6059 0
-6058 -6060 0
-6058 -6061 0
-6058 -6062 0
6058 6059 6060 6061 6062 0
-6063 -6064 0
-6063 -6065 0
6063 6064 6065 0
-6066 -6067 0
-6066 -6068 0
6066 6067 6068 0
-6069 -6070 0
-6069 -6074 0
6069 6070 6074 0
-6072 -6079 0
-6072 -6074 0
-6072 -6075 0
6072 6079 6074 6075 0
-6076 -6077 0
-6076 -6078 0
-6076 -6079 0
-6076 -6080 0
6076 6077 6078 6079 6080 0
-6081 -6082 0
-6081 -6083 0
6081 6082 6083 0
-6084 -6085 0
-6084 -6086 0
6084 6085 6086 0
-6087 -6088 0
-6087 -6092 0
6087 6088 6092 0
-6090 -6091 0
-6090 -6092 0
-6090 -6093 0
6090 6091 6092 6093 0
-6094 -6095 0
-6094 -6096 0
6094 6095 6096 0
-6097 -6098 0
-6097 -6099 0
6097 6098 6099 0
-6100 -6101 0
-6100 -6102 0
6100 6101 6102 0
-6103 -6104 0
-6103 -6105 0
6103 6104 6105 0
-6107 6671 0
6107 -6671 0
-6109 6673 0
6109 -6673 0
-6111 6672 0
6111 -6672 0
-6113 6674 0
6113 -6674 0
-6115 6689 0
6115 -6689 0
-6117 6691 0
6117 -6691 0
-6119 6690 0
6119 -6690 0
-6121 6692 0
6121 -6692 0
-6123 6707 0
6123 -6707 0
-6125 6709 0
6125 -6709 0
-6127 6708 0
6127 -6708 0
-6129 6710 0
6129 -6710 0
-6131 6574 0
6131 -6574 0
-6133 6721 0
6133 -6721 0
-6135 6580 0
6135 -6580 0
-6137 6576 0
6137 -6576 0
6299 6628 0
-6299 -6628 0
6296 6673 0
-6296 -6673 0
6305 6539 0
-6305 -6539 0
6302 6672 0
-6302 -6672 0
6311 6674 0
-6311 -6674 0
6308 6604 0
-6308 -6604 0
6630 6604 0
-6630 -6604 0
6626 6671 0
-6626 -6671 0
6627 6673 0
-6627 -6673 0
6442 6628 0
-6442 -6628 0
6317 6638 0
-6317 -6638 0
6314 6691 0
-6314 -6691 0
6323 6551 0
-6323 -6551 0
6320 6690 0
-6320 -6690 0
6329 6692 0
-6329 -6692 0
6326 6737 0
-6326 -6737 0
6640 6737 0
-6640 -6737 0
6636 6689 0
-6636 -6689 0
6637 6691 0
-6637 -6691 0
6456 6638 0
-6456 -6638 0
6335 6648 0
-6335 -6648 0
6332 6709 0
-6332 -6709 0
6341 6563 0
-6341 -6563 0
6338 6708 0
-6338 -6708 0
6347 6710 0
-6347 -6710 0
6344 6739 0
-6344 -6739 0
6650 6739 0
-6650 -6739 0
6646 6707 0
-6646 -6707 0
6647 6709 0
-6647 -6709 0
6470 6648 0
-6470 -6648 0
6353 6575 0
-6353 -6575 0
6350 6580 0
-6350 -6580 0
6359 6576 0
-6359 -6576 0
6356 6741 0
-6356 -6741 0
6655 6721 0
-6655 -6721 0
6495 6580 0
-6495 -6580 0
6571 6654 0
-6571 -6654 0
6579 6575 0
-6579 -6575 0
6658 6604 0
-6658 -6604 0
6659 6674 0
-6659 -6674 0
6661 6672 0
-6661 -6672 0
6664 6673 0
-6664 -6673 0
6669 6671 0
-6669 -6671 0
6582 6662 0
-6582 -6662 0
6676 6604 0
-6676 -6604 0
6677 6692 0
-6677 -6692 0
6679 6690 0
-6679 -6690 0
6682 6691 0
-6682 -6691 0
6687 6689 0
-6687 -6689 0
6588 6680 0
-6588 -6680 0
6694 6604 0
-6694 -6604 0
6695 6710 0
-6695 -6710 0
6697 6708 0
-6697 -6708 0
6700 6709 0
-6700 -6709 0
6705 6707 0
-6705 -6707 0
6594 6698 0
-6594 -6698 0
6712 6604 0
-6712 -6604 0
6713 6576 0
-6713 -6576 0
6715 6580 0
-6715 -6580 0
6718 6721 0
-6718 -6721 0
6723 6574 0
-6723 -6574 0
6600 6716 0
-6600 -6716 0
6501 6660 0
-6501 -6660 0
6498 6663 0
-6498 -6663 0
6502 6267 0
-6502 -6267 0
6499 6269 0
-6499 -6269 0
6507 6381 0
-6507 -6381 0
6504 6384 0
-6504 -6384 0
6508 6275 0
-6508 -6275 0
6505 6277 0
-6505 -6277 0
6513 6393 0
-6513 -6393 0
6510 6396 0
-6510 -6396 0
6514 6283 0
-6514 -6283 0
6511 6285 0
-6511 -6285 0
6519 6405 0
-6519 -6405 0
6516 6408 0
-6516 -6408 0
6520 6291 0
-6520 -6291 0
6517 6293 0
-6517 -6293 0
-6446 6628 0
-6446 6296 0
6446 -6628 -6296 0
-6447 6673 0
-6447 6299 0
6447 -6673 -6299 0
-6622 6539 0
-6622 6302 0
6622 -6539 -6302 0
-6623 6672 0
-6623 6305 0
6623 -6672 -6305 0
-6449 6674 0
-6449 6308 0
6449 -6674 -6308 0
-6450 6604 0
-6450 6311 0
6450 -6604 -6311 0
-6460 6638 0
-6460 6314 0
6460 -6638 -6314 0
-6461 6691 0
-6461 6317 0
6461 -6691 -6317 0
-6632 6551 0
-6632 6320 0
6632 -6551 -6320 0
-6633 6690 0
-6633 6323 0
6633 -6690 -6323 0
-6463 6692 0
-6463 6326 0
6463 -6692 -6326 0
-6464 6737 0
-6464 6329 0
6464 -6737 -6329 0
-6474 6648 0
-6474 6332 0
6474 -6648 -6332 0
-6475 6709 0
-6475 6335 0
6475 -6709 -6335 0
-6642 6563 0
-6642 6338 0
6642 -6563 -6338 0
-6643 6708 0
-6643 6341 0
6643 -6708 -6341 0
-6477 6710 0
-6477 6344 0
6477 -6710 -6344 0
-6478 6739 0
-6478 6347 0
6478 -6739 -6347 0
-6652 6575 0
-6652 6350 0
6652 -6575 -6350 0
-6653 6580 0
-6653 6353 0
6653 -6580 -6353 0
-6491 6576 0
-6491 6356 0
6491 -6576 -6356 0
-6492 6741 0
-6492 6359 0
6492 -6741 -6359 0
-6656 6579 0
-6656 6580 0
6656 -6579 -6580 0
6737 6531 0
6737 6533 0
-6737 -6531 -6533 0
6739 -6446 0
6739 -6447 0
-6739 6446 6447 0
-6741 -6622 0
-6741 -6623 0
6741 6622 6623 0
-6400 6670 0
-6400 6688 0
6400 -6670 -6688 0
-6412 6400 0
-6412 6706 0
6412 -6400 -6706 0
-6421 6670 0
-6421 6675 0
6421 -6670 -6675 0
-6381 6670 0
-6381 6678 0
6381 -6670 -6678 0
-6384 6670 0
-6384 6681 0
6384 -6670 -6681 0
-6430 6670 0
-6430 6684 0
6430 -6670 -6684 0
-6427 6400 0
-6427 6693 0
6427 -6400 -6693 0
-6393 6400 0
-6393 6696 0
6393 -6400 -6696 0
-6396 6400 0
-6396 6699 0
6396 -6400 -6699 0
-6436 6400 0
-6436 6702 0
6436 -6400 -6702 0
-6433 6412 0
-6433 6711 0
6433 -6412 -6711 0
-6405 6412 0
-6405 6714 0
6405 -6412 -6714 0
-6408 6412 0
-6408 6717 0
6408 -6412 -6717 0
-6439 6412 0
-6439 6720 0
6439 -6412 -6720 0
-6725 6657 0
-6725 6416 0
6725 -6657 -6416 0
-6726 6604 0
-6726 6419 0
6726 -6604 -6419 0
-6728 6421 0
-6728 6422 0
6728 -6421 -6422 0
-6729 6666 0
-6729 6425 0
6729 -6666 -6425 0
-6731 6427 0
-6731 6428 0
6731 -6427 -6428 0
-6732 6430 0
-6732 6431 0
6732 -6430 -6431 0
-6734 6433 0
-6734 6434 0
6734 -6433 -6434 0
-6735 6436 0
-6735 6437 0
6735 -6436 -6437 0
-6438 6439 0
-6438 6440 0
6438 -6439 -6440 0
6531 -6442 0
6531 -6671 0
6531 -6627 0
-6531 6442 6671 6627 0
6743 -6449 0
6743 -6450 0
-6743 6449 6450 0
6534 -6629 0
6534 -6627 0
6534 -6630 0
-6534 6629 6627 6630 0
6543 -6456 0
6543 -6689 0
6543 -6637 0
-6543 6456 6689 6637 0
6747 -6460 0
6747 -6461 0
-6747 6460 6461 0
6751 -6463 0
6751 -6464 0
-6751 6463 6464 0
6546 -6639 0
6546 -6637 0
6546 -6640 0
-6546 6639 6637 6640 0
6555 -6470 0
6555 -6707 0
6555 -6647 0
-6555 6470 6707 6647 0
6755 -6474 0
6755 -6475 0
-6755 6474 6475 0
6759 -6477 0
6759 -6478 0
-6759 6477 6478 0
6558 -6649 0
6558 -6647 0
6558 -6650 0
-6558 6649 6647 6650 0
6567 -6578 0
6567 -6574 0
6567 -6655 0
-6567 6578 6574 6655 0
6570 -6578 0
6570 -6721 0
-6570 6578 6721 0
6767 -6491 0
6767 -6492 0
-6767 6491 6492 0
6573 -6575 0
6573 -6495 0
6573 -6655 0
-6573 6575 6495 6655 0
6606 -6498 0
6606 -6499 0
-6606 6498 6499 0
6607 -6501 0
6607 -6502 0
-6607 6501 6502 0
6610 -6504 0
6610 -6505 0
-6610 6504 6505 0
6611 -6507 0
6611 -6508 0
-6611 6507 6508 0
6614 -6510 0
6614 -6511 0
-6614 6510 6511 0
6615 -6513 0
6615 -6514 0
-6615 6513 6514 0
6618 -6516 0
6618 -6517 0
-6618 6516 6517 0
6619 -6519 0
6619 -6520 0
-6619 6519 6520 0
6525 -6605 0
6525 -6609 0
-6525 6605 6609 0
6528 -6525 0
6528 -6613 0
-6528 6525 6613 0
6527 -6528 0
6527 -6617 0
-6527 6528 6617 0
6533 6534 0
6533 6671 0
-6533 -6534 -6671 0
6629 6674 0
6629 6672 0
-6629 -6674 -6672 0
6539 6674 0
6539 6604 0
-6539 -6674 -6604 0
6745 6543 0
6745 6545 0
-6745 -6543 -6545 0
6545 6546 0
6545 6689 0
-6545 -6546 -6689 0
6639 6692 0
6639 6690 0
-6639 -6692 -6690 0
6551 6692 0
6551 6737 0
-6551 -6692 -6737 0
6753 6555 0
6753 6557 0
-6753 -6555 -6557 0
6557 6558 0
6557 6707 0
-6557 -6558 -6707 0
6649 6710 0
6649 6708 0
-6649 -6710 -6708 0
6563 6710 0
6563 6739 0
-6563 -6710 -6739 0
6761 6567 0
6761 6572 0
-6761 -6567 -6572 0
6763 6570 0
6763 6571 0
-6763 -6570 -6571 0
6572 6573 0
6572 6574 0
-6572 -6573 -6574 0
6575 6576 0
6575 6741 0
-6575 -6576 -6741 0
6578 6579 0
6578 6580 0
-6578 -6579 -6580 0
6668 6582 0
6668 6661 0
-6668 -6582 -6661 0
6662 6659 0
6662 6604 0
-6662 -6659 -6604 0
6686 6588 0
6686 6679 0
-6686 -6588 -6679 0
6680 6677 0
6680 6604 0
-6680 -6677 -6604 0
6704 6594 0
6704 6697 0
-6704 -6594 -6697 0
6698 6695 0
6698 6604 0
-6698 -6695 -6604 0
6722 6600 0
6722 6715 0
-6722 -6600 -6715 0
6716 6713 0
6716 6604 0
-6716 -6713 -6604 0
6605 6606 0
6605 6607 0
6605 6724 0
-6605 -6606 -6607 -6724 0
6609 6610 0
6609 6611 0
6609 6727 0
-6609 -6610 -6611 -6727 0
6613 6614 0
6613 6615 0
6613 6730 0
-6613 -6614 -6615 -6730 0
6617 6618 0
6617 6619 0
6617 6733 0
-6617 -6618 -6619 -6733 0
-6624 -6629 0
-6624 -6626 0
-6624 -6627 0
6624 6629 6626 6627 0
-6628 -6629 0
-6628 -6630 0
6628 6629 6630 0
-6749 -6632 0
-6749 -6633 0
6749 6632 6633 0
-6634 -6639 0
-6634 -6636 0
-6634 -6637 0
6634 6639 6636 6637 0
-6638 -6639 0
-6638 -6640 0
6638 6639 6640 0
-6757 -6642 0
-6757 -6643 0
6757 6642 6643 0
-6644 -6649 0
-6644 -6646 0
-6644 -6647 0
6644 6649 6646 6647 0
-6648 -6649 0
-6648 -6650 0
6648 6649 6650 0
-6765 -6652 0
-6765 -6653 0
6765 6652 6653 0
-6654 -6655 0
-6654 -6656 0
6654 6655 6656 0
-6657 -6658 0
-6657 -6659 0
6657 6658 6659 0
-6660 -6661 0
-6660 -6662 0
6660 6661 6662 0
-6663 -6664 0
-6663 -6668 0
6663 6664 6668 0
-6666 -6673 0
-6666 -6668 0
-6666 -6669 0
6666 6673 6668 6669 0
-6670 -6671 0
-6670 -6672 0
-6670 -6673 0
-6670 -6674 0
6670 6671 6672 6673 6674 0
-6675 -6676 0
-6675 -6677 0
6675 6676 6677 0
-6678 -6679 0
-6678 -6680 0
6678 6679 6680 0
-6681 -6682 0
-6681 -6686 0
6681 6682 6686 0
-6684 -6691 0
-6684 -6686 0
-6684 -6687 0
6684 6691 6686 6687 0
-6688 -6689 0
-6688 -6690 0
-6688 -6691 0
-6688 -6692 0
6688 6689 6690 6691 6692 0
-6693 -6694 0
-6693 -6695 0
6693 6694 6695 0
-6696 -6697 0
-6696 -6698 0
6696 6697 6698 0
-6699 -6700 0
-6699 -6704 0
6699 6700 6704 0
-6702 -6709 0
-6702 -6704 0
-6702 -6705 0
6702 6709 6704 6705 0
-6706 -6707 0
-6706 -6708 0
-6706 -6709 0
-6706 -6710 0
6706 6707 6708 6709 6710 0
-6711 -6712 0
-6711 -6713 0
6711 6712 6713 0
-6714 -6715 0
-6714 -6716 0
6714 6715 6716 0
-6717 -6718 0
-6717 -6722 0
6717 6718 6722 0
-6720 -6721 0
-6720 -6722 0
-6720 -6723 0
6720 6721 6722 6723 0
-6724 -6725 0
-6724 -6726 0
6724 6725 6726 0
-6727 -6728 0
-6727 -6729 0
6727 6728 6729 0
-6730 -6731 0
-6730 -6732 0
6730 6731 6732 0
-6733 -6734 0
-6733 -6735 0
6733 6734 6735 0
-6737 7301 0
6737 -7301 0
-6739 7303 0
6739 -7303 0
-6741 7302 0
6741 -7302 0
-6743 7304 0
6743 -7304 0
-6745 7319 0
6745 -7319 0
-6747 7321 0
6747 -7321 0
-6749 7320 0
6749 -7320 0
-6751 7322 0
6751 -7322 0
-6753 7337 0
6753 -7337 0
-6755 7339 0
6755 -7339 0
-6757 7338 0
6757 -7338 0
-6759 7340 0
6759 -7340 0
-6761 7204 0
6761 -7204 0
-6763 7351 0
6763 -7351 0
-6765 7210 0
6765 -7210 0
-6767 7206 0
6767 -7206 0
6929 7258 0
-6929 -7258 0
6926 7303 0
-6926 -7303 0
6935 7169 0
-6935 -7169 0
6932 7302 0
-6932 -7302 0
6941 7304 0
-6941 -7304 0
6938 7234 0
-6938 -7234 0
7260 7234 0
-7260 -7234 0
7256 7301 0
-7256 -7301 0
7257 7303 0
-7257 -7303 0
7072 7258 0
-7072 -7258 0
6947 7268 0
-6947 -7268 0
6944 7321 0
-6944 -7321 0
6953 7181 0
-6953 -7181 0
6950 7320 0
-6950 -7320 0
6959 7322 0
-6959 -7322 0
6956 7367 0
-6956 -7367 0
7270 7367 0
-7270 -7367 0
7266 7319 0
-7266 -7319 0
7267 7321 0
-7267 -7321 0
7086 7268 0
-7086 -7268 0
6965 7278 0
-6965 -7278 0
6962 7339 0
-6962 -7339 0
6971 7193 0
-6971 -7193 0
6968 7338 0
-6968 -7338 0
6977 7340 0
-6977 -7340 0
6974 7369 0
-6974 -7369 0
7280 7369 0
-7280 -7369 0
7276 7337 0
-7276 -7337 0
7277 7339 0
-7277 -7339 0
7100 7278 0
-7100 -7278 0
6983 7205 0
-6983 -7205 0
6980 7210 0
-6980 -7210 0
6989 7206 0
-6989 -7206 0
6986 7371 0
-6986 -7371 0
7285 7351 0
-7285 -7351 0
7125 7210 0
-7125 -7210 0
7201 7284 0
-7201 -7284 0
7209 7205 0
-7209 -7205 0
7288 7234 0
-7288 -7234 0
7289 7304 0
-7289 -7304 0
7291 7302 0
-7291 -7302 0
7294 7303 0
-7294 -7303 0
7299 7301 0
-7299 -7301 0
7212 7292 0
-7212 -7292 0
7306 7234 0
-7306 -7234 0
7307 7322 0
-7307 -7322 0
7309 7320 0
-7309 -7320 0
7312 7321 0
-7312 -7321 0
7317 7319 0
-7317 -7319 0
7218 7310 0
-7218 -7310 0
7324 7234 0
-7324 -7234 0
7325 7340 0
-7325 -7340 0
7327 7338 0
-7327 -7338 0
7330 7339 0
-7330 -7339 0
7335 7337 0
-7335 -7337 0
7224 7328 0
-7224 -7328 0
7342 7234 0
-7342 -7234 0
7343 7206 0
-7343 -7206 0
7345 7210 0
-7345 -7210 0
7348 7351 0
-7348 -7351 0
7353 7204 0
-7353 -7204 0
7230 7346 0
-7230 -7346 0
7131 7290 0
-7131 -7290 0
7128 7293 0
-7128 -7293 0
7132 6897 0
-7132 -6897 0
7129 6899 0
-7129 -6899 0
7137 7011 0
-7137 -7011 0
7134 7014 0
-7134 -7014 0
7138 6905 0
-7138 -6905 0
7135 6907 0
-7135 -6907 0
7143 7023 0
-7143 -7023 0
7140 7026 0
-7140 -7026 0
7144 6913 0
-7144 -6913 0
7141 6915 0
-7141 -6915 0
7149 7035 0
-7149 -7035 0
7146 7038 0
-7146 -7038 0
7150 6921 0
-7150 -6921 0
7147 6923 0
-7147 -6923 0
-7076 7258 0
-7076 6926 0
7076 -7258 -6926 0
-7077 7303 0
-7077 6929 0
7077 -7303 -6929 0
-7252 7169 0
-7252 6932 0
7252 -7169 -6932 0
-7253 7302 0
-7253 6935 0
7253 -7302 -6935 0
-7079 7304 0
-7079 6938 0
7079 -7304 -6938 0
-7080 7234 0
-7080 6941 0
7080 -7234 -6941 0
-7090 7268 0
-7090 6944 0
7090 -7268 -6944 0
-7091 7321 0
-7091 6947 0
7091 -7321 -6947 0
-7262 7181 0
-7262 6950 0
7262 -7181 -6950 0
-7263 7320 0
-7263 6953 0
7263 -7320 -6953 0
-7093 7322 0
-7093 6956 0
7093 -7322 -6956 0
-7094 7367 0
-7094 6959 0
7094 -7367 -6959 0
-7104 7278 0
-7104 6962 0
7104 -7278 -6962 0
-7105 7339 0
-7105 6965 0
7105 -7339 -6965 0
-7272 7193 0
-7272 6968 0
7272 -7193 -6968 0
-7273 7338 0
-7273 6971 0
7273 -7338 -6971 0
-7107 7340 0
-7107 6974 0
7107 -7340 -6974 0
-7108 7369 0
-7108 6977 0
7108 -7369 -6977 0
-7282 7205 0
-7282 6980 0
7282 -7205 -6980 0
-7283 7210 0
-7283 6983 0
7283 -7210 -6983 0
-7121 7206 0
-7121 6986 0
7121 -7206 -6986 0
-7122 7371 0
-7122 6989 0
7122 -7371 -6989 0
-7286 7209 0
-7286 7210 0
7286 -7209 -7210 0
7367 7161 0
7367 7163 0
-7367 -7161 -7163 0
7369 -7076 0
7369 -7077 0
-7369 7076 7077 0
-7371 -7252 0
-7371 -7253 0
7371 7252 7253 0
-7030 7300 0
-7030 7318 0
7030 -7300 -7318 0
-7042 7030 0
-7042 7336 0
7042 -7030 -7336 0
-7051 7300 0
-7051 7305 0
7051 -7300 -7305 0
-7011 7300 0
-7011 7308 0
7011 -7300 -7308 0
-7014 7300 0
-7014 7311 0
7014 -7300 -7311 0
-7060 7300 0
-7060 7314 0
7060 -7300 -7314 0
-7057 7030 0
-7057 7323 0
7057 -7030 -7323 0
-7023 7030 0
-7023 7326 0
7023 -7030 -7326 0
-7026 7030 0
-7026 7329 0
7026 -7030 -7329 0
-7066 7030 0
-7066 7332 0
7066 -7030 -7332 0
-7063 7042 0
-7063 7341 0
7063 -7042 -7341 0
-7035 7042 0
-7035 7344 0
7035 -7042 -7344 0
-7038 7042 0
-7038 7347 0
7038 -7042 -7347 0
-7069 7042 0
-7069 7350 0
7069 -7042 -7350 0
-7355 7287 0
-7355 7046 0
7355 -7287 -7046 0
-7356 7234 0
-7356 7049 0
7356 -7234 -7049 0
-7358 7051 0
-7358 7052 0
7358 -7051 -7052 0
-7359 7296 0
-7359 7055 0
7359 -7296 -7055 0
-7361 7057 0
-7361 7058 0
7361 -7057 -7058 0
-7362 7060 0
-7362 7061 0
7362 -7060 -7061 0
-7364 7063 0
-7364 7064 0
7364 -7063 -7064 0
-7365 7066 0
-7365 7067 0
7365 -7066 -7067 0
-7068 7069 0
-7068 7070 0
7068 -7069 -7070 0
7161 -7072 0
7161 -7301 0
7161 -7257 0
-7161 7072 7301 7257 0
7373 -7079 0
7373 -7080 0
-7373 7079 7080 0
7164 -7259 0
7164 -7257 0
7164 -7260 0
-7164 7259 7257 7260 0
7173 -7086 0
7173 -7319 0
7173 -7267 0
-7173 7086 7319 7267 0
7377 -7090 0
7377 -7091 0
-7377 7090 7091 0
7381 -7093 0
7381 -7094 0
-7381 7093 7094 0
7176 -7269 0
7176 -7267 0
7176 -7270 0
-7176 7269 7267 7270 0
7185 -7100 0
7185 -7337 0
7185 -7277 0
-7185 7100 7337 7277 0
7385 -7104 0
7385 -7105 0
-7385 7104 7105 0
7389 -7107 0
7389 -7108 0
-7389 7107 7108 0
7188 -7279 0
7188 -7277 0
7188 -7280 0
-7188 7279 7277 7280 0
7197 -7208 0
7197 -7204 0
7197 -7285 0
-7197 7208 7204 7285 0
7200 -7208 0
7200 -7351 0
-7200 7208 7351 0
7397 -7121 0
7397 -7122 0
-7397 7121 7122 0
7203 -7205 0
7203 -7125 0
7203 -7285 0
-7203 7205 7125 7285 0
7236 -7128 0
7236 -7129 0
-7236 7128 7129 0
7237 -7131 0
7237 -7132 0
-7237 7131 7132 0
7240 -7134 0
7240 -7135 0
-7240 7134 7135 0
7241 -7137 0
7241 -7138 0
-7241 7137 7138 0
7244 -7140 0
7244 -7141 0
-7244 7140 7141 0
7245 -7143 0
7245 -7144 0
-7245 7143 7144 0
7248 -7146 0
7248 -7147 0
-7248 7146 7147 0
7249 -7149 0
7249 -7150 0
-7249 7149 7150 0
7155 -7235 0
7155 -7239 0
-7155 7235 7239 0
7158 -7155 0
7158 -7243 0
-7158 7155 7243 0
7157 -7158 0
7157 -7247 0
-7157 7158 7247 0
7163 7164 0
7163 7301 0
-7163 -7164 -7301 0
7259 7304 0
7259 7302 0
-7259 -7304 -7302 0
7169 7304 0
7169 7234 0
-7169 -7304 -7234 0
7375 7173 0
7375 7175 0
-7375 -7173 -7175 0
7175 7176 0
7175 7319 0
-7175 -7176 -7319 0
7269 7322 0
7269 7320 0
-7269 -7322 -7320 0
7181 7322 0
7181 7367 0
-7181 -7322 -7367 0
7383 7185 0
7383 7187 0
-7383 -7185 -7187 0
7187 7188 0
7187 7337 0
-7187 -7188 -7337 0
7279 7340 0
7279 7338 0
-7279 -7340 -7338 0
7193 7340 0
7193 7369 0
-7193 -7340 -7369 0
7391 7197 0
7391 7202 0
-7391 -7197 -7202 0
7393 7200 0
7393 7201 0
-7393 -7200 -7201 0
7202 7203 0
7202 7204 0
-7202 -7203 -7204 0
7205 7206 0
7205 7371 0
-7205 -7206 -7371 0
7208 7209 0
7208 7210 0
-7208 -7209 -7210 0
7298 7212 0
7298 7291 0
-7298 -7212 -7291 0
7292 7289 0
7292 7234 0
-7292 -7289 -7234 0
7316 7218 0
7316 7309 0
-7316 -7218 -7309 0
7310 7307 0
7310 7234 0
-7310 -7307 -7234 0
7334 7224 0
7334 7327 0
-7334 -7224 -7327 0
7328 7325 0
7328 7234 0
-7328 -7325 -7234 0
7352 7230 0
7352 7345 0
-7352 -7230 -7345 0
7346 7343 0
7346 7234 0
-7346 -7343 -7234 0
7235 7236 0
7235 7237 0
7235 7354 0
-7235 -7236 -7237 -7354 0
7239 7240 0
7239 7241 0
7239 7357 0
-7239 -7240 -7241 -7357 0
7243 7244 0
7243 7245 0
7243 7360 0
-7243 -7244 -7245 -7360 0
7247 7248 0
7247 7249 0
7247 7363 0
-7247 -7248 -7249 -7363 0
-7254 -7259 0
-7254 -7256 0
-7254 -7257 0
7254 7259 7256 7257 0
-7258 -7259 0
-7258 -7260 0
7258 7259 7260 0
-7379 -7262 0
-7379 -7263 0
7379 7262 7263 0
-7264 -7269 0
-7264 -7266 0
-7264 -7267 0
7264 7269 7266 7267 0
-7268 -7269 0
-7268 -7270 0
7268 7269 7270 0
-7387 -7272 0
-7387 -7273 0
7387 7272 7273 0
-7274 -7279 0
-7274 -7276 0
-7274 -7277 0
7274 7279 7276 7277 0
-7278 -7279 0
-7278 -7280 0
7278 7279 7280 0
-7395 -7282 0
-7395 -7283 0
7395 7282 7283 0
-7284 -7285 0
-7284 -7286 0
7284 7285 7286 0
-7287 -7288 0
-7287 -7289 0
7287 7288 7289 0
-7290 -7291 0
-7290 -7292 0
7290 7291 7292 0
-7293 -7294 0
-7293 -7298 0
7293 7294 7298 0
-7296 -7303 0
-7296 -7298 0
-7296 -7299 0
7296 7303 7298 7299 0
-7300 -7301 0
-7300 -7302 0
-7300 -7303 0
-7300 -7304 0
7300 7301 7302 7303 7304 0
-7305 -7306 0
-7305 -7307 0
7305 7306 7307 0
-7308 -7309 0
-7308 -7310 0
7308 7309 7310 0
-7311 -7312 0
-7311 -7316 0
7311 7312 7316 0
-7314 -7321 0
-7314 -7316 0
-7314 -7317 0
7314 7321 7316 7317 0
-7318 -7319 0
-7318 -7320 0
-7318 -7321 0
-7318 -7322 0
7318 7319 7320 7321 7322 0
-7323 -7324 0
-7323 -7325 0
7323 7324 7325 0
-7326 -7327 0
-7326 -7328 0
7326 7327 7328 0
-7329 -7330 0
-7329 -7334 0
7329 7330 7334 0
-7332 -7339 0
-7332 -7334 0
-7332 -7335 0
7332 7339 7334 7335 0
-7336 -7337 0
-7336 -7338 0
-7336 -7339 0
-7336 -7340 0
7336 7337 7338 7339 7340 0
-7341 -7342 0
-7341 -7343 0
7341 7342 7343 0
-7344 -7345 0
-7344 -7346 0
7344 7345 7346 0
-7347 -7348 0
-7347 -7352 0
7347 7348 7352 0
-7350 -7351 0
-7350 -7352 0
-7350 -7353 0
7350 7351 7352 7353 0
-7354 -7355 0
-7354 -7356 0
7354 7355 7356 0
-7357 -7358 0
-7357 -7359 0
7357 7358 7359 0
-7360 -7361 0
-7360 -7362 0
7360 7361 7362 0
-7363 -7364 0
-7363 -7365 0
7363 7364 7365 0
-7367 7931 0
7367 -7931 0
-7369 7933 0
7369 -7933 0
-7371 7932 0
7371 -7932 0
-7373 7934 0
7373 -7934 0
-7375 7949 0
7375 -7949 0
-7377 7951 0
7377 -7951 0
-7379 7950 0
7379 -7950 0
-7381 7952 0
7381 -7952 0
-7383 7967 0
7383 -7967 0
-7385 7969 0
7385 -7969 0
-7387 7968 0
7387 -7968 0
-7389 7970 0
7389 -7970 0
-7391 7834 0
7391 -7834 0
-7393 7981 0
7393 -7981 0
-7395 7840 0
7395 -7840 0
-7397 7836 0
7397 -7836 0
7559 7888 0
-7559 -7888 0
7556 7933 0
-7556 -7933 0
7565 7799 0
-7565 -7799 0
7562 7932 0
-7562 -7932 0
7571 7934 0
-7571 -7934 0
7568 7864 0
-7568 -7864 0
7890 7864 0
-7890 -7864 0
7886 7931 0
-7886 -7931 0
7887 7933 0
-7887 -7933 0
7702 7888 0
-7702 -7888 0
7577 7898 0
-7577 -7898 0
7574 7951 0
-7574 -7951 0
7583 7811 0
-7583 -7811 0
7580 7950 0
-7580 -7950 0
7589 7952 0
-7589 -7952 0
7586 7997 0
-7586 -7997 0
7900 7997 0
-7900 -7997 0
7896 7949 0
-7896 -7949 0
7897 7951 0
-7897 -7951 0
7716 7898 0
-7716 -7898 0
7595 7908 0
-7595 -7908 0
7592 7969 0
-7592 -7969 0
7601 7823 0
-7601 -7823 0
7598 7968 0
-7598 -7968 0
7607 7970 0
-7607 -7970 0
7604 7999 0
-7604 -7999 0
7910 7999 0
-7910 -7999 0
7906 7967 0
-7906 -7967 0
7907 7969 0
-7907 -7969 0
7730 7908 0
-7730 -7908 0
7613 7835 0
-7613 -7835 0
7610 7840 0
-7610 -7840 0
7619 7836 0
-7619 -7836 0
7616 8001 0
-7616 -8001 0
7915 7981 0
-7915 -7981 0
7755 7840 0
-7755 -7840 0
7831 7914 0
-7831 -7914 0
7839 7835 0
-7839 -7835 0
7918 7864 0
-7918 -7864 0
7919 7934 0
-7919 -7934 0
7921 7932 0
-7921 -7932 0
7924 7933 0
-7924 -7933 0
7929 7931 0
-7929 -7931 0
7842 7922 0
-7842 -7922 0
7936 7864 0
-7936 -7864 0
7937 7952 0
-7937 -7952 0
7939 7950 0
-7939 -7950 0
7942 7951 0
-7942 -7951 0
7947 7949 0
-7947 -7949 0
7848 7940 0
-7848 -7940 0
7954 7864 0
-7954 -7864 0
7955 7970 0
-7955 -7970 0
7957 7968 0
-7957 -7968 0
7960 7969 0
-7960 -7969 0
7965 7967 0
-7965 -7967 0
7854 7958 0
-7854 -7958 0
7972 7864 0
-7972 -7864 0
7973 7836 0
-7973 -7836 0
7975 7840 0
-7975 -7840 0
7978 7981 0
-7978 -7981 0
7983 7834 0
-7983 -7834 0
7860 7976 0
-7860 -7976 0
7761 7920 0
-7761 -7920 0
7758 7923 0
-7758 -7923 0
7762 7527 0
-7762 -7527 0
7759 7529 0
-7759 -7529 0
7767 7641 0
-7767 -7641 0
7764 7644 0
-7764 -7644 0
7768 7535 0
-7768 -7535 0
7765 7537 0
-7765 -7537 0
7773 7653 0
-7773 -7653 0
7770 7656 0
-7770 -7656 0
7774 7543 0
-7774 -7543 0
7771 7545 0
-7771 -7545 0
7779 7665 0
-7779 -7665 0
7776 7668 0
-7776 -7668 0
7780 7551 0
-7780 -7551 0
7777 7553 0
-7777 -7553 0
-7706 7888 0
-7706 7556 0
7706 -7888 -7556 0
-7707 7933 0
-7707 7559 0
7707 -7933 -7559 0
-7882 7799 0
-7882 7562 0
7882 -7799 -7562 0
-7883 7932 0
-7883 7565 0
7883 -7932 -7565 0
-7709 7934 0
-7709 7568 0
7709 -7934 -7568 0
-7710 7864 0
-7710 7571 0
7710 -7864 -7571 0
-7720 7898 0
-7720 7574 0
7720 -7898 -7574 0
-7721 7951 0
-7721 7577 0
7721 -7951 -7577 0
-7892 7811 0
-7892 7580 0
7892 -7811 -7580 0
-7893 7950 0
-7893 7583 0
7893 -7950 -7583 0
-7723 7952 0
-7723 7586 0
7723 -7952 -7586 0
-7724 7997 0
-7724 7589 0
7724 -7997 -7589 0
-7734 7908 0
-7734 7592 0
7734 -7908 -7592 0
-7735 7969 0
-7735 7595 0
7735 -7969 -7595 0
-7902 7823 0
-7902 7598 0
7902 -7823 -7598 0
-7903 7968 0
-7903 7601 0
7903 -7968 -7601 0
-7737 7970 0
-7737 7604 0
7737 -7970 -7604 0
-7738 7999 0
-7738 7607 0
7738 -7999 -7607 0
-7912 7835 0
-7912 7610 0
7912 -7835 -7610 0
-7913 7840 0
-7913 7613 0
7913 -7840 -7613 0
-7751 7836 0
-7751 7616 0
7751 -7836 -7616 0
-7752 8001 0
-7752 7619 0
7752 -8001 -7619 0
-7916 7839 0
-7916 7840 0
7916 -7839 -7840 0
7997 7791 0
7997 7793 0
-7997 -7791 -7793 0
7999 -7706 0
7999 -7707 0
-7999 7706 7707 0
-8001 -7882 0
-8001 -7883 0
8001 7882 7883 0
-7660 7930 0
-7660 7948 0
7660 -7930 -7948 0
-7672 7660 0
-7672 7966 0
7672 -7660 -7966 0
-7681 7930 0
-7681 7935 0
7681 -7930 -7935 0
-7641 7930 0
-7641 7938 0
7641 -7930 -7938 0
-7644 7930 0
-7644 7941 0
7644 -7930 -7941 0
-7690 7930 0
-7690 7944 0
7690 -7930 -7944 0
-7687 7660 0
-7687 7953 0
7687 -7660 -7953 0
-7653 7660 0
-7653 7956 0
7653 -7660 -7956 0
-7656 7660 0
-7656 7959 0
7656 -7660 -7959 0
-7696 7660 0
-7696 7962 0
7696 -7660 -7962 0
-7693 7672 0
-7693 7971 0
7693 -7672 -7971 0
-7665 7672 0
-7665 7974 0
7665 -7672 -7974 0
-7668 7672 0
-7668 7977 0
7668 -7672 -7977 0
-7699 7672 0
-7699 7980 0
7699 -7672 -7980 0
-7985 7917 0
-7985 7676 0
7985 -7917 -7676 0
-7986 7864 0
-7986 7679 0
7986 -7864 -7679 0
-7988 7681 0
-7988 7682 0
7988 -7681 -7682 0
-7989 7926 0
-7989 7685 0
7989 -7926 -7685 0
-7991 7687 0
-7991 7688 0
7991 -7687 -7688 0
-7992 7690 0
-7992 7691 0
7992 -7690 -7691 0
-7994 7693 0
-7994 7694 0
7994 -7693 -7694 0
-7995 7696 0
-7995 7697 0
7995 -7696 -7697 0
-7698 7699 0
-7698 7700 0
7698 -7699 -7700 0
7791 -7702 0
7791 -7931 0
7791 -7887 0
-7791 7702 7931 7887 0
8003 -7709 0
8003 -7710 0
-8003 7709 7710 0
7794 -7889 0
7794 -7887 0
7794 -7890 0
-7794 7889 7887 7890 0
7803 -7716 0
7803 -7949 0
7803 -7897 0
-7803 7716 7949 7897 0
8007 -7720 0
8007 -7721 0
-8007 7720 7721 0
8011 -7723 0
8011 -7724 0
-8011 7723 7724 0
7806 -7899 0
7806 -7897 0
7806 -7900 0
-7806 7899 7897 7900 0
7815 -7730 0
7815 -7967 0
7815 -7907 0
-7815 7730 7967 7907 0
8015 -7734 0
8015 -7735 0
-8015 7734 7735 0
8019 -7737 0
8019 -7738 0
-8019 7737 7738 0
7818 -7909 0
7818 -7907 0
7818 -7910 0
-7818 7909 7907 7910 0
7827 -7838 0
7827 -7834 0
7827 -7915 0
-7827 7838 7834 7915 0
7830 -7838 0
7830 -7981 0
-7830 7838 7981 0
8027 -7751 0
8027 -7752 0
-8027 7751 7752 0
7833 -7835 0
7833 -7755 0
7833 -7915 0
-7833 7835 7755 7915 0
7866 -7758 0
7866 -7759 0
-7866 7758 7759 0
7867 -7761 0
7867 -7762 0
-7867 7761 7762 0
7870 -7764 0
7870 -7765 0
-7870 7764 7765 0
7871 -7767 0
7871 -7768 0
-7871 7767 7768 0
7874 -7770 0
7874 -7771 0
-7874 7770 7771 0
7875 -7773 0
7875 -7774 0
-7875 7773 7774 0
7878 -7776 0
7878 -7777 0
-7878 7776 7777 0
7879 -7779 0
7879 -7780 0
-7879 7779 7780 0
7785 -7865 0
7785 -7869 0
-7785 7865 7869 0
7788 -7785 0
7788 -7873 0
-7788 7785 7873 0
7787 -7788 0
7787 -7877 0
-7787 7788 7877 0
7793 7794 0
7793 7931 0
-7793 -7794 -7931 0
7889 7934 0
7889 7932 0
-7889 -7934 -7932 0
7799 7934 0
7799 7864 0
-7799 -7934 -7864 0
8005 7803 0
8005 7805 0
-8005 -7803 -7805 0
7805 7806 0
7805 7949 0
-7805 -7806 -7949 0
7899 7952 0
7899 7950 0
-7899 -7952 -7950 0
7811 7952 0
7811 7997 0
-7811 -7952 -7997 0
8013 7815 0
8013 7817 0
-8013 -7815 -7817 0
7817 7818 0
7817 7967 0
-7817 -7818 -7967 0
7909 7970 0
7909 7968 0
-7909 -7970 -7968 0
7823 7970 0
7823 7999 0
-7823 -7970 -7999 0
8021 7827 0
8021 7832 0
-8021 -7827 -7832 0
8023 7830 0
8023 7831 0
-8023 -7830 -7831 0
7832 7833 0
7832 7834 0
-7832 -7833 -7834 0
7835 7836 0
7835 8001 0
-7835 -7836 -8001 0
7838 7839 0
7838 7840 0
-7838 -7839 -7840 0
7928 7842 0
7928 7921 0
-7928 -7842 -7921 0
7922 7919 0
7922 7864 0
-7922 -7919 -7864 0
7946 7848 0
7946 7939 0
-7946 -7848 -7939 0
7940 7937 0
7940 7864 0
-7940 -7937 -7864 0
7964 7854 0
7964 7957 0
-7964 -7854 -7957 0
7958 7955 0
7958 7864 0
-7958 -7955 -7864 0
7982 7860 0
7982 7975 0
-7982 -7860 -7975 0
7976 7973 0
7976 7864 0
-7976 -7973 -7864 0
7865 7866 0
7865 7867 0
7865 7984 0
-7865 -7866 -7867 -7984 0
7869 7870 0
7869 7871 0
7869 7987 0
-7869 -7870 -7871 -7987 0
7873 7874 0
7873 7875 0
7873 7990 0
-7873 -7874 -7875 -7990 0
7877 7878 0
7877 7879 0
7877 7993 0
-7877 -7878 -7879 -7993 0
-7884 -7889 0
-7884 -7886 0
-7884 -7887 0
7884 7889 7886 7887 0
-7888 -7889 0
-7888 -7890 0
7888 7889 7890 0
-8009 -7892 0
-8009 -7893 0
8009 7892 7893 0
-7894 -7899 0
-7894 -7896 0
-7894 -7897 0
7894 7899 7896 7897 0
-7898 -7899 0
-7898 -7900 0
7898 7899 7900 0
-8017 -7902 0
-8017 -7903 0
8017 7902 7903 0
-7904 -7909 0
-7904 -7906 0
-7904 -7907 0
7904 7909 7906 7907 0
-7908 -7909 0
-7908 -7910 0
7908 7909 7910 0
-8025 -7912 0
-8025 -7913 0
8025 7912 7913 0
-7914 -7915 0
-7914 -7916 0
7914 7915 7916 0
-7917 -7918 0
-7917 -7919 0
7917 7918 7919 0
-7920 -7921 0
-7920 -7922 0
7920 7921 7922 0
-7923 -7924 0
-7923 -7928 0
7923 7924 7928 0
-7926 -7933 0
-7926 -7928 0
-7926 -7929 0
7926 7933 7928 7929 0
-7930 -7931 0
-7930 -7932 0
-7930 -7933 0
-7930 -7934 0
7930 7931 7932 7933 7934 0
-7935 -7936 0
-7935 -7937 0
7935 7936 7937 0
-7938 -7939 0
-7938 -7940 0
7938 7939 7940 0
-7941 -7942 0
-7941 -7946 0
7941 7942 7946 0
-7944 -7951 0
-7944 -7946 0
-7944 -7947 0
7944 7951 7946 7947 0
-7948 -7949 0
-7948 -7950 0
-7948 -7951 0
-7948 -7952 0
7948 7949 7950 7951 7952 0
-7953 -7954 0
-7953 -7955 0
7953 7954 7955 0
-7956 -7957 0
-7956 -7958 0
7956 7957 7958 0
-7959 -7960 0
-7959 -7964 0
7959 7960 7964 0
-7962 -7969 0
-7962 -7964 0
-7962 -7965 0
7962 7969 7964 7965 0
-7966 -7967 0
-7966 -7968 0
-7966 -7969 0
-7966 -7970 0
7966 7967 7968 7969 7970 0
-7971 -7972 0
-7971 -7973 0
7971 7972 7973 0
-7974 -7975 0
-7974 -7976 0
7974 7975 7976 0
-7977 -7978 0
-7977 -7982 0
7977 7978 7982 0
-7980 -7981 0
-7980 -7982 0
-7980 -7983 0
7980 7981 7982 7983 0
-7984 -7985 0
-7984 -7986 0
7984 7985 7986 0
-7987 -7988 0
-7987 -7989 0
7987 7988 7989 0
-7990 -7991 0
-7990 -7992 0
7990 7991 7992 0
-7993 -7994 0
-7993 -7995 0
7993 7994 7995 0
-7997 8561 0
7997 -8561 0
-7999 8563 0
7999 -8563 0
-8001 8562 0
8001 -8562 0
-8003 8564 0
8003 -8564 0
-8005 8579 0
8005 -8579 0
-8007 8581 0
8007 -8581 0
-8009 8580 0
8009 -8580 0
-8011 8582 0
8011 -8582 0
-8013 8597 0
8013 -8597 0
-8015 8599 0
8015 -8599 0
-8017 8598 0
8017 -8598 0
-8019 8600 0
8019 -8600 0
-8021 8464 0
8021 -8464 0
-8023 8611 0
8023 -8611 0
-8025 8470 0
8025 -8470 0
-8027 8466 0
8027 -8466 0
8189 8518 0
-8189 -8518 0
8186 8563 0
-8186 -8563 0
8195 8429 0
-8195 -8429 0
8192 8562 0
-8192 -8562 0
8201 8564 0
-8201 -8564 0
8198 8494 0
-8198 -8494 0
8520 8494 0
-8520 -8494 0
8516 8561 0
-8516 -8561 0
8517 8563 0
-8517 -8563 0
8332 8518 0
-8332 -8518 0
8207 8528 0
-8207 -8528 0
8204 8581 0
-8204 -8581 0
8213 8441 0
-8213 -8441 0
8210 8580 0
-8210 -8580 0
8219 8582 0
-8219 -8582 0
8216 8627 0
-8216 -8627 0
8530 8627 0
-8530 -8627 0
8526 8579 0
-8526 -8579 0
8527 8581 0
-8527 -8581 0
8346 8528 0
-8346 -8528 0
8225 8538 0
-8225 -8538 0
8222 8599 0
-8222 -8599 0
8231 8453 0
-8231 -8453 0
8228 8598 0
-8228 -8598 0
8237 8600 0
-8237 -8600 0
8234 8629 0
-8234 -8629 0
8540 8629 0
-8540 -8629 0
8536 8597 0
-8536 -8597 0
8537 8599 0
-8537 -8599 0
8360 8538 0
-8360 -8538 0
8243 8465 0
-8243 -8465 0
8240 8470 0
-8240 -8470 0
8249 8466 0
-8249 -8466 0
8246 8631 0
-8246 -8631 0
8545 8611 0
-8545 -8611 0
8385 8470 0
-8385 -8470 0
8461 8544 0
-8461 -8544 0
8469 8465 0
-8469 -8465 0
8548 8494 0
-8548 -8494 0
8549 8564 0
-8549 -8564 0
8551 8562 0
-8551 -8562 0
8554 8563 0
-8554 -8563 0
8559 8561 0
-8559 -8561 0
8472 8552 0
-8472 -8552 0
8566 8494 0
-8566 -8494 0
8567 8582 0
-8567 -8582 0
8569 8580 0
-8569 -8580 0
8572 8581 0
-8572 -8581 0
8577 8579 0
-8577 -8579 0
8478 8570 0
-8478 -8570 0
8584 8494 0
-8584 -8494 0
8585 8600 0
-8585 -8600 0
8587 8598 0
-8587 -8598 0
8590 8599 0
-8590 -8599 0
8595 8597 0
-8595 -8597 0
8484 8588 0
-8484 -8588 0
8602 8494 0
-8602 -8494 0
8603 8466 0
-8603 -8466 0
8605 8470 0
-8605 -8470 0
8608 8611 0
-8608 -8611 0
8613 8464 0
-8613 -8464 0
8490 8606 0
-8490 -8606 0
8391 8550 0
-8391 -8550 0
8388 8553 0
-8388 -8553 0
8392 8157 0
-8392 -8157 0
8389 8159 0
-8389 -8159 0
8397 8271 0
-8397 -8271 0
8394 8274 0
-8394 -8274 0
8398 8165 0
-8398 -8165 0
8395 8167 0
-8395 -8167 0
8403 8283 0
-8403 -8283 0
8400 8286 0
-8400 -8286 0
8404 8173 0
-8404 -8173 0
8401 8175 0
-8401 -8175 0
8409 8295 0
-8409 -8295 0
8406 8298 0
-8406 -8298 0
8410 8181 0
-8410 -8181 0
8407 8183 0
-8407 -8183 0
-8336 8518 0
-8336 8186 0
8336 -8518 -8186 0
-8337 8563 0
-8337 8189 0
8337 -8563 -8189 0
-8512 8429 0
-8512 8192 0
8512 -8429 -8192 0
-8513 8562 0
-8513 8195 0
8513 -8562 -8195 0
-8339 8564 0
-8339 8198 0
8339 -8564 -8198 0
-8340 8494 0
-8340 8201 0
8340 -8494 -8201 0
-8350 8528 0
-8350 8204 0
8350 -8528 -8204 0
-8351 8581 0
-8351 8207 0
8351 -8581 -8207 0
-8522 8441 0
-8522 8210 0
8522 -8441 -8210 0
-8523 8580 0
-8523 8213 0
8523 -8580 -8213 0
-8353 8582 0
-8353 8216 0
8353 -8582 -8216 0
-8354 8627 0
-8354 8219 0
8354 -8627 -8219 0
-8364 8538 0
-8364 8222 0
8364 -8538 -8222 0
-8365 8599 0
-8365 8225 0
8365 -8599 -8225 0
-8532 8453 0
-8532 8228 0
8532 -8453 -8228 0
-8533 8598 0
-8533 8231 0
8533 -8598 -8231 0
-8367 8600 0
-8367 8234 0
8367 -8600 -8234 0
-8368 8629 0
-8368 8237 0
8368 -8629 -8237 0
-8542 8465 0
-8542 8240 0
8542 -8465 -8240 0
-8543 8470 0
-8543 8243 0
8543 -8470 -8243 0
-8381 8466 0
-8381 8246 0
8381 -8466 -8246 0
-8382 8631 0
-8382 8249 0
8382 -8631 -8249 0
-8546 8469 0
-8546 8470 0
8546 -8469 -8470 0
8627 8421 0
8627 8423 0
-8627 -8421 -8423 0
8629 -8336 0
8629 -8337 0
-8629 8336 8337 0
-8631 -8512 0
-8631 -8513 0
8631 8512 8513 0
-8290 8560 0
-8290 8578 0
8290 -8560 -8578 0
-8302 8290 0
-8302 8596 0
8302 -8290 -8596 0
-8311 8560 0
-8311 8565 0
8311 -8560 -8565 0
-8271 8560 0
-8271 8568 0
8271 -8560 -8568 0
-8274 8560 0
-8274 8571 0
8274 -8560 -8571 0
-8320 8560 0
-8320 8574 0
8320 -8560 -8574 0
-8317 8290 0
-8317 8583 0
8317 -8290 -8583 0
-8283 8290 0
-8283 8586 0
8283 -8290 -8586 0
-8286 8290 0
-8286 8589 0
8286 -8290 -8589 0
-8326 8290 0
-8326 8592 0
8326 -8290 -8592 0
-8323 8302 0
-8323 8601 0
8323 -8302 -8601 0
-8295 8302 0
-8295 8604 0
8295 -8302 -8604 0
-8298 8302 0
-8298 8607 0
8298 -8302 -8607 0
-8329 8302 0
-8329 8610 0
8329 -8302 -8610 0
-8615 8547 0
-8615 8306 0
8615 -8547 -8306 0
-8616 8494 0
-8616 8309 0
8616 -8494 -8309 0
-8618 8311 0
-8618 8312 0
8618 -8311 -8312 0
-8619 8556 0
-8619 8315 0
8619 -8556 -8315 0
-8621 8317 0
-8621 8318 0
8621 -8317 -8318 0
-8622 8320 0
-8622 8321 0
8622 -8320 -8321 0
-8624 8323 0
-8624 8324 0
8624 -8323 -8324 0
-8625 8326 0
-8625 8327 0
8625 -8326 -8327 0
-8328 8329 0
-8328 8330 0
8328 -8329 -8330 0
8421 -8332 0
8421 -8561 0
8421 -8517 0
-8421 8332 8561 8517 0
8633 -8339 0
8633 -8340 0
-8633 8339 8340 0
8424 -8519 0
8424 -8517 0
8424 -8520 0
-8424 8519 8517 8520 0
8433 -8346 0
8433 -8579 0
8433 -8527 0
-8433 8346 8579 8527 0
8637 -8350 0
8637 -8351 0
-8637 8350 8351 0
8641 -8353 0
8641 -8354 0
-8641 8353 8354 0
8436 -8529 0
8436 -8527 0
8436 -8530 0
-8436 8529 8527 8530 0
8445 -8360 0
8445 -8597 0
8445 -8537 0
-8445 8360 8597 8537 0
8645 -8364 0
8645 -8365 0
-8645 8364 8365 0
8649 -8367 0
8649 -8368 0
-8649 8367 8368 0
8448 -8539 0
8448 -8537 0
8448 -8540 0
-8448 8539 8537 8540 0
8457 -8468 0
8457 -8464 0
8457 -8545 0
-8457 8468 8464 8545 0
8460 -8468 0
8460 -8611 0
-8460 8468 8611 0
8657 -8381 0
8657 -8382 0
-8657 8381 8382 0
8463 -8465 0
8463 -8385 0
8463 -8545 0
-8463 8465 8385 8545 0
8496 -8388 0
8496 -8389 0
-8496 8388 8389 0
8497 -8391 0
8497 -8392 0
-8497 8391 8392 0
8500 -8394 0
8500 -8395 0
-8500 8394 8395 0
8501 -8397 0
8501 -8398 0
-8501 8397 8398 0
8504 -8400 0
8504 -8401 0
-8504 8400 8401 0
8505 -8403 0
8505 -8404 0
-8505 8403 8404 0
8508 -8406 0
8508 -8407 0
-8508 8406 8407 0
8509 -8409 0
8509 -8410 0
-8509 8409 8410 0
8415 -8495 0
8415 -8499 0
-8415 8495 8499 0
8418 -8415 0
8418 -8503 0
-8418 8415 8503 0
8417 -8418 0
8417 -8507 0
-8417 8418 8507 0
8423 8424 0
8423 8561 0
-8423 -8424 -8561 0
8519 8564 0
8519 8562 0
-8519 -8564 -8562 0
8429 8564 0
8429 8494 0
-8429 -8564 -8494 0
8635 8433 0
8635 8435 0
-8635 -8433 -8435 0
8435 8436 0
8435 8579 0
-8435 -8436 -8579 0
8529 8582 0
8529 8580 0
-8529 -8582 -8580 0
8441 8582 0
8441 8627 0
-8441 -8582 -8627 0
8643 8445 0
8643 8447 0
-8643 -8445 -8447 0
8447 8448 0
8447 8597 0
-8447 -8448 -8597 0
8539 8600 0
8539 8598 0
-8539 -8600 -8598 0
8453 8600 0
8453 8629 0
-8453 -8600 -8629 0
8651 8457 0
8651 8462 0
-8651 -8457 -8462 0
8653 8460 0
8653 8461 0
-8653 -8460 -8461 0
8462 8463 0
8462 8464 0
-8462 -8463 -8464 0
8465 8466 0
8465 8631 0
-8465 -8466 -8631 0
8468 8469 0
8468 8470 0
-8468 -8469 -8470 0
8558 8472 0
8558 8551 0
-8558 -8472 -8551 0
8552 8549 0
8552 8494 0
-8552 -8549 -8494 0
8576 8478 0
8576 8569 0
-8576 -8478 -8569 0
8570 8567 0
8570 8494 0
-8570 -8567 -8494 0
8594 8484 0
8594 8587 0
-8594 -8484 -8587 0
8588 8585 0
8588 8494 0
-8588 -8585 -8494 0
8612 8490 0
8612 8605 0
-8612 -8490 -8605 0
8606 8603 0
8606 8494 0
-8606 -8603 -8494 0
8495 8496 0
8495 8497 0
8495 8614 0
-8495 -8496 -8497 -8614 0
8499 8500 0
8499 8501 0
8499 8617 0
-8499 -8500 -8501 -8617 0
8503 8504 0
8503 8505 0
8503 8620 0
-8503 -8504 -8505 -8620 0
8507 8508 0
8507 8509 0
8507 8623 0
-8507 -8508 -8509 -8623 0
-8514 -8519 0
-8514 -8516 0
-8514 -8517 0
8514 8519 8516 8517 0
-8518 -8519 0
-8518 -8520 0
8518 8519 8520 0
-8639 -8522 0
-8639 -8523 0
8639 8522 8523 0
-8524 -8529 0
-8524 -8526 0
-8524 -8527 0
8524 8529 8526 8527 0
-8528 -8529 0
-8528 -8530 0
8528 8529 8530 0
-8647 -8532 0
-8647 -8533 0
8647 8532 8533 0
-8534 -8539 0
-8534 -8536 0
-8534 -8537 0
8534 8539 8536 8537 0
-8538 -8539 0
-8538 -8540 0
8538 8539 8540 0
-8655 -8542 0
-8655 -8543 0
8655 8542 8543 0
-8544 -8545 0
-8544 -8546 0
8544 8545 8546 0
-8547 -8548 0
-8547 -8549 0
8547 8548 8549 0
-8550 -8551 0
-8550 -8552 0
8550 8551 8552 0
-8553 -8554 0
-8553 -8558 0
8553 8554 8558 0
-8556 -8563 0
-8556 -8558 0
-8556 -8559 0
8556 8563 8558 8559 0
-8560 -8561 0
-8560 -8562 0
-8560 -8563 0
-8560 -8564 0
8560 8561 8562 8563 8564 0
-8565 -8566 0
-8565 -8567 0
8565 8566 8567 0
-8568 -8569 0
-8568 -8570 0
8568 8569 8570 0
-8571 -8572 0
-8571 -8576 0
8571 8572 8576 0
-8574 -8581 0
-8574 -8576 0
-8574 -8577 0
8574 8581 8576 8577 0
-8578 -8579 0
-8578 -8580 0
-8578 -8581 0
-8578 -8582 0
8578 8579 8580 8581 8582 0
-8583 -8584 0
-8583 -8585 0
8583 8584 8585 0
-8586 -8587 0
-8586 -8588 0
8586 8587 8588 0
-8589 -8590 0
-8589 -8594 0
8589 8590 8594 0
-8592 -8599 0
-8592 -8594 0
-8592 -8595 0
8592 8599 8594 8595 0
-8596 -8597 0
-8596 -8598 0
-8596 -8599 0
-8596 -8600 0
8596 8597 8598 8599 8600 0
-8601 -8602 0
-8601 -8603 0
8601 8602 8603 0
-8604 -8605 0
-8604 -8606 0
8604 8605 8606 0
-8607 -8608 0
-8607 -8612 0
8607 8608 8612 0
-8610 -8611 0
-8610 -8612 0
-8610 -8613 0
8610 8611 8612 8613 0
-8614 -8615 0
-8614 -8616 0
8614 8615 8616 0
-8617 -8618 0
-8617 -8619 0
8617 8618 8619 0
-8620 -8621 0
-8620 -8622 0
8620 8621 8622 0
-8623 -8624 0
-8623 -8625 0
8623 8624 8625 0
-8627 9191 0
8627 -9191 0
-8629 9193 0
8629 -9193 0
-8631 9192 0
8631 -9192 0
-8633 9194 0
8633 -9194 0
-8635 9209 0
8635 -9209 0
-8637 9211 0
8637 -9211 0
-8639 9210 0
8639 -9210 0
-8641 9212 0
8641 -9212 0
-8643 9227 0
8643 -9227 0
-8645 9229 0
8645 -9229 0
-8647 9228 0
8647 -9228 0
-8649 9230 0
8649 -9230 0
-8651 9094 0
8651 -9094 0
-8653 9241 0
8653 -9241 0
-8655 9100 0
8655 -9100 0
-8657 9096 0
8657 -9096 0
8819 9148 0
-8819 -9148 0
8816 9193 0
-8816 -9193 0
8825 9059 0
-8825 -9059 0
8822 9192 0
-8822 -9192 0
8831 9194 0
-8831 -9194 0
8828 9124 0
-8828 -9124 0
9150 9124 0
-9150 -9124 0
9146 9191 0
-9146 -9191 0
9147 9193 0
-9147 -9193 0
8962 9148 0
-8962 -9148 0
8837 9158 0
-8837 -9158 0
8834 9211 0
-8834 -9211 0
8843 9071 0
-8843 -9071 0
8840 9210 0
-8840 -9210 0
8849 9212 0
-8849 -9212 0
8846 9257 0
-8846 -9257 0
9160 9257 0
-9160 -9257 0
9156 9209 0
-9156 -9209 0
9157 9211 0
-9157 -9211 0
8976 9158 0
-8976 -9158 0
8855 9168 0
-8855 -9168 0
8852 9229 0
-8852 -9229 0
8861 9083 0
-8861 -9083 0
8858 9228 0
-8858 -9228 0
8867 9230 0
-8867 -9230 0
8864 9259 0
-8864 -9259 0
9170 9259 0
-9170 -9259 0
9166 9227 0
-9166 -9227 0
9167 9229 0
-9167 -9229 0
8990 9168 0
-8990 -9168 0
8873 9095 0
-8873 -9095 0
8870 9100 0
-8870 -9100 0
8879 9096 0
-8879 -9096 0
8876 9261 0
-8876 -9261 0
9175 9241 0
-9175 -9241 0
9015 9100 0
-9015 -9100 0
9091 9174 0
-9091 -9174 0
9099 9095 0
-9099 -9095 0
9178 9124 0
-9178 -9124 0
9179 9194 0
-9179 -9194 0
9181 9192 0
-9181 -9192 0
9184 9193 0
-9184 -9193 0
9189 9191 0
-9189 -9191 0
9102 9182 0
-9102 -9182 0
9196 9124 0
-9196 -9124 0
9197 9212 0
-9197 -9212 0
9199 9210 0
-9199 -9210 0
9202 9211 0
-9202 -9211 0
9207 9209 0
-9207 -9209 0
9108 9200 0
-9108 -9200 0
9214 9124 0
-9214 -9124 0
9215 9230 0
-9215 -9230 0
9217 9228 0
-9217 -9228 0
9220 9229 0
-9220 -9229 0
9225 9227 0
-9225 -9227 0
9114 9218 0
-9114 -9218 0
9232 9124 0
-9232 -9124 0
9233 9096 0
-9233 -9096 0
9235 9100 0
-9235 -9100 0
9238 9241 0
-9238 -9241 0
9243 9094 0
-9243 -9094 0
9120 9236 0
-9120 -9236 0
9021 9180 0
-9021 -9180 0
9018 9183 0
-9018 -9183 0
9022 8787 0
-9022 -8787 0
9019 8789 0
-9019 -8789 0
9027 8901 0
-9027 -8901 0
9024 8904 0
-9024 -8904 0
9028 8795 0
-9028 -8795 0
9025 8797 0
-9025 -8797 0
9033 8913 0
-9033 -8913 0
9030 8916 0
-9030 -8916 0
9034 8803 0
-9034 -8803 0
9031 8805 0
-9031 -8805 0
9039 8925 0
-9039 -8925 0
9036 8928 0
-9036 -8928 0
9040 8811 0
-9040 -8811 0
9037 8813 0
-9037 -8813 0
-8966 9148 0
-8966 8816 0
8966 -9148 -8816 0
-8967 9193 0
-8967 8819 0
8967 -9193 -8819 0
-9142 9059 0
-9142 8822 0
9142 -9059 -8822 0
-9143 9192 0
-9143 8825 0
9143 -9192 -8825 0
-8969 9194 0
-8969 8828 0
8969 -9194 -8828 0
-8970 9124 0
-8970 8831 0
8970 -9124 -8831 0
-8980 9158 0
-8980 8834 0
8980 -9158 -8834 0
-8981 9211 0
-8981 8837 0
8981 -9211 -8837 0
-9152 9071 0
-9152 8840 0
9152 -9071 -8840 0
-9153 9210 0
-9153 8843 0
9153 -9210 -8843 0
-8983 9212 0
-8983 8846 0
8983 -9212 -8846 0
-8984 9257 0
-8984 8849 0
8984 -9257 -8849 0
-8994 9168 0
-8994 8852 0
8994 -9168 -8852 0
-8995 9229 0
-8995 8855 0
8995 -9229 -8855 0
-9162 9083 0
-9162 8858 0
9162 -9083 -8858 0
-9163 9228 0
-9163 8861 0
9163 -9228 -8861 0
-8997 9230 0
-8997 8864 0
8997 -9230 -8864 0
-8998 9259 0
-8998 8867 0
8998 -9259 -8867 0
-9172 9095 0
-9172 8870 0
9172 -9095 -8870 0
-9173 9100 0
-9173 8873 0
9173 -9100 -8873 0
-9011 9096 0
-9011 8876 0
9011 -9096 -8876 0
-9012 9261 0
-9012 8879 0
9012 -9261 -8879 0
-9176 9099 0
-9176 9100 0
9176 -9099 -9100 0
9257 9051 0
9257 9053 0
-9257 -9051 -9053 0
9259 -8966 0
9259 -8967 0
-9259 8966 8967 0
-9261 -9142 0
-9261 -9143 0
9261 9142 9143 0
-8920 9190 0
-8920 9208 0
8920 -9190 -9208 0
-8932 8920 0
-8932 9226 0
8932 -8920 -9226 0
-8941 9190 0
-8941 9195 0
8941 -9190 -9195 0
-8901 9190 0
-8901 9198 0
8901 -9190 -9198 0
-8904 9190 0
-8904 9201 0
8904 -9190 -9201 0
-8950 9190 0
-8950 9204 0
8950 -9190 -9204 0
-8947 8920 0
-8947 9213 0
8947 -8920 -9213 0
-8913 8920 0
-8913 9216 0
8913 -8920 -9216 0
-8916 8920 0
-8916 9219 0
8916 -8920 -9219 0
-8956 8920 0
-8956 9222 0
8956 -8920 -9222 0
-8953 8932 0
-8953 9231 0
8953 -8932 -9231 0
-8925 8932 0
-8925 9234 0
8925 -8932 -9234 0
-8928 8932 0
-8928 9237 0
8928 -8932 -9237 0
-8959 8932 0
-8959 9240 0
8959 -8932 -9240 0
-9245 9177 0
-9245 8936 0
9245 -9177 -8936 0
-9246 9124 0
-9246 8939 0
9246 -9124 -8939 0
-9248 8941 0
-9248 8942 0
9248 -8941 -8942 0
-9249 9186 0
-9249 8945 0
9249 -9186 -8945 0
-9251 8947 0
-9251 8948 0
9251 -8947 -8948 0
-9252 8950 0
-9252 8951 0
9252 -8950 -8951 0
-9254 8953 0
-9254 8954 0
9254 -8953 -8954 0
-9255 8956 0
-9255 8957 0
9255 -8956 -8957 0
-8958 8959 0
-8958 8960 0
8958 -8959 -8960 0
9051 -8962 0
9051 -9191 0
9051 -9147 0
-9051 8962 9191 9147 0
9263 -8969 0
9263 -8970 0
-9263 8969 8970 0
9054 -9149 0
9054 -9147 0
9054 -9150 0
-9054 9149 9147 9150 0
9063 -8976 0
9063 -9209 0
9063 -9157 0
-9063 8976 9209 9157 0
9267 -8980 0
9267 -8981 0
-9267 8980 8981 0
9271 -8983 0
9271 -8984 0
-9271 8983 8984 0
9066 -9159 0
9066 -9157 0
9066 -9160 0
-9066 9159 9157 9160 0
9075 -8990 0
9075 -9227 0
9075 -9167 0
-9075 8990 9227 9167 0
9275 -8994 0
9275 -8995 0
-9275 8994 8995 0
9279 -8997 0
9279 -8998 0
-9279 8997 8998 0
9078 -9169 0
9078 -9167 0
9078 -9170 0
-9078 9169 9167 9170 0
9087 -9098 0
9087 -9094 0
9087 -9175 0
-9087 9098 9094 9175 0
9090 -9098 0
9090 -9241 0
-9090 9098 9241 0
9287 -9011 0
9287 -9012 0
-9287 9011 9012 0
9093 -9095 0
9093 -9015 0
9093 -9175 0
-9093 9095 9015 9175 0
9126 -9018 0
9126 -9019 0
-9126 9018 9019 0
9127 -9021 0
9127 -9022 0
-9127 9021 9022 0
9130 -9024 0
9130 -9025 0
-9130 9024 9025 0
9131 -9027 0
9131 -9028 0
-9131 9027 9028 0
9134 -9030 0
9134 -9031 0
-9134 9030 9031 0
9135 -9033 0
9135 -9034 0
-9135 9033 9034 0
9138 -9036 0
9138 -9037 0
-9138 9036 9037 0
9139 -9039 0
9139 -9040 0
-9139 9039 9040 0
9045 -9125 0
9045 -9129 0
-9045 9125 9129 0
9048 -9045 0
9048 -9133 0
-9048 9045 9133 0
9047 -9048 0
9047 -9137 0
-9047 9048 9137 0
9053 9054 0
9053 9191 0
-9053 -9054 -9191 0
9149 9194 0
9149 9192 0
-9149 -9194 -9192 0
9059 9194 0
9059 9124 0
-9059 -9194 -9124 0
9265 9063 0
9265 9065 0
-9265 -9063 -9065 0
9065 9066 0
9065 9209 0
-9065 -9066 -9209 0
9159 9212 0
9159 9210 0
-9159 -9212 -9210 0
9071 9212 0
9071 9257 0
-9071 -9212 -9257 0
9273 9075 0
9273 9077 0
-9273 -9075 -9077 0
9077 9078 0
9077 9227 0
-9077 -9078 -9227 0
9169 9230 0
9169 9228 0
-9169 -9230 -9228 0
9083 9230 0
9083 9259 0
-9083 -9230 -9259 0
9281 9087 0
9281 9092 0
-9281 -9087 -9092 0
9283 9090 0
9283 9091 0
-9283 -9090 -9091 0
9092 9093 0
9092 9094 0
-9092 -9093 -9094 0
9095 9096 0
9095 9261 0
-9095 -9096 -9261 0
9098 9099 0
9098 9100 0
-9098 -9099 -9100 0
9188 9102 0
9188 9181 0
-9188 -9102 -9181 0
9182 9179 0
9182 9124 0
-9182 -9179 -9124 0
9206 9108 0
9206 9199 0
-9206 -9108 -9199 0
9200 9197 0
9200 9124 0
-9200 -9197 -9124 0
9224 9114 0
9224 9217 0
-9224 -9114 -9217 0
9218 9215 0
9218 9124 0
-9218 -9215 -9124 0
9242 9120 0
9242 9235 0
-9242 -9120 -9235 0
9236 9233 0
9236 9124 0
-9236 -9233 -9124 0
9125 9126 0
9125 9127 0
9125 9244 0
-9125 -9126 -9127 -9244 0
9129 9130 0
9129 9131 0
9129 9247 0
-9129 -9130 -9131 -9247 0
9133 9134 0
9133 9135 0
9133 9250 0
-9133 -9134 -9135 -9250 0
9137 9138 0
9137 9139 0
9137 9253 0
-9137 -9138 -9139 -9253 0
-9144 -9149 0
-9144 -9146 0
-9144 -9147 0
9144 9149 9146 9147 0
-9148 -9149 0
-9148 -9150 0
9148 9149 9150 0
-9269 -9152 0
-9269 -9153 0
9269 9152 9153 0
-9154 -9159 0
-9154 -9156 0
-9154 -9157 0
9154 9159 9156 9157 0
-9158 -9159 0
-9158 -9160 0
9158 9159 9160 0
-9277 -9162 0
-9277 -9163 0
9277 9162 9163 0
-9164 -9169 0
-9164 -9166 0
-9164 -9167 0
9164 9169 9166 9167 0
-9168 -9169 0
-9168 -9170 0
9168 9169 9170 0
-9285 -9172 0
-9285 -9173 0
9285 9172 9173 0
-9174 -9175 0
-9174 -9176 0
9174 9175 9176 0
-9177 -9178 0
-9177 -9179 0
9177 9178 9179 0
-9180 -9181 0
-9180 -9182 0
9180 9181 9182 0
-9183 -9184 0
-9183 -9188 0
9183 9184 9188 0
-9186 -9193 0
-9186 -9188 0
-9186 -9189 0
9186 9193 9188 9189 0
-9190 -9191 0
-9190 -9192 0
-9190 -9193 0
-9190 -9194 0
9190 9191 9192 9193 9194 0
-9195 -9196 0
-9195 -9197 0
9195 9196 9197 0
-9198 -9199 0
-9198 -9200 0
9198 9199 9200 0
-9201 -9202 0
-9201 -9206 0
9201 9202 9206 0
-9204 -9211 0
-9204 -9206 0
-9204 -9207 0
9204 9211 9206 9207 0
-9208 -9209 0
-9208 -9210 0
-9208 -9211 0
-9208 -9212 0
9208 9209 9210 9211 9212 0
-9213 -9214 0
-9213 -9215 0
9213 9214 9215 0
-9216 -9217 0
-9216 -9218 0
9216 9217 9218 0
-9219 -9220 0
-9219 -9224 0
9219 9220 9224 0
-9222 -9229 0
-9222 -9224 0
-9222 -9225 0
9222 9229 9224 9225 0
-9226 -9227 0
-9226 -9228 0
-9226 -9229 0
-9226 -9230 0
9226 9227 9228 9229 9230 0
-9231 -9232 0
-9231 -9233 0
9231 9232 9233 0
-9234 -9235 0
-9234 -9236 0
9234 9235 9236 0
-9237 -9238 0
-9237 -9242 0
9237 9238 9242 0
-9240 -9241 0
-9240 -9242 0
-9240 -9243 0
9240 9241 9242 9243 0
-9244 -9245 0
-9244 -9246 0
9244 9245 9246 0
-9247 -9248 0
-9247 -9249 0
9247 9248 9249 0
-9250 -9251 0
-9250 -9252 0
9250 9251 9252 0
-9253 -9254 0
-9253 -9255 0
9253 9254 9255 0
-9257 9821 0
9257 -9821 0
-9259 9823 0
9259 -9823 0
-9261 9822 0
9261 -9822 0
-9263 9824 0
9263 -9824 0
-9265 9839 0
9265 -9839 0
-9267 9841 0
9267 -9841 0
-9269 9840 0
9269 -9840 0
-9271 9842 0
9271 -9842 0
-9273 9857 0
9273 -9857 0
-9275 9859 0
9275 -9859 0
-9277 9858 0
9277 -9858 0
-9279 9860 0
9279 -9860 0
-9281 9724 0
9281 -9724 0
-9283 9871 0
9283 -9871 0
-9285 9730 0
9285 -9730 0
-9287 9726 0
9287 -9726 0
9449 9778 0
-9449 -9778 0
9446 9823 0
-9446 -9823 0
9455 9689 0
-9455 -9689 0
9452 9822 0
-9452 -9822 0
9461 9824 0
-9461 -9824 0
9458 9754 0
-9458 -9754 0
9780 9754 0
-9780 -9754 0
9776 9821 0
-9776 -9821 0
9777 9823 0
-9777 -9823 0
9592 9778 0
-9592 -9778 0
9467 9788 0
-9467 -9788 0
9464 9841 0
-9464 -9841 0
9473 9701 0
-9473 -9701 0
9470 9840 0
-9470 -9840 0
9479 9842 0
-9479 -9842 0
9476 9887 0
-9476 -9887 0
9790 9887 0
-9790 -9887 0
9786 9839 0
-9786 -9839 0
9787 9841 0
-9787 -9841 0
9606 9788 0
-9606 -9788 0
9485 9798 0
-9485 -9798 0
9482 9859 0
-9482 -9859 0
9491 9713 0
-9491 -9713 0
9488 9858 0
-9488 -9858 0
9497 9860 0
-9497 -9860 0
9494 9889 0
-9494 -9889 0
9800 9889 0
-9800 -9889 0
9796 9857 0
-9796 -9857 0
9797 9859 0
-9797 -9859 0
9620 9798 0
-9620 -9798 0
9503 9725 0
-9503 -9725 0
9500 9730 0
-9500 -9730 0
9509 9726 0
-9509 -9726 0
9506 9891 0
-9506 -9891 0
9805 9871 0
-9805 -9871 0
9645 9730 0
-9645 -9730 0
9721 9804 0
-9721 -9804 0
9729 9725 0
-9729 -9725 0
9808 9754 0
-9808 -9754 0
9809 9824 0
-9809 -9824 0
9811 9822 0
-9811 -9822 0
9814 9823 0
-9814 -9823 0
9819 9821 0
-9819 -9821 0
9732 9812 0
-9732 -9812 0
9826 9754 0
-9826 -9754 0
9827 9842 0
-9827 -9842 0
9829 9840 0
-9829 -9840 0
9832 9841 0
-9832 -9841 0
9837 9839 0
-9837 -9839 0
9738 9830 0
-9738 -9830 0
9844 9754 0
-9844 -9754 0
9845 9860 0
-9845 -9860 0
9847 9858 0
-9847 -9858 0
9850 9859 0
-9850 -9859 0
9855 9857 0
-9855 -9857 0
9744 9848 0
-9744 -9848 0
9862 9754 0
-9862 -9754 0
9863 9726 0
-9863 -9726 0
9865 9730 0
-9865 -9730 0
9868 9871 0
-9868 -9871 0
9873 9724 0
-9873 -9724 0
9750 9866 0
-9750 -9866 0
9651 9810 0
-9651 -9810 0
9648 9813 0
-9648 -9813 0
9652 9417 0
-9652 -9417 0
9649 9419 0
-9649 -9419 0
9657 9531 0
-9657 -9531 0
9654 9534 0
-9654 -9534 0
9658 9425 0
-9658 -9425 0
9655 9427 0
-9655 -9427 0
9663 9543 0
-9663 -9543 0
9660 9546 0
-9660 -9546 0
9664 9433 0
-9664 -9433 0
9661 9435 0
-9661 -9435 0
9669 9555 0
-9669 -9555 0
9666 9558 0
-9666 -9558 0
9670 9441 0
-9670 -9441 0
9667 9443 0
-9667 -9443 0
-9596 9778 0
-9596 9446 0
9596 -9778 -9446 0
-9597 9823 0
-9597 9449 0
9597 -9823 -9449 0
-9772 9689 0
-9772 9452 0
9772 -9689 -9452 0
-9773 9822 0
-9773 9455 0
9773 -9822 -9455 0
-9599 9824 0
-9599 9458 0
9599 -9824 -9458 0
-9600 9754 0
-9600 9461 0
9600 -9754 -9461 0
-9610 9788 0
-9610 9464 0
9610 -9788 -9464 0
-9611 9841 0
-9611 9467 0
9611 -9841 -9467 0
-9782 9701 0
-9782 9470 0
9782 -9701 -9470 0
-9783 9840 0
-9783 9473 0
9783 -9840 -9473 0
-9613 9842 0
-9613 9476 0
9613 -9842 -9476 0
-9614 9887 0
-9614 9479 0
9614 -9887 -9479 0
-9624 9798 0
-9624 9482 0
9624 -9798 -9482 0
-9625 9859 0
-9625 9485 0
9625 -9859 -9485 0
-9792 9713 0
-9792 9488 0
9792 -9713 -9488 0
-9793 9858 0
-9793 9491 0
9793 -9858 -9491 0
-9627 9860 0
-9627 9494 0
9627 -9860 -9494 0
-9628 9889 0
-9628 9497 0
9628 -9889 -9497 0
-9802 9725 0
-9802 9500 0
9802 -9725 -9500 0
-9803 9730 0
-9803 9503 0
9803 -9730 -9503 0
-9641 9726 0
-9641 9506 0
9641 -9726 -9506 0
-9642 9891 0
-9642 9509 0
9642 -9891 -9509 0
-9806 9729 0
-9806 9730 0
9806 -9729 -9730 0
9887 9681 0
9887 9683 0
-9887 -9681 -9683 0
9889 -9596 0
9889 -9597 0
-9889 9596 9597 0
-9891 -9772 0
-9891 -9773 0
9891 9772 9773 0
-9550 9820 0
-9550 9838 0
9550 -9820 -9838 0
-9562 9550 0
-9562 9856 0
9562 -9550 -9856 0
-9571 9820 0
-9571 9825 0
9571 -9820 -9825 0
-9531 9820 0
-9531 9828 0
9531 -9820 -9828 0
-9534 9820 0
-9534 9831 0
9534 -9820 -9831 0
-9580 9820 0
-9580 9834 0
9580 -9820 -9834 0
-9577 9550 0
-9577 9843 0
9577 -9550 -9843 0
-9543 9550 0
-9543 9846 0
9543 -9550 -9846 0
-9546 9550 0
-9546 9849 0
9546 -9550 -9849 0
-9586 9550 0
-9586 9852 0
9586 -9550 -9852 0
-9583 9562 0
-9583 9861 0
9583 -9562 -9861 0
-9555 9562 0
-9555 9864 0
9555 -9562 -9864 0
-9558 9562 0
-9558 9867 0
9558 -9562 -9867 0
-9589 9562 0
-9589 9870 0
9589 -9562 -9870 0
-9875 9807 0
-9875 9566 0
9875 -9807 -9566 0
-9876 9754 0
-9876 9569 0
9876 -9754 -9569 0
-9878 9571 0
-9878 9572 0
9878 -9571 -9572 0
-9879 9816 0
-9879 9575 0
9879 -9816 -9575 0
-9881 9577 0
-9881 9578 0
9881 -9577 -9578 0
-9882 9580 0
-9882 9581 0
9882 -9580 -9581 0
-9884 9583 0
-9884 9584 0
9884 -9583 -9584 0
-9885 9586 0
-9885 9587 0
9885 -9586 -9587 0
-9588 9589 0
-9588 9590 0
9588 -9589 -9590 0
9681 -9592 0
9681 -9821 0
9681 -9777 0
-9681 9592 9821 9777 0
9893 -9599 0
9893 -9600 0
-9893 9599 9600 0
9684 -9779 0
9684 -9777 0
9684 -9780 0
-9684 9779 9777 9780 0
9693 -9606 0
9693 -9839 0
9693 -9787 0
-9693 9606 9839 9787 0
9897 -9610 0
9897 -9611 0
-9897 9610 9611 0
9901 -9613 0
9901 -9614 0
-9901 9613 9614 0
9696 -9789 0
9696 -9787 0
9696 -9790 0
-9696 9789 9787 9790 0
9705 -9620 0
9705 -9857 0
9705 -9797 0
-9705 9620 9857 9797 0
9905 -9624 0
9905 -9625 0
-9905 9624 9625 0
9909 -9627 0
9909 -9628 0
-9909 9627 9628 0
9708 -9799 0
9708 -9797 0
9708 -9800 0
-9708 9799 9797 9800 0
9717 -9728 0
9717 -9724 0
9717 -9805 0
-9717 9728 9724 9805 0
9720 -9728 0
9720 -9871 0
-9720 9728 9871 0
9917 -9641 0
9917 -9642 0
-9917 9641 9642 0
9723 -9725 0
9723 -9645 0
9723 -9805 0
-9723 9725 9645 9805 0
9756 -9648 0
9756 -9649 0
-9756 9648 9649 0
9757 -9651 0
9757 -9652 0
-9757 9651 9652 0
9760 -9654 0
9760 -9655 0
-9760 9654 9655 0
9761 -9657 0
9761 -9658 0
-9761 9657 9658 0
9764 -9660 0
9764 -9661 0
-9764 9660 9661 0
9765 -9663 0
9765 -9664 0
-9765 9663 9664 0
9768 -9666 0
9768 -9667 0
-9768 9666 9667 0
9769 -9669 0
9769 -9670 0
-9769 9669 9670 0
9675 -9755 0
9675 -9759 0
-9675 9755 9759 0
9678 -9675 0
9678 -9763 0
-9678 9675 9763 0
9677 -9678 0
9677 -9767 0
-9677 9678 9767 0
9683 9684 0
9683 9821 0
-9683 -9684 -9821 0
9779 9824 0
9779 9822 0
-9779 -9824 -9822 0
9689 9824 0
9689 9754 0
-9689 -9824 -9754 0
9895 9693 0
9895 9695 0
-9895 -9693 -9695 0
9695 9696 0
9695 9839 0
-9695 -9696 -9839 0
9789 9842 0
9789 9840 0
-9789 -9842 -9840 0
9701 9842 0
9701 9887 0
-9701 -9842 -9887 0
9903 9705 0
9903 9707 0
-9903 -9705 -9707 0
9707 9708 0
9707 9857 0
-9707 -9708 -9857 0
9799 9860 0
9799 9858 0
-9799 -9860 -9858 0
9713 9860 0
9713 9889 0
-9713 -9860 -9889 0
9911 9717 0
9911 9722 0
-9911 -9717 -9722 0
9913 9720 0
9913 9721 0
-9913 -9720 -9721 0
9722 9723 0
9722 9724 0
-9722 -9723 -9724 0
9725 9726 0
9725 9891 0
-9725 -9726 -9891 0
9728 9729 0
9728 9730 0
-9728 -9729 -9730 0
9818 9732 0
9818 9811 0
-9818 -9732 -9811 0
9812 9809 0
9812 9754 0
-9812 -9809 -9754 0
9836 9738 0
9836 9829 0
-9836 -9738 -9829 0
9830 9827 0
9830 9754 0
-9830 -9827 -9754 0
9854 9744 0
9854 9847 0
-9854 -9744 -9847 0
9848 9845 0
9848 9754 0
-9848 -9845 -9754 0
9872 9750 0
9872 9865 0
-9872 -9750 -9865 0
9866 9863 0
9866 9754 0
-9866 -9863 -9754 0
9755 9756 0
9755 9757 0
9755 9874 0
-9755 -9756 -9757 -9874 0
9759 9760 0
9759 9761 0
9759 9877 0
-9759 -9760 -9761 -9877 0
9763 9764 0
9763 9765 0
9763 9880 0
-9763 -9764 -9765 -9880 0
9767 9768 0
9767 9769 0
9767 9883 0
-9767 -9768 -9769 -9883 0
-9774 -9779 0
-9774 -9776 0
-9774 -9777 0
9774 9779 9776 9777 0
-9778 -9779 0
-9778 -9780 0
9778 9779 9780 0
-9899 -9782 0
-9899 -9783 0
9899 9782 9783 0
-9784 -9789 0
-9784 -9786 0
-9784 -9787 0
9784 9789 9786 9787 0
-9788 -9789 0
-9788 -9790 0
9788 9789 9790 0
-9907 -9792 0
-9907 -9793 0
9907 9792 9793 0
-9794 -9799 0
-9794 -9796 0
-9794 -9797 0
9794 9799 9796 9797 0
-9798 -9799 0
-9798 -9800 0
9798 9799 9800 0
-9915 -9802 0
-9915 -9803 0
9915 9802 9803 0
-9804 -9805 0
-9804 -9806 0
9804 9805 9806 0
-9807 -9808 0
-9807 -9809 0
9807 9808 9809 0
-9810 -9811 0
-9810 -9812 0
9810 9811 9812 0
-9813 -9814 0
-9813 -9818 0
9813 9814 9818 0
-9816 -9823 0
-9816 -9818 0
-9816 -9819 0
9816 9823 9818 9819 0
-9820 -9821 0
-9820 -9822 0
-9820 -9823 0
-9820 -9824 0
9820 9821 9822 9823 9824 0
-9825 -9826 0
-9825 -9827 0
9825 9826 9827 0
-9828 -9829 0
-9828 -9830 0
9828 9829 9830 0
-9831 -9832 0
-9831 -9836 0
9831 9832 9836 0
-9834 -9841 0
-9834 -9836 0
-9834 -9837 0
9834 9841 9836 9837 0
-9838 -9839 0
-9838 -9840 0
-9838 -9841 0
-9838 -9842 0
9838 9839 9840 9841 9842 0
-9843 -9844 0
-9843 -9845 0
9843 9844 9845 0
-9846 -9847 0
-9846 -9848 0
9846 9847 9848 0
-9849 -9850 0
-9849 -9854 0
9849 9850 9854 0
-9852 -9859 0
-9852 -9854 0
-9852 -9855 0
9852 9859 9854 9855 0
-9856 -9857 0
-9856 -9858 0
-9856 -9859 0
-9856 -9860 0
9856 9857 9858 9859 9860 0
-9861 -9862 0
-9861 -9863 0
9861 9862 9863 0
-9864 -9865 0
-9864 -9866 0
9864 9865 9866 0
-9867 -9868 0
-9867 -9872 0
9867 9868 9872 0
-9870 -9871 0
-9870 -9872 0
-9870 -9873 0
9870 9871 9872 9873 0
-9874 -9875 0
-9874 -9876 0
9874 9875 9876 0
-9877 -9878 0
-9877 -9879 0
9877 9878 9879 0
-9880 -9881 0
-9880 -9882 0
9880 9881 9882 0
-9883 -9884 0
-9883 -9885 0
9883 9884 9885 0
-9887 10451 0
9887 -10451 0
-9889 10453 0
9889 -10453 0
-9891 10452 0
9891 -10452 0
-9893 10454 0
9893 -10454 0
-9895 10469 0
9895 -10469 0
-9897 10471 0
9897 -10471 0
-9899 10470 0
9899 -10470 0
-9901 10472 0
9901 -10472 0
-9903 10487 0
9903 -10487 0
-9905 10489 0
9905 -10489 0
-9907 10488 0
9907 -10488 0
-9909 10490 0
9909 -10490 0
-9911 10354 0
9911 -10354 0
-9913 10501 0
9913 -10501 0
-9915 10360 0
9915 -10360 0
-9917 10356 0
9917 -10356 0
10079 10408 0
-10079 -10408 0
10076 10453 0
-10076 -10453 0
10085 10319 0
-10085 -10319 0
10082 10452 0
-10082 -10452 0
10091 10454 0
-10091 -10454 0
10088 10384 0
-10088 -10384 0
10410 10384 0
-10410 -10384 0
10406 10451 0
-10406 -10451 0
10407 10453 0
-10407 -10453 0
10222 10408 0
-10222 -10408 0
10097 10418 0
-10097 -10418 0
10094 10471 0
-10094 -10471 0
10103 10331 0
-10103 -10331 0
10100 10470 0
-10100 -10470 0
10109 10472 0
-10109 -10472 0
10106 10517 0
-10106 -10517 0
10420 10517 0
-10420 -10517 0
10416 10469 0
-10416 -10469 0
10417 10471 0
-10417 -10471 0
10236 10418 0
-10236 -10418 0
10115 10428 0
-10115 -10428 0
10112 10489 0
-10112 -10489 0
10121 10343 0
-10121 -10343 0
10118 10488 0
-10118 -10488 0
10127 10490 0
-10127 -10490 0
10124 10519 0
-10124 -10519 0
10430 10519 0
-10430 -10519 0
10426 10487 0
-10426 -10487 0
10427 10489 0
-10427 -10489 0
10250 10428 0
-10250 -10428 0
10133 10355 0
-10133 -10355 0
10130 10360 0
-10130 -10360 0
10139 10356 0
-10139 -10356 0
10136 10521 0
-10136 -10521 0
10435 10501 0
-10435 -10501 0
10275 10360 0
-10275 -10360 0
10351 10434 0
-10351 -10434 0
10359 10355 0
-10359 -10355 0
10438 10384 0
-10438 -10384 0
10439 10454 0
-10439 -10454 0
10441 10452 0
-10441 -10452 0
10444 10453 0
-10444 -10453 0
10449 10451 0
-10449 -10451 0
10362 10442 0
-10362 -10442 0
10456 10384 0
-10456 -10384 0
10457 10472 0
-10457 -10472 0
10459 10470 0
-10459 -10470 0
10462 10471 0
-10462 -10471 0
10467 10469 0
-10467 -10469 0
10368 10460 0
-10368 -10460 0
10474 10384 0
-10474 -10384 0
10475 10490 0
-10475 -10490 0
10477 10488 0
-10477 -10488 0
10480 10489 0
-10480 -10489 0
10485 10487 0
-10485 -10487 0
10374 10478 0
-10374 -10478 0
10492 10384 0
-10492 -10384 0
10493 10356 0
-10493 -10356 0
10495 10360 0
-10495 -10360 0
10498 10501 0
-10498 -10501 0
10503 10354 0
-10503 -10354 0
10380 10496 0
-10380 -10496 0
10281 10440 0
-10281 -10440 0
10278 10443 0
-10278 -10443 0
10282 10047 0
-10282 -10047 0
10279 10049 0
-10279 -10049 0
10287 10161 0
-10287 -10161 0
10284 10164 0
-10284 -10164 0
10288 10055 0
-10288 -10055 0
10285 10057 0
-10285 -10057 0
10293 10173 0
-10293 -10173 0
10290 10176 0
-10290 -10176 0
10294 10063 0
-10294 -10063 0
10291 10065 0
-10291 -10065 0
10299 10185 0
-10299 -10185 0
10296 10188 0
-10296 -10188 0
10300 10071 0
-10300 -10071 0
10297 10073 0
-10297 -10073 0
-10226 10408 0
-10226 10076 0
10226 -10408 -10076 0
-10227 10453 0
-10227 10079 0
10227 -10453 -10079 0
-10402 10319 0
-10402 10082 0
10402 -10319 -10082 0
-10403 10452 0
-10403 10085 0
10403 -10452 -10085 0
-10229 10454 0
-10229 10088 0
10229 -10454 -10088 0
-10230 10384 0
-10230 10091 0
10230 -10384 -10091 0
-10240 10418 0
-10240 10094 0
10240 -10418 -10094 0
-10241 10471 0
-10241 10097 0
10241 -10471 -10097 0
-10412 10331 0
-10412 10100 0
10412 -10331 -10100 0
-10413 10470 0
-10413 10103 0
10413 -10470 -10103 0
-10243 10472 0
-10243 10106 0
10243 -10472 -10106 0
-10244 10517 0
-10244 10109 0
10244 -10517 -10109 0
-10254 10428 0
-10254 10112 0
10254 -10428 -10112 0
-10255 10489 0
-10255 10115 0
10255 -10489 -10115 0
-10422 10343 0
-10422 10118 0
10422 -10343 -10118 0
-10423 10488 0
-10423 10121 0
10423 -10488 -10121 0
-10257 10490 0
-10257 10124 0
10257 -10490 -10124 0
-10258 10519 0
-10258 10127 0
10258 -10519 -10127 0
-10432 10355 0
-10432 10130 0
10432 -10355 -10130 0
-10433 10360 0
-10433 10133 0
10433 -10360 -10133 0
-10271 10356 0
-10271 10136 0
10271 -10356 -10136 0
-10272 10521 0
-10272 10139 0
10272 -10521 -10139 0
-10436 10359 0
-10436 10360 0
10436 -10359 -10360 0
10517 10311 0
10517 10313 0
-10517 -10311 -10313 0
10519 -10226 0
10519 -10227 0
-10519 10226 10227 0
-10521 -10402 0
-10521 -10403 0
10521 10402 10403 0
-10180 10450 0
-10180 10468 0
10180 -10450 -10468 0
-10192 10180 0
-10192 10486 0
10192 -10180 -10486 0
-10201 10450 0
-10201 10455 0
10201 -10450 -10455 0
-10161 10450 0
-10161 10458 0
10161 -10450 -10458 0
-10164 10450 0
-10164 10461 0
10164 -10450 -10461 0
-10210 10450 0
-10210 10464 0
10210 -10450 -10464 0
-10207 10180 0
-10207 10473 0
10207 -10180 -10473 0
-10173 10180 0
-10173 10476 0
10173 -10180 -10476 0
-10176 10180 0
-10176 10479 0
10176 -10180 -10479 0
-10216 10180 0
-10216 10482 0
10216 -10180 -10482 0
-10213 10192 0
-10213 10491 0
10213 -10192 -10491 0
-10185 10192 0
-10185 10494 0
10185 -10192 -10494 0
-10188 10192 0
-10188 10497 0
10188 -10192 -10497 0
-10219 10192 0
-10219 10500 0
10219 -10192 -10500 0
-10505 10437 0
-10505 10196 0
10505 -10437 -10196 0
-10506 10384 0
-10506 10199 0
10506 -10384 -10199 0
-10508 10201 0
-10508 10202 0
10508 -10201 -10202 0
-10509 10446 0
-10509 10205 0
10509 -10446 -10205 0
-10511 10207 0
-10511 10208 0
10511 -10207 -10208 0
-10512 10210 0
-10512 10211 0
10512 -10210 -10211 0
-10514 10213 0
-10514 10214 0
10514 -10213 -10214 0
-10515 10216 0
-10515 10217 0
10515 -10216 -10217 0
-10218 10219 0
-10218 10220 0
10218 -10219 -10220 0
10311 -10222 0
10311 -10451 0
10311 -10407 0
-10311 10222 10451 10407 0
10523 -10229 0
10523 -10230 0
-10523 10229 10230 0
10314 -10409 0
10314 -10407 0
10314 -10410 0
-10314 10409 10407 10410 0
10323 -10236 0
10323 -10469 0
10323 -10417 0
-10323 10236 10469 10417 0
10527 -10240 0
10527 -10241 0
-10527 10240 10241 0
10531 -10243 0
10531 -10244 0
-10531 10243 10244 0
10326 -10419 0
10326 -10417 0
10326 -10420 0
-10326 10419 10417 10420 0
10335 -10250 0
10335 -10487 0
10335 -10427 0
-10335 10250 10487 10427 0
10535 -10254 0
10535 -10255 0
-10535 10254 10255 0
10539 -10257 0
10539 -10258 0
-10539 10257 10258 0
10338 -10429 0
10338 -10427 0
10338 -10430 0
-10338 10429 10427 10430 0
10347 -10358 0
10347 -10354 0
10347 -10435 0
-10347 10358 10354 10435 0
10350 -10358 0
10350 -10501 0
-10350 10358 10501 0
10547 -10271 0
10547 -10272 0
-10547 10271 10272 0
10353 -10355 0
10353 -10275 0
10353 -10435 0
-10353 10355 10275 10435 0
10386 -10278 0
10386 -10279 0
-10386 10278 10279 0
10387 -10281 0
10387 -10282 0
-10387 10281 10282 0
10390 -10284 0
10390 -10285 0
-10390 10284 10285 0
10391 -10287 0
10391 -10288 0
-10391 10287 10288 0
10394 -10290 0
10394 -10291 0
-10394 10290 10291 0
10395 -10293 0
10395 -10294 0
-10395 10293 10294 0
10398 -10296 0
10398 -10297 0
-10398 10296 10297 0
10399 -10299 0
10399 -10300 0
-10399 10299 10300 0
10305 -10385 0
10305 -10389 0
-10305 10385 10389 0
10308 -10305 0
10308 -10393 0
-10308 10305 10393 0
10307 -10308 0
10307 -10397 0
-10307 10308 10397 0
10313 10314 0
10313 10451 0
-10313 -10314 -10451 0
10409 10454 0
10409 10452 0
-10409 -10454 -10452 0
10319 10454 0
10319 10384 0
-10319 -10454 -10384 0
10525 10323 0
10525 10325 0
-10525 -10323 -10325 0
10325 10326 0
10325 10469 0
-10325 -10326 -10469 0
10419 10472 0
10419 10470 0
-10419 -10472 -10470 0
10331 10472 0
10331 10517 0
-10331 -10472 -10517 0
10533 10335 0
10533 10337 0
-10533 -10335 -10337 0
10337 10338 0
10337 10487 0
-10337 -10338 -10487 0
10429 10490 0
10429 10488 0
-10429 -10490 -10488 0
10343 10490 0
10343 10519 0
-10343 -10490 -10519 0
10541 10347 0
10541 10352 0
-10541 -10347 -10352 0
10543 10350 0
10543 10351 0
-10543 -10350 -10351 0
10352 10353 0
10352 10354 0
-10352 -10353 -10354 0
10355 10356 0
10355 10521 0
-10355 -10356 -10521 0
10358 10359 0
10358 10360 0
-10358 -10359 -10360 0
10448 10362 0
10448 10441 0
-10448 -10362 -10441 0
10442 10439 0
10442 10384 0
-10442 -10439 -10384 0
10466 10368 0
10466 10459 0
-10466 -10368 -10459 0
10460 10457 0
10460 10384 0
-10460 -10457 -10384 0
10484 10374 0
10484 10477 0
-10484 -10374 -10477 0
10478 10475 0
10478 10384 0
-10478 -10475 -10384 0
10502 10380 0
10502 10495 0
-10502 -10380 -10495 0
10496 10493 0
10496 10384 0
-10496 -10493 -10384 0
10385 10386 0
10385 10387 0
10385 10504 0
-10385 -10386 -10387 -10504 0
10389 10390 0
10389 10391 0
10389 10507 0
-10389 -10390 -10391 -10507 0
10393 10394 0
10393 10395 0
10393 10510 0
-10393 -10394 -10395 -10510 0
10397 10398 0
10397 10399 0
10397 10513 0
-10397 -10398 -10399 -10513 0
-10404 -10409 0
-10404 -10406 0
-10404 -10407 0
10404 10409 10406 10407 0
-10408 -10409 0
-10408 -10410 0
10408 10409 10410 0
-10529 -10412 0
-10529 -10413 0
10529 10412 10413 0
-10414 -10419 0
-10414 -10416 0
-10414 -10417 0
10414 10419 10416 10417 0
-10418 -10419 0
-10418 -10420 0
10418 10419 10420 0
-10537 -10422 0
-10537 -10423 0
10537 10422 10423 0
-10424 -10429 0
-10424 -10426 0
-10424 -10427 0
10424 10429 10426 10427 0
-10428 -10429 0
-10428 -10430 0
10428 10429 10430 0
-10545 -10432 0
-10545 -10433 0
10545 10432 10433 0
-10434 -10435 0
-10434 -10436 0
10434 10435 10436 0
-10437 -10438 0
-10437 -10439 0
10437 10438 10439 0
-10440 -10441 0
-10440 -10442 0
10440 10441 10442 0
-10443 -10444 0
-10443 -10448 0
10443 10444 10448 0
-10446 -10453 0
-10446 -10448 0
-10446 -10449 0
10446 10453 10448 10449 0
-10450 -10451 0
-10450 -10452 0
-10450 -10453 0
-10450 -10454 0
10450 10451 10452 10453 10454 0
-10455 -10456 0
-10455 -10457 0
10455 10456 10457 0
-10458 -10459 0
-10458 -10460 0
10458 10459 10460 0
-10461 -10462 0
-10461 -10466 0
10461 10462 10466 0
-10464 -10471 0
-10464 -10466 0
-10464 -10467 0
10464 10471 10466 10467 0
-10468 -10469 0
-10468 -10470 0
-10468 -10471 0
-10468 -10472 0
10468 10469 10470 10471 10472 0
-10473 -10474 0
-10473 -10475 0
10473 10474 10475 0
-10476 -10477 0
-10476 -10478 0
10476 10477 10478 0
-10479 -10480 0
-10479 -10484 0
10479 10480 10484 0
-10482 -10489 0
-10482 -10484 0
-10482 -10485 0
10482 10489 10484 10485 0
-10486 -10487 0
-10486 -10488 0
-10486 -10489 0
-10486 -10490 0
10486 10487 10488 10489 10490 0
-10491 -10492 0
-10491 -10493 0
10491 10492 10493 0
-10494 -10495 0
-10494 -10496 0
10494 10495 10496 0
-10497 -10498 0
-10497 -10502 0
10497 10498 10502 0
-10500 -10501 0
-10500 -10502 0
-10500 -10503 0
10500 10501 10502 10503 0
-10504 -10505 0
-10504 -10506 0
10504 10505 10506 0
-10507 -10508 0
-10507 -10509 0
10507 10508 10509 0
-10510 -10511 0
-10510 -10512 0
10510 10511 10512 0
-10513 -10514 0
-10513 -10515 0
10513 10514 10515 0
-10517 11081 0
10517 -11081 0
-10519 11083 0
10519 -11083 0
-10521 11082 0
10521 -11082 0
-10523 11084 0
10523 -11084 0
-10525 11099 0
10525 -11099 0
-10527 11101 0
10527 -11101 0
-10529 11100 0
10529 -11100 0
-10531 11102 0
10531 -11102 0
-10533 11117 0
10533 -11117 0
-10535 11119 0
10535 -11119 0
-10537 11118 0
10537 -11118 0
-10539 11120 0
10539 -11120 0
-10541 10984 0
10541 -10984 0
-10543 11131 0
10543 -11131 0
-10545 10990 0
10545 -10990 0
-10547 10986 0
10547 -10986 0
10709 11038 0
-10709 -11038 0
10706 11083 0
-10706 -11083 0
10715 10949 0
-10715 -10949 0
10712 11082 0
-10712 -11082 0
10721 11084 0
-10721 -11084 0
10718 11014 0
-10718 -11014 0
11040 11014 0
-11040 -11014 0
11036 11081 0
-11036 -11081 0
11037 11083 0
-11037 -11083 0
10852 11038 0
-10852 -11038 0
10727 11048 0
-10727 -11048 0
10724 11101 0
-10724 -11101 0
10733 10961 0
-10733 -10961 0
10730 11100 0
-10730 -11100 0
10739 11102 0
-10739 -11102 0
10736 11147 0
-10736 -11147 0
11050 11147 0
-11050 -11147 0
11046 11099 0
-11046 -11099 0
11047 11101 0
-11047 -11101 0
10866 11048 0
-10866 -11048 0
10745 11058 0
-10745 -11058 0
10742 11119 0
-10742 -11119 0
10751 10973 0
-10751 -10973 0
10748 11118 0
-10748 -11118 0
10757 11120 0
-10757 -11120 0
10754 11149 0
-10754 -11149 0
11060 11149 0
-11060 -11149 0
11056 11117 0
-11056 -11117 0
11057 11119 0
-11057 -11119 0
10880 11058 0
-10880 -11058 0
10763 10985 0
-10763 -10985 0
10760 10990 0
-10760 -10990 0
10769 10986 0
-10769 -10986 0
10766 11151 0
-10766 -11151 0
11065 11131 0
-11065 -11131 0
10905 10990 0
-10905 -10990 0
10981 11064 0
-10981 -11064 0
10989 10985 0
-10989 -10985 0
11068 11014 0
-11068 -11014 0
11069 11084 0
-11069 -11084 0
11071 11082 0
-11071 -11082 0
11074 11083 0
-11074 -11083 0
11079 11081 0
-11079 -11081 0
10992 11072 0
-10992 -11072 0
11086 11014 0
-11086 -11014 0
11087 11102 0
-11087 -11102 0
11089 11100 0
-11089 -11100 0
11092 11101 0
-11092 -11101 0
11097 11099 0
-11097 -11099 0
10998 11090 0
-10998 -11090 0
11104 11014 0
-11104 -11014 0
11105 11120 0
-11105 -11120 0
11107 11118 0
-11107 -11118 0
11110 11119 0
-11110 -11119 0
11115 11117 0
-11115 -11117 0
11004 11108 0
-11004 -11108 0
11122 11014 0
-11122 -11014 0
11123 10986 0
-11123 -10986 0
11125 10990 0
-11125 -10990 0
11128 11131 0
-11128 -11131 0
11133 10984 0
-11133 -10984 0
11010 11126 0
-11010 -11126 0
10911 11070 0
-10911 -11070 0
10908 11073 0
-10908 -11073 0
10912 10677 0
-10912 -10677 0
10909 10679 0
-10909 -10679 0
10917 10791 0
-10917 -10791 0
10914 10794 0
-10914 -10794 0
10918 10685 0
-10918 -10685 0
10915 10687 0
-10915 -10687 0
10923 10803 0
-10923 -10803 0
10920 10806 0
-10920 -10806 0
10924 10693 0
-10924 -10693 0
10921 10695 0
-10921 -10695 0
10929 10815 0
-10929 -10815 0
10926 10818 0
-10926 -10818 0
10930 10701 0
-10930 -10701 0
10927 10703 0
-10927 -10703 0
-10856 11038 0
-10856 10706 0
10856 -11038 -10706 0
-10857 11083 0
-10857 10709 0
10857 -11083 -10709 0
-11032 10949 0
-11032 10712 0
11032 -10949 -10712 0
-11033 11082 0
-11033 10715 0
11033 -11082 -10715 0
-10859 11084 0
-10859 10718 0
10859 -11084 -10718 0
-10860 11014 0
-10860 10721 0
10860 -11014 -10721 0
-10870 11048 0
-10870 10724 0
10870 -11048 -10724 0
-10871 11101 0
-10871 10727 0
10871 -11101 -10727 0
-11042 10961 0
-11042 10730 0
11042 -10961 -10730 0
-11043 11100 0
-11043 10733 0
11043 -11100 -10733 0
-10873 11102 0
-10873 10736 0
10873 -11102 -10736 0
-10874 11147 0
-10874 10739 0
10874 -11147 -10739 0
-10884 11058 0
-10884 10742 0
10884 -11058 -10742 0
-10885 11119 0
-10885 10745 0
10885 -11119 -10745 0
-11052 10973 0
-11052 10748 0
11052 -10973 -10748 0
-11053 11118 0
-11053 10751 0
11053 -11118 -10751 0
-10887 11120 0
-10887 10754 0
10887 -11120 -10754 0
-10888 11149 0
-10888 10757 0
10888 -11149 -10757 0
-11062 10985 0
-11062 10760 0
11062 -10985 -10760 0
-11063 10990 0
-11063 10763 0
11063 -10990 -10763 0
-10901 10986 0
-10901 10766 0
10901 -10986 -10766 0
-10902 11151 0
-10902 10769 0
10902 -11151 -10769 0
-11066 10989 0
-11066 10990 0
11066 -10989 -10990 0
11147 10941 0
11147 10943 0
-11147 -10941 -10943 0
11149 -10856 0
11149 -10857 0
-11149 10856 10857 0
-11151 -11032 0
-11151 -11033 0
11151 11032 11033 0
-10810 11080 0
-10810 11098 0
10810 -11080 -11098 0
-10822 10810 0
-10822 11116 0
10822 -10810 -11116 0
-10831 11080 0
-10831 11085 0
10831 -11080 -11085 0
-10791 11080 0
-10791 11088 0
10791 -11080 -11088 0
-10794 11080 0
-10794 11091 0
10794 -11080 -11091 0
-10840 11080 0
-10840 11094 0
10840 -11080 -11094 0
-10837 10810 0
-10837 11103 0
10837 -10810 -11103 0
-10803 10810 0
-10803 11106 0
10803 -10810 -11106 0
-10806 10810 0
-10806 11109 0
10806 -10810 -11109 0
-10846 10810 0
-10846 11112 0
10846 -10810 -11112 0
-10843 10822 0
-10843 11121 0
10843 -10822 -11121 0
-10815 10822 0
-10815 11124 0
10815 -10822 -11124 0
-10818 10822 0
-10818 11127 0
10818 -10822 -11127 0
-10849 10822 0
-10849 11130 0
10849 -10822 -11130 0
-11135 11067 0
-11135 10826 0
11135 -11067 -10826 0
-11136 11014 0
-11136 10829 0
11136 -11014 -10829 0
-11138 10831 0
-11138 10832 0
11138 -10831 -10832 0
-11139 11076 0
-11139 10835 0
11139 -11076 -10835 0
-11141 10837 0
-11141 10838 0
11141 -10837 -10838 0
-11142 10840 0
-11142 10841 0
11142 -10840 -10841 0
-11144 10843 0
-11144 10844 0
11144 -10843 -10844 0
-11145 10846 0
-11145 10847 0
11145 -10846 -10847 0
-10848 10849 0
-10848 10850 0
10848 -10849 -10850 0
10941 -10852 0
10941 -11081 0
10941 -11037 0
-10941 10852 11081 11037 0
11153 -10859 0
11153 -10860 0
-11153 10859 10860 0
10944 -11039 0
10944 -11037 0
10944 -11040 0
-10944 11039 11037 11040 0
10953 -10866 0
10953 -11099 0
10953 -11047 0
-10953 10866 11099 11047 0
11157 -10870 0
11157 -10871 0
-11157 10870 10871 0
11161 -10873 0
11161 -10874 0
-11161 10873 10874 0
10956 -11049 0
10956 -11047 0
10956 -11050 0
-10956 11049 11047 11050 0
10965 -10880 0
10965 -11117 0
10965 -11057 0
-10965 10880 11117 11057 0
11165 -10884 0
11165 -10885 0
-11165 10884 10885 0
11169 -10887 0
11169 -10888 0
-11169 10887 10888 0
10968 -11059 0
10968 -11057 0
10968 -11060 0
-10968 11059 11057 11060 0
10977 -10988 0
10977 -10984 0
10977 -11065 0
-10977 10988 10984 11065 0
10980 -10988 0
10980 -11131 0
-10980 10988 11131 0
11177 -10901 0
11177 -10902 0
-11177 10901 10902 0
10983 -10985 0
10983 -10905 0
10983 -11065 0
-10983 10985 10905 11065 0
11016 -10908 0
11016 -10909 0
-11016 10908 10909 0
11017 -10911 0
11017 -10912 0
-11017 10911 10912 0
11020 -10914 0
11020 -10915 0
-11020 10914 10915 0
11021 -10917 0
11021 -10918 0
-11021 10917 10918 0
11024 -10920 0
11024 -10921 0
-11024 10920 10921 0
11025 -10923 0
11025 -10924 0
-11025 10923 10924 0
11028 -10926 0
11028 -10927 0
-11028 10926 10927 0
11029 -10929 0
11029 -10930 0
-11029 10929 10930 0
10935 -11015 0
10935 -11019 0
-10935 11015 11019 0
10938 -10935 0
10938 -11023 0
-10938 10935 11023 0
10937 -10938 0
10937 -11027 0
-10937 10938 11027 0
10943 10944 0
10943 11081 0
-10943 -10944 -11081 0
11039 11084 0
11039 11082 0
-11039 -11084 -11082 0
10949 11084 0
10949 11014 0
-10949 -11084 -11014 0
11155 10953 0
11155 10955 0
-11155 -10953 -10955 0
10955 10956 0
10955 11099 0
-10955 -10956 -11099 0
11049 11102 0
11049 11100 0
-11049 -11102 -11100 0
10961 11102 0
10961 11147 0
-10961 -11102 -11147 0
11163 10965 0
11163 10967 0
-11163 -10965 -10967 0
10967 10968 0
10967 11117 0
-10967 -10968 -11117 0
11059 11120 0
11059 11118 0
-11059 -11120 -11118 0
10973 11120 0
10973 11149 0
-10973 -11120 -11149 0
11171 10977 0
11171 10982 0
-11171 -10977 -10982 0
11173 10980 0
11173 10981 0
-11173 -10980 -10981 0
10982 10983 0
10982 10984 0
-10982 -10983 -10984 0
10985 10986 0
10985 11151 0
-10985 -10986 -11151 0
10988 10989 0
10988 10990 0
-10988 -10989 -10990 0
11078 10992 0
11078 11071 0
-11078 -10992 -11071 0
11072 11069 0
11072 11014 0
-11072 -11069 -11014 0
11096 10998 0
11096 11089 0
-11096 -10998 -11089 0
11090 11087 0
11090 11014 0
-11090 -11087 -11014 0
11114 11004 0
11114 11107 0
-11114 -11004 -11107 0
11108 11105 0
11108 11014 0
-11108 -11105 -11014 0
11132 11010 0
11132 11125 0
-11132 -11010 -11125 0
11126 11123 0
11126 11014 0
-11126 -11123 -11014 0
11015 11016 0
11015 11017 0
11015 11134 0
-11015 -11016 -11017 -11134 0
11019 11020 0
11019 11021 0
11019 11137 0
-11019 -11020 -11021 -11137 0
11023 11024 0
11023 11025 0
11023 11140 0
-11023 -11024 -11025 -11140 0
11027 11028 0
11027 11029 0
11027 11143 0
-11027 -11028 -11029 -11143 0
-11034 -11039 0
-11034 -11036 0
-11034 -11037 0
11034 11039 11036 11037 0
-11038 -11039 0
-11038 -11040 0
11038 11039 11040 0
-11159 -11042 0
-11159 -11043 0
11159 11042 11043 0
-11044 -11049 0
-11044 -11046 0
-11044 -11047 0
11044 11049 11046 11047 0
-11048 -11049 0
-11048 -11050 0
11048 11049 11050 0
-11167 -11052 0
-11167 -11053 0
11167 11052 11053 0
-11054 -11059 0
-11054 -11056 0
-11054 -11057 0
11054 11059 11056 11057 0
-11058 -11059 0
-11058 -11060 0
11058 11059 11060 0
-11175 -11062 0
-11175 -11063 0
11175 11062 11063 0
-11064 -11065 0
-11064 -11066 0
11064 11065 11066 0
-11067 -11068 0
-11067 -11069 0
11067 11068 11069 0
-11070 -11071 0
-11070 -11072 0
11070 11071 11072 0
-11073 -11074 0
-11073 -11078 0
11073 11074 11078 0
-11076 -11083 0
-11076 -11078 0
-11076 -11079 0
11076 11083 11078 11079 0
-11080 -11081 0
-11080 -11082 0
-11080 -11083 0
-11080 -11084 0
11080 11081 11082 11083 11084 0
-11085 -11086 0
-11085 -11087 0
11085 11086 11087 0
-11088 -11089 0
-11088 -11090 0
11088 11089 11090 0
-11091 -11092 0
-11091 -11096 0
11091 11092 11096 0
-11094 -11101 0
-11094 -11096 0
-11094 -11097 0
11094 11101 11096 11097 0
-11098 -11099 0
-11098 -11100 0
-11098 -11101 0
-11098 -11102 0
11098 11099 11100 11101 11102 0
-11103 -11104 0
-11103 -11105 0
11103 11104 11105 0
-11106 -11107 0
-11106 -11108 0
11106 11107 11108 0
-11109 -11110 0
-11109 -11114 0
11109 11110 11114 0
-11112 -11119 0
-11112 -11114 0
-11112 -11115 0
11112 11119 11114 11115 0
-11116 -11117 0
-11116 -11118 0
-11116 -11119 0
-11116 -11120 0
11116 11117 11118 11119 11120 0
-11121 -11122 0
-11121 -11123 0
11121 11122 11123 0
-11124 -11125 0
-11124 -11126 0
11124 11125 11126 0
-11127 -11128 0
-11127 -11132 0
11127 11128 11132 0
-11130 -11131 0
-11130 -11132 0
-11130 -11133 0
11130 11131 11132 11133 0
-11134 -11135 0
-11134 -11136 0
11134 11135 11136 0
-11137 -11138 0
-11137 -11139 0
11137 11138 11139 0
-11140 -11141 0
-11140 -11142 0
11140 11141 11142 0
-11143 -11144 0
-11143 -11145 0
11143 11144 11145 0
-11147 11711 0
11147 -11711 0
-11149 11713 0
11149 -11713 0
-11151 11712 0
11151 -11712 0
-11153 11714 0
11153 -11714 0
-11155 11729 0
11155 -11729 0
-11157 11731 0
11157 -11731 0
-11159 11730 0
11159 -11730 0
-11161 11732 0
11161 -11732 0
-11163 11747 0
11163 -11747 0
-11165 11749 0
11165 -11749 0
-11167 11748 0
11167 -11748 0
-11169 11750 0
11169 -11750 0
-11171 11614 0
11171 -11614 0
-11173 11761 0
11173 -11761 0
-11175 11620 0
11175 -11620 0
-11177 11616 0
11177 -11616 0
11339 11668 0
-11339 -11668 0
11336 11713 0
-11336 -11713 0
11345 11579 0
-11345 -11579 0
11342 11712 0
-11342 -11712 0
11351 11714 0
-11351 -11714 0
11348 11644 0
-11348 -11644 0
11670 11644 0
-11670 -11644 0
11666 11711 0
-11666 -11711 0
11667 11713 0
-11667 -11713 0
11482 11668 0
-11482 -11668 0
11357 11678 0
-11357 -11678 0
11354 11731 0
-11354 -11731 0
11363 11591 0
-11363 -11591 0
11360 11730 0
-11360 -11730 0
11369 11732 0
-11369 -11732 0
11366 11777 0
-11366 -11777 0
11680 11777 0
-11680 -11777 0
11676 11729 0
-11676 -11729 0
11677 11731 0
-11677 -11731 0
11496 11678 0
-11496 -11678 0
11375 11688 0
-11375 -11688 0
11372 11749 0
-11372 -11749 0
11381 11603 0
-11381 -11603 0
11378 11748 0
-11378 -11748 0
11387 11750 0
-11387 -11750 0
11384 11779 0
-11384 -11779 0
11690 11779 0
-11690 -11779 0
11686 11747 0
-11686 -11747 0
11687 11749 0
-11687 -11749 0
11510 11688 0
-11510 -11688 0
11393 11615 0
-11393 -11615 0
11390 11620 0
-11390 -11620 0
11399 11616 0
-11399 -11616 0
11396 11781 0
-11396 -11781 0
11695 11761 0
-11695 -11761 0
11535 11620 0
-11535 -11620 0
11611 11694 0
-11611 -11694 0
11619 11615 0
-11619 -11615 0
11698 11644 0
-11698 -11644 0
11699 11714 0
-11699 -11714 0
11701 11712 0
-11701 -11712 0
11704 11713 0
-11704 -11713 0
11709 11711 0
-11709 -11711 0
11622 11702 0
-11622 -11702 0
11716 11644 0
-11716 -11644 0
11717 11732 0
-11717 -11732 0
11719 11730 0
-11719 -11730 0
11722 11731 0
-11722 -11731 0
11727 11729 0
-11727 -11729 0
11628 11720 0
-11628 -11720 0
11734 11644 0
-11734 -11644 0
11735 11750 0
-11735 -11750 0
11737 11748 0
-11737 -11748 0
11740 11749 0
-11740 -11749 0
11745 11747 0
-11745 -11747 0
11634 11738 0
-11634 -11738 0
11752 11644 0
-11752 -11644 0
11753 11616 0
-11753 -11616 0
11755 11620 0
-11755 -11620 0
11758 11761 0
-11758 -11761 0
11763 11614 0
-11763 -11614 0
11640 11756 0
-11640 -11756 0
11541 11700 0
-11541 -11700 0
11538 11703 0
-11538 -11703 0
11542 11307 0
-11542 -11307 0
11539 11309 0
-11539 -11309 0
11547 11421 0
-11547 -11421 0
11544 11424 0
-11544 -11424 0
11548 11315 0
-11548 -11315 0
11545 11317 0
-11545 -11317 0
11553 11433 0
-11553 -11433 0
11550 11436 0
-11550 -11436 0
11554 11323 0
-11554 -11323 0
11551 11325 0
-11551 -11325 0
11559 11445 0
-11559 -11445 0
11556 11448 0
-11556 -11448 0
11560 11331 0
-11560 -11331 0
11557 11333 0
-11557 -11333 0
-11486 11668 0
-11486 11336 0
11486 -11668 -11336 0
-11487 11713 0
-11487 11339 0
11487 -11713 -11339 0
-11662 11579 0
-11662 11342 0
11662 -11579 -11342 0
-11663 11712 0
-11663 11345 0
11663 -11712 -11345 0
-11489 11714 0
-11489 11348 0
11489 -11714 -11348 0
-11490 11644 0
-11490 11351 0
11490 -11644 -11351 0
-11500 11678 0
-11500 11354 0
11500 -11678 -11354 0
-11501 11731 0
-11501 11357 0
11501 -11731 -11357 0
-11672 11591 0
-11672 11360 0
11672 -11591 -11360 0
-11673 11730 0
-11673 11363 0
11673 -11730 -11363 0
-11503 11732 0
-11503 11366 0
11503 -11732 -11366 0
-11504 11777 0
-11504 11369 0
11504 -11777 -11369 0
-11514 11688 0
-11514 11372 0
11514 -11688 -11372 0
-11515 11749 0
-11515 11375 0
11515 -11749 -11375 0
-11682 11603 0
-11682 11378 0
11682 -11603 -11378 0
-11683 11748 0
-11683 11381 0
11683 -11748 -11381 0
-11517 11750 0
-11517 11384 0
11517 -11750 -11384 0
-11518 11779 0
-11518 11387 0
11518 -11779 -11387 0
-11692 11615 0
-11692 11390 0
11692 -11615 -11390 0
-11693 11620 0
-11693 11393 0
11693 -11620 -11393 0
-11531 11616 0
-11531 11396 0
11531 -11616 -11396 0
-11532 11781 0
-11532 11399 0
11532 -11781 -11399 0
-11696 11619 0
-11696 11620 0
11696 -11619 -11620 0
11777 11571 0
11777 11573 0
-11777 -11571 -11573 0
11779 -11486 0
11779 -11487 0
-11779 11486 11487 0
-11781 -11662 0
-11781 -11663 0
11781 11662 11663 0
-11440 11710 0
-11440 11728 0
11440 -11710 -11728 0
-11452 11440 0
-11452 11746 0
11452 -11440 -11746 0
-11461 11710 0
-11461 11715 0
11461 -11710 -11715 0
-11421 11710 0
-11421 11718 0
11421 -11710 -11718 0
-11424 11710 0
-11424 11721 0
11424 -11710 -11721 0
-11470 11710 0
-11470 11724 0
11470 -11710 -11724 0
-11467 11440 0
-11467 11733 0
11467 -11440 -11733 0
-11433 11440 0
-11433 11736 0
11433 -11440 -11736 0
-11436 11440 0
-11436 11739 0
11436 -11440 -11739 0
-11476 11440 0
-11476 11742 0
11476 -11440 -11742 0
-11473 11452 0
-11473 11751 0
11473 -11452 -11751 0
-11445 11452 0
-11445 11754 0
11445 -11452 -11754 0
-11448 11452 0
-11448 11757 0
11448 -11452 -11757 0
-11479 11452 0
-11479 11760 0
11479 -11452 -11760 0
-11765 11697 0
-11765 11456 0
11765 -11697 -11456 0
-11766 11644 0
-11766 11459 0
11766 -11644 -11459 0
-11768 11461 0
-11768 11462 0
11768 -11461 -11462 0
-11769 11706 0
-11769 11465 0
11769 -11706 -11465 0
-11771 11467 0
-11771 11468 0
11771 -11467 -11468 0
-11772 11470 0
-11772 11471 0
11772 -11470 -11471 0
-11774 11473 0
-11774 11474 0
11774 -11473 -11474 0
-11775 11476 0
-11775 11477 0
11775 -11476 -11477 0
-11478 11479 0
-11478 11480 0
11478 -11479 -11480 0
11571 -11482 0
11571 -11711 0
11571 -11667 0
-11571 11482 11711 11667 0
11783 -11489 0
11783 -11490 0
-11783 11489 11490 0
11574 -11669 0
11574 -11667 0
11574 -11670 0
-11574 11669 11667 11670 0
11583 -11496 0
11583 -11729 0
11583 -11677 0
-11583 11496 11729 11677 0
11787 -11500 0
11787 -11501 0
-11787 11500 11501 0
11791 -11503 0
11791 -11504 0
-11791 11503 11504 0
11586 -11679 0
11586 -11677 0
11586 -11680 0
-11586 11679 11677 11680 0
11595 -11510 0
11595 -11747 0
11595 -11687 0
-11595 11510 11747 11687 0
11795 -11514 0
11795 -11515 0
-11795 11514 11515 0
11799 -11517 0
11799 -11518 0
-11799 11517 11518 0
11598 -11689 0
11598 -11687 0
11598 -11690 0
-11598 11689 11687 11690 0
11607 -11618 0
11607 -11614 0
11607 -11695 0
-11607 11618 11614 11695 0
11610 -11618 0
11610 -11761 0
-11610 11618 11761 0
11807 -11531 0
11807 -11532 0
-11807 11531 11532 0
11613 -11615 0
11613 -11535 0
11613 -11695 0
-11613 11615 11535 11695 0
11646 -11538 0
11646 -11539 0
-11646 11538 11539 0
11647 -11541 0
11647 -11542 0
-11647 11541 11542 0
11650 -11544 0
11650 -11545 0
-11650 11544 11545 0
11651 -11547 0
11651 -11548 0
-11651 11547 11548 0
11654 -11550 0
11654 -11551 0
-11654 11550 11551 0
11655 -11553 0
11655 -11554 0
-11655 11553 11554 0
11658 -11556 0
11658 -11557 0
-11658 11556 11557 0
11659 -11559 0
11659 -11560 0
-11659 11559 11560 0
11565 -11645 0
11565 -11649 0
-11565 11645 11649 0
11568 -11565 0
11568 -11653 0
-11568 11565 11653 0
11567 -11568 0
11567 -11657 0
-11567 11568 11657 0
11573 11574 0
11573 11711 0
-11573 -11574 -11711 0
11669 11714 0
11669 11712 0
-11669 -11714 -11712 0
11579 11714 0
11579 11644 0
-11579 -11714 -11644 0
11785 11583 0
11785 11585 0
-11785 -11583 -11585 0
11585 11586 0
11585 11729 0
-11585 -11586 -11729 0
11679 11732 0
11679 11730 0
-11679 -11732 -11730 0
11591 11732 0
11591 11777 0
-11591 -11732 -11777 0
11793 11595 0
11793 11597 0
-11793 -11595 -11597 0
11597 11598 0
11597 11747 0
-11597 -11598 -11747 0
11689 11750 0
11689 11748 0
-11689 -11750 -11748 0
11603 11750 0
11603 11779 0
-11603 -11750 -11779 0
11801 11607 0
11801 11612 0
-11801 -11607 -11612 0
11803 11610 0
11803 11611 0
-11803 -11610 -11611 0
11612 11613 0
11612 11614 0
-11612 -11613 -11614 0
11615 11616 0
11615 11781 0
-11615 -11616 -11781 0
11618 11619 0
11618 11620 0
-11618 -11619 -11620 0
11708 11622 0
11708 11701 0
-11708 -11622 -11701 0
11702 11699 0
11702 11644 0
-11702 -11699 -11644 0
11726 11628 0
11726 11719 0
-11726 -11628 -11719 0
11720 11717 0
11720 11644 0
-11720 -11717 -11644 0
11744 11634 0
11744 11737 0
-11744 -11634 -11737 0
11738 11735 0
11738 11644 0
-11738 -11735 -11644 0
11762 11640 0
11762 11755 0
-11762 -11640 -11755 0
11756 11753 0
11756 11644 0
-11756 -11753 -11644 0
11645 11646 0
11645 11647 0
11645 11764 0
-11645 -11646 -11647 -11764 0
11649 11650 0
11649 11651 0
11649 11767 0
-11649 -11650 -11651 -11767 0
11653 11654 0
11653 11655 0
11653 11770 0
-11653 -11654 -11655 -11770 0
11657 11658 0
11657 11659 0
11657 11773 0
-11657 -11658 -11659 -11773 0
-11664 -11669 0
-11664 -11666 0
-11664 -11667 0
11664 11669 11666 11667 0
-11668 -11669 0
-11668 -11670 0
11668 11669 11670 0
-11789 -11672 0
-11789 -11673 0
11789 11672 11673 0
-11674 -11679 0
-11674 -11676 0
-11674 -11677 0
11674 11679 11676 11677 0
-11678 -11679 0
-11678 -11680 0
11678 11679 11680 0
-11797 -11682 0
-11797 -11683 0
11797 11682 11683 0
-11684 -11689 0
-11684 -11686 0
-11684 -11687 0
11684 11689 11686 11687 0
-11688 -11689 0
-11688 -11690 0
11688 11689 11690 0
-11805 -11692 0
-11805 -11693 0
11805 11692 11693 0
-11694 -11695 0
-11694 -11696 0
11694 11695 11696 0
-11697 -11698 0
-11697 -11699 0
11697 11698 11699 0
-11700 -11701 0
-11700 -11702 0
11700 11701 11702 0
-11703 -11704 0
-11703 -11708 0
11703 11704 11708 0
-11706 -11713 0
-11706 -11708 0
-11706 -11709 0
11706 11713 11708 11709 0
-11710 -11711 0
-11710 -11712 0
-11710 -11713 0
-11710 -11714 0
11710 11711 11712 11713 11714 0
-11715 -11716 0
-11715 -11717 0
11715 11716 11717 0
-11718 -11719 0
-11718 -11720 0
11718 11719 11720 0
-11721 -11722 0
-11721 -11726 0
11721 11722 11726 0
-11724 -11731 0
-11724 -11726 0
-11724 -11727 0
11724 11731 11726 11727 0
-11728 -11729 0
-11728 -11730 0
-11728 -11731 0
-11728 -11732 0
11728 11729 11730 11731 11732 0
-11733 -11734 0
-11733 -11735 0
11733 11734 11735 0
-11736 -11737 0
-11736 -11738 0
11736 11737 11738 0
-11739 -11740 0
-11739 -11744 0
11739 11740 11744 0
-11742 -11749 0
-11742 -11744 0
-11742 -11745 0
11742 11749 11744 11745 0
-11746 -11747 0
-11746 -11748 0
-11746 -11749 0
-11746 -11750 0
11746 11747 11748 11749 11750 0
-11751 -11752 0
-11751 -11753 0
11751 11752 11753 0
-11754 -11755 0
-11754 -11756 0
11754 11755 11756 0
-11757 -11758 0
-11757 -11762 0
11757 11758 11762 0
-11760 -11761 0
-11760 -11762 0
-11760 -11763 0
11760 11761 11762 11763 0
-11764 -11765 0
-11764 -11766 0
11764 11765 11766 0
-11767 -11768 0
-11767 -11769 0
11767 11768 11769 0
-11770 -11771 0
-11770 -11772 0
11770 11771 11772 0
-11773 -11774 0
-11773 -11775 0
11773 11774 11775 0
-11777 12341 0
11777 -12341 0
-11779 12343 0
11779 -12343 0
-11781 12342 0
11781 -12342 0
-11783 12344 0
11783 -12344 0
-11785 12359 0
11785 -12359 0
-11787 12361 0
11787 -12361 0
-11789 12360 0
11789 -12360 0
-11791 12362 0
11791 -12362 0
-11793 12377 0
11793 -12377 0
-11795 12379 0
11795 -12379 0
-11797 12378 0
11797 -12378 0
-11799 12380 0
11799 -12380 0
-11801 12244 0
11801 -12244 0
-11803 12391 0
11803 -12391 0
-11805 12250 0
11805 -12250 0
-11807 12246 0
11807 -12246 0
11969 12298 0
-11969 -12298 0
11966 12343 0
-11966 -12343 0
11975 12209 0
-11975 -12209 0
11972 12342 0
-11972 -12342 0
11981 12344 0
-11981 -12344 0
11978 12274 0
-11978 -12274 0
12300 12274 0
-12300 -12274 0
12296 12341 0
-12296 -12341 0
12297 12343 0
-12297 -12343 0
12112 12298 0
-12112 -12298 0
11987 12308 0
-11987 -12308 0
11984 12361 0
-11984 -12361 0
11993 12221 0
-11993 -12221 0
11990 12360 0
-11990 -12360 0
11999 12362 0
-11999 -12362 0
11996 12407 0
-11996 -12407 0
12310 12407 0
-12310 -12407 0
12306 12359 0
-12306 -12359 0
12307 12361 0
-12307 -12361 0
12126 12308 0
-12126 -12308 0
12005 12318 0
-12005 -12318 0
12002 12379 0
-12002 -12379 0
12011 12233 0
-12011 -12233 0
12008 12378 0
-12008 -12378 0
12017 12380 0
-12017 -12380 0
12014 12409 0
-12014 -12409 0
12320 12409 0
-12320 -12409 0
12316 12377 0
-12316 -12377 0
12317 12379 0
-12317 -12379 0
12140 12318 0
-12140 -12318 0
12023 12245 0
-12023 -12245 0
12020 12250 0
-12020 -12250 0
12029 12246 0
-12029 -12246 0
12026 12411 0
-12026 -12411 0
12325 12391 0
-12325 -12391 0
12165 12250 0
-12165 -12250 0
12241 12324 0
-12241 -12324 0
12249 12245 0
-12249 -12245 0
12328 12274 0
-12328 -12274 0
12329 12344 0
-12329 -12344 0
12331 12342 0
-12331 -12342 0
12334 12343 0
-12334 -12343 0
12339 12341 0
-12339 -12341 0
12252 12332 0
-12252 -12332 0
12346 12274 0
-12346 -12274 0
12347 12362 0
-12347 -12362 0
12349 12360 0
-12349 -12360 0
12352 12361 0
-12352 -12361 0
12357 12359 0
-12357 -12359 0
12258 12350 0
-12258 -12350 0
12364 12274 0
-12364 -12274 0
12365 12380 0
-12365 -12380 0
12367 12378 0
-12367 -12378 0
12370 12379 0
-12370 -12379 0
12375 12377 0
-12375 -12377 0
12264 12368 0
-12264 -12368 0
12382 12274 0
-12382 -12274 0
12383 12246 0
-12383 -12246 0
12385 12250 0
-12385 -12250 0
12388 12391 0
-12388 -12391 0
12393 12244 0
-12393 -12244 0
12270 12386 0
-12270 -12386 0
12171 12330 0
-12171 -12330 0
12168 12333 0
-12168 -12333 0
12172 11937 0
-12172 -11937 0
12169 11939 0
-12169 -11939 0
12177 12051 0
-12177 -12051 0
12174 12054 0
-12174 -12054 0
12178 11945 0
-12178 -11945 0
12175 11947 0
-12175 -11947 0
12183 12063 0
-12183 -12063 0
12180 12066 0
-12180 -12066 0
12184 11953 0
-12184 -11953 0
12181 11955 0
-12181 -11955 0
12189 12075 0
-12189 -12075 0
12186 12078 0
-12186 -12078 0
12190 11961 0
-12190 -11961 0
12187 11963 0
-12187 -11963 0
-12116 12298 0
-12116 11966 0
12116 -12298 -11966 0
-12117 12343 0
-12117 11969 0
12117 -12343 -11969 0
-12292 12209 0
-12292 11972 0
12292 -12209 -11972 0
-12293 12342 0
-12293 11975 0
12293 -12342 -11975 0
-12119 12344 0
-12119 11978 0
12119 -12344 -11978 0
-12120 12274 0
-12120 11981 0
12120 -12274 -11981 0
-12130 12308 0
-12130 11984 0
12130 -12308 -11984 0
-12131 12361 0
-12131 11987 0
12131 -12361 -11987 0
-12302 12221 0
-12302 11990 0
12302 -12221 -11990 0
-12303 12360 0
-12303 11993 0
12303 -12360 -11993 0
-12133 12362 0
-12133 11996 0
12133 -12362 -11996 0
-12134 12407 0
-12134 11999 0
12134 -12407 -11999 0
-12144 12318 0
-12144 12002 0
12144 -12318 -12002 0
-12145 12379 0
-12145 12005 0
12145 -12379 -12005 0
-12312 12233 0
-12312 12008 0
12312 -12233 -12008 0
-12313 12378 0
-12313 12011 0
12313 -12378 -12011 0
-12147 12380 0
-12147 12014 0
12147 -12380 -12014 0
-12148 12409 0
-12148 12017 0
12148 -12409 -12017 0
-12322 12245 0
-12322 12020 0
12322 -12245 -12020 0
-12323 12250 0
-12323 12023 0
12323 -12250 -12023 0
-12161 12246 0
-12161 12026 0
12161 -12246 -12026 0
-12162 12411 0
-12162 12029 0
12162 -12411 -12029 0
-12326 12249 0
-12326 12250 0
12326 -12249 -12250 0
12407 12201 0
12407 12203 0
-12407 -12201 -12203 0
12409 -12116 0
12409 -12117 0
-12409 12116 12117 0
-12411 -12292 0
-12411 -12293 0
12411 12292 12293 0
-12070 12340 0
-12070 12358 0
12070 -12340 -12358 0
-12082 12070 0
-12082 12376 0
12082 -12070 -12376 0
-12091 12340 0
-12091 12345 0
12091 -12340 -12345 0
-12051 12340 0
-12051 12348 0
12051 -12340 -12348 0
-12054 12340 0
-12054 12351 0
12054 -12340 -12351 0
-12100 12340 0
-12100 12354 0
12100 -12340 -12354 0
-12097 12070 0
-12097 12363 0
12097 -12070 -12363 0
-12063 12070 0
-12063 12366 0
12063 -12070 -12366 0
-12066 12070 0
-12066 12369 0
12066 -12070 -12369 0
-12106 12070 0
-12106 12372 0
12106 -12070 -12372 0
-12103 12082 0
-12103 12381 0
12103 -12082 -12381 0
-12075 12082 0
-12075 12384 0
12075 -12082 -12384 0
-12078 12082 0
-12078 12387 0
12078 -12082 -12387 0
-12109 12082 0
-12109 12390 0
12109 -12082 -12390 0
-12395 12327 0
-12395 12086 0
12395 -12327 -12086 0
-12396 12274 0
-12396 12089 0
12396 -12274 -12089 0
-12398 12091 0
-12398 12092 0
12398 -12091 -12092 0
-12399 12336 0
-12399 12095 0
12399 -12336 -12095 0
-12401 12097 0
-12401 12098 0
12401 -12097 -12098 0
-12402 12100 0
-12402 12101 0
12402 -12100 -12101 0
-12404 12103 0
-12404 12104 0
12404 -12103 -12104 0
-12405 12106 0
-12405 12107 0
12405 -12106 -12107 0
-12108 12109 0
-12108 12110 0
12108 -12109 -12110 0
12201 -12112 0
12201 -12341 0
12201 -12297 0
-12201 12112 12341 12297 0
12413 -12119 0
12413 -12120 0
-12413 12119 12120 0
12204 -12299 0
12204 -12297 0
12204 -12300 0
-12204 12299 12297 12300 0
12213 -12126 0
12213 -12359 0
12213 -12307 0
-12213 12126 12359 12307 0
12417 -12130 0
12417 -12131 0
-12417 12130 12131 0
12421 -12133 0
12421 -12134 0
-12421 12133 12134 0
12216 -12309 0
12216 -12307 0
12216 -12310 0
-12216 12309 12307 12310 0
12225 -12140 0
12225 -12377 0
12225 -12317 0
-12225 12140 12377 12317 0
12425 -12144 0
12425 -12145 0
-12425 12144 12145 0
12429 -12147 0
12429 -12148 0
-12429 12147 12148 0
12228 -12319 0
12228 -12317 0
12228 -12320 0
-12228 12319 12317 12320 0
12237 -12248 0
12237 -12244 0
12237 -12325 0
-12237 12248 12244 12325 0
12240 -12248 0
12240 -12391 0
-12240 12248 12391 0
12437 -12161 0
12437 -12162 0
-12437 12161 12162 0
12243 -12245 0
12243 -12165 0
12243 -12325 0
-12243 12245 12165 12325 0
12276 -12168 0
12276 -12169 0
-12276 12168 12169 0
12277 -12171 0
12277 -12172 0
-12277 12171 12172 0
12280 -12174 0
12280 -12175 0
-12280 12174 12175 0
12281 -12177 0
12281 -12178 0
-12281 12177 12178 0
12284 -12180 0
12284 -12181 0
-12284 12180 12181 0
12285 -12183 0
12285 -12184 0
-12285 12183 12184 0
12288 -12186 0
12288 -12187 0
-12288 12186 12187 0
12289 -12189 0
12289 -12190 0
-12289 12189 12190 0
12195 -12275 0
12195 -12279 0
-12195 12275 12279 0
12198 -12195 0
12198 -12283 0
-12198 12195 12283 0
12197 -12198 0
12197 -12287 0
-12197 12198 12287 0
12203 12204 0
12203 12341 0
-12203 -12204 -12341 0
12299 12344 0
12299 12342 0
-12299 -12344 -12342 0
12209 12344 0
12209 12274 0
-12209 -12344 -12274 0
12415 12213 0
12415 12215 0
-12415 -12213 -12215 0
12215 12216 0
12215 12359 0
-12215 -12216 -12359 0
12309 12362 0
12309 12360 0
-12309 -12362 -12360 0
12221 12362 0
12221 12407 0
-12221 -12362 -12407 0
12423 12225 0
12423 12227 0
-12423 -12225 -12227 0
12227 12228 0
12227 12377 0
-12227 -12228 -12377 0
12319 12380 0
12319 12378 0
-12319 -12380 -12378 0
12233 12380 0
12233 12409 0
-12233 -12380 -12409 0
12431 12237 0
12431 12242 0
-12431 -12237 -12242 0
12433 12240 0
12433 12241 0
-12433 -12240 -12241 0
12242 12243 0
12242 12244 0
-12242 -12243 -12244 0
12245 12246 0
12245 12411 0
-12245 -12246 -12411 0
12248 12249 0
12248 12250 0
-12248 -12249 -12250 0
12338 12252 0
12338 12331 0
-12338 -12252 -12331 0
12332 12329 0
12332 12274 0
-12332 -12329 -12274 0
12356 12258 0
12356 12349 0
-12356 -12258 -12349 0
12350 12347 0
12350 12274 0
-12350 -12347 -12274 0
12374 12264 0
12374 12367 0
-12374 -12264 -12367 0
12368 12365 0
12368 12274 0
-12368 -12365 -12274 0
12392 12270 0
12392 12385 0
-12392 -12270 -12385 0
12386 12383 0
12386 12274 0
-12386 -12383 -12274 0
12275 12276 0
12275 12277 0
12275 12394 0
-12275 -12276 -12277 -12394 0
12279 12280 0
12279 12281 0
12279 12397 0
-12279 -12280 -12281 -12397 0
12283 12284 0
12283 12285 0
12283 12400 0
-12283 -12284 -12285 -12400 0
12287 12288 0
12287 12289 0
12287 12403 0
-12287 -12288 -12289 -12403 0
-12294 -12299 0
-12294 -12296 0
-12294 -12297 0
12294 12299 12296 12297 0
-12298 -12299 0
-12298 -12300 0
12298 12299 12300 0
-12419 -12302 0
-12419 -12303 0
12419 12302 12303 0
-12304 -12309 0
-12304 -12306 0
-12304 -12307 0
12304 12309 12306 12307 0
-12308 -12309 0
-12308 -12310 0
12308 12309 12310 0
-12427 -12312 0
-12427 -12313 0
12427 12312 12313 0
-12314 -12319 0
-12314 -12316 0
-12314 -12317 0
12314 12319 12316 12317 0
-12318 -12319 0
-12318 -12320 0
12318 12319 12320 0
-12435 -12322 0
-12435 -12323 0
12435 12322 12323 0
-12324 -12325 0
-12324 -12326 0
12324 12325 12326 0
-12327 -12328 0
-12327 -12329 0
12327 12328 12329 0
-12330 -12331 0
-12330 -12332 0
12330 12331 12332 0
-12333 -12334 0
-12333 -12338 0
12333 12334 12338 0
-12336 -12343 0
-12336 -12338 0
-12336 -12339 0
12336 12343 12338 12339 0
-12340 -12341 0
-12340 -12342 0
-12340 -12343 0
-12340 -12344 0
12340 12341 12342 12343 12344 0
-12345 -12346 0
-12345 -12347 0
12345 12346 12347 0
-12348 -12349 0
-12348 -12350 0
12348 12349 12350 0
-12351 -12352 0
-12351 -12356 0
12351 12352 12356 0
-12354 -12361 0
-12354 -12356 0
-12354 -12357 0
12354 12361 12356 12357 0
-12358 -12359 0
-12358 -12360 0
-12358 -12361 0
-12358 -12362 0
12358 12359 12360 12361 12362 0
-12363 -12364 0
-12363 -12365 0
12363 12364 12365 0
-12366 -12367 0
-12366 -12368 0
12366 12367 12368 0
-12369 -12370 0
-12369 -12374 0
12369 12370 12374 0
-12372 -12379 0
-12372 -12374 0
-12372 -12375 0
12372 12379 12374 12375 0
-12376 -12377 0
-12376 -12378 0
-12376 -12379 0
-12376 -12380 0
12376 12377 12378 12379 12380 0
-12381 -12382 0
-12381 -12383 0
12381 12382 12383 0
-12384 -12385 0
-12384 -12386 0
12384 12385 12386 0
-12387 -12388 0
-12387 -12392 0
12387 12388 12392 0
-12390 -12391 0
-12390 -12392 0
-12390 -12393 0
12390 12391 12392 12393 0
-12394 -12395 0
-12394 -12396 0
12394 12395 12396 0
-12397 -12398 0
-12397 -12399 0
12397 12398 12399 0
-12400 -12401 0
-12400 -12402 0
12400 12401 12402 0
-12403 -12404 0
-12403 -12405 0
12403 12404 12405 0
-12407 12971 0
12407 -12971 0
-12409 12973 0
12409 -12973 0
-12411 12972 0
12411 -12972 0
-12413 12974 0
12413 -12974 0
-12415 12989 0
12415 -12989 0
-12417 12991 0
12417 -12991 0
-12419 12990 0
12419 -12990 0
-12421 12992 0
12421 -12992 0
-12423 13007 0
12423 -13007 0
-12425 13009 0
12425 -13009 0
-12427 13008 0
12427 -13008 0
-12429 13010 0
12429 -13010 0
-12431 12874 0
12431 -12874 0
-12433 13021 0
12433 -13021 0
-12435 12880 0
12435 -12880 0
-12437 12876 0
12437 -12876 0
12599 12928 0
-12599 -12928 0
12596 12973 0
-12596 -12973 0
12605 12839 0
-12605 -12839 0
12602 12972 0
-12602 -12972 0
12611 12974 0
-12611 -12974 0
12608 12904 0
-12608 -12904 0
12930 12904 0
-12930 -12904 0
12926 12971 0
-12926 -12971 0
12927 12973 0
-12927 -12973 0
12742 12928 0
-12742 -12928 0
12617 12938 0
-12617 -12938 0
12614 12991 0
-12614 -12991 0
12623 12851 0
-12623 -12851 0
12620 12990 0
-12620 -12990 0
12629 12992 0
-12629 -12992 0
12626 13037 0
-12626 -13037 0
12940 13037 0
-12940 -13037 0
12936 12989 0
-12936 -12989 0
12937 12991 0
-12937 -12991 0
12756 12938 0
-12756 -12938 0
12635 12948 0
-12635 -12948 0
12632 13009 0
-12632 -13009 0
12641 12863 0
-12641 -12863 0
12638 13008 0
-12638 -13008 0
12647 13010 0
-12647 -13010 0
12644 13039 0
-12644 -13039 0
12950 13039 0
-12950 -13039 0
12946 13007 0
-12946 -13007 0
12947 13009 0
-12947 -13009 0
12770 12948 0
-12770 -12948 0
12653 12875 0
-12653 -12875 0
12650 12880 0
-12650 -12880 0
12659 12876 0
-12659 -12876 0
12656 13041 0
-12656 -13041 0
12955 13021 0
-12955 -13021 0
12795 12880 0
-12795 -12880 0
12871 12954 0
-12871 -12954 0
12879 12875 0
-12879 -12875 0
12958 12904 0
-12958 -12904 0
12959 12974 0
-12959 -12974 0
12961 12972 0
-12961 -12972 0
12964 12973 0
-12964 -12973 0
12969 12971 0
-12969 -12971 0
12882 12962 0
-12882 -12962 0
12976 12904 0
-12976 -12904 0
12977 12992 0
-12977 -12992 0
12979 12990 0
-12979 -12990 0
12982 12991 0
-12982 -12991 0
12987 12989 0
-12987 -12989 0
12888 12980 0
-12888 -12980 0
12994 12904 0
-12994 -12904 0
12995 13010 0
-12995 -13010 0
12997 13008 0
-12997 -13008 0
13000 13009 0
-13000 -13009 0
13005 13007 0
-13005 -13007 0
12894 12998 0
-12894 -12998 0
13012 12904 0
-13012 -12904 0
13013 12876 0
-13013 -12876 0
13015 12880 0
-13015 -12880 0
13018 13021 0
-13018 -13021 0
13023 12874 0
-13023 -12874 0
12900 13016 0
-12900 -13016 0
12801 12960 0
-12801 -12960 0
12798 12963 0
-12798 -12963 0
12802 12567 0
-12802 -12567 0
12799 12569 0
-12799 -12569 0
12807 12681 0
-12807 -12681 0
12804 12684 0
-12804 -12684 0
12808 12575 0
-12808 -12575 0
12805 12577 0
-12805 -12577 0
12813 12693 0
-12813 -12693 0
12810 12696 0
-12810 -12696 0
12814 12583 0
-12814 -12583 0
12811 12585 0
-12811 -12585 0
12819 12705 0
-12819 -12705 0
12816 12708 0
-12816 -12708 0
12820 12591 0
-12820 -12591 0
12817 12593 0
-12817 -12593 0
-12746 12928 0
-12746 12596 0
12746 -12928 -12596 0
-12747 12973 0
-12747 12599 0
12747 -12973 -12599 0
-12922 12839 0
-12922 12602 0
12922 -12839 -12602 0
-12923 12972 0
-12923 12605 0
12923 -12972 -12605 0
-12749 12974 0
-12749 12608 0
12749 -12974 -12608 0
-12750 12904 0
-12750 12611 0
12750 -12904 -12611 0
-12760 12938 0
-12760 12614 0
12760 -12938 -12614 0
-12761 12991 0
-12761 12617 0
12761 -12991 -12617 0
-12932 12851 0
-12932 12620 0
12932 -12851 -12620 0
-12933 12990 0
-12933 12623 0
12933 -12990 -12623 0
-12763 12992 0
-12763 12626 0
12763 -12992 -12626 0
-12764 13037 0
-12764 12629 0
12764 -13037 -12629 0
-12774 12948 0
-12774 12632 0
12774 -12948 -12632 0
-12775 13009 0
-12775 12635 0
12775 -13009 -12635 0
-12942 12863 0
-12942 12638 0
12942 -12863 -12638 0
-12943 13008 0
-12943 12641 0
12943 -13008 -12641 0
-12777 13010 0
-12777 12644 0
12777 -13010 -12644 0
-12778 13039 0
-12778 12647 0
12778 -13039 -12647 0
-12952 12875 0
-12952 12650 0
12952 -12875 -12650 0
-12953 12880 0
-12953 12653 0
12953 -12880 -12653 0
-12791 12876 0
-12791 12656 0
12791 -12876 -12656 0
-12792 13041 0
-12792 12659 0
12792 -13041 -12659 0
-12956 12879 0
-12956 12880 0
12956 -12879 -12880 0
13037 12831 0
13037 12833 0
-13037 -12831 -12833 0
13039 -12746 0
13039 -12747 0
-13039 12746 12747 0
-13041 -12922 0
-13041 -12923 0
13041 12922 12923 0
-12700 12970 0
-12700 12988 0
12700 -12970 -12988 0
-12712 12700 0
-12712 13006 0
12712 -12700 -13006 0
-12721 12970 0
-12721 12975 0
12721 -12970 -12975 0
-12681 12970 0
-12681 12978 0
12681 -12970 -12978 0
-12684 12970 0
-12684 12981 0
12684 -12970 -12981 0
-12730 12970 0
-12730 12984 0
12730 -12970 -12984 0
-12727 12700 0
-12727 12993 0
12727 -12700 -12993 0
-12693 12700 0
-12693 12996 0
12693 -12700 -12996 0
-12696 12700 0
-12696 12999 0
12696 -12700 -12999 0
-12736 12700 0
-12736 13002 0
12736 -12700 -13002 0
-12733 12712 0
-12733 13011 0
12733 -12712 -13011 0
-12705 12712 0
-12705 13014 0
12705 -12712 -13014 0
-12708 12712 0
-12708 13017 0
12708 -12712 -13017 0
-12739 12712 0
-12739 13020 0
12739 -12712 -13020 0
-13025 12957 0
-13025 12716 0
13025 -12957 -12716 0
-13026 12904 0
-13026 12719 0
13026 -12904 -12719 0
-13028 12721 0
-13028 12722 0
13028 -12721 -12722 0
-13029 12966 0
-13029 12725 0
13029 -12966 -12725 0
-13031 12727 0
-13031 12728 0
13031 -12727 -12728 0
-13032 12730 0
-13032 12731 0
13032 -12730 -12731 0
-13034 12733 0
-13034 12734 0
13034 -12733 -12734 0
-13035 12736 0
-13035 12737 0
13035 -12736 -12737 0
-12738 12739 0
-12738 12740 0
12738 -12739 -12740 0
12831 -12742 0
12831 -12971 0
12831 -12927 0
-12831 12742 12971 12927 0
13043 -12749 0
13043 -12750 0
-13043 12749 12750 0
12834 -12929 0
12834 -12927 0
12834 -12930 0
-12834 12929 12927 12930 0
12843 -12756 0
12843 -12989 0
12843 -12937 0
-12843 12756 12989 12937 0
13047 -12760 0
13047 -12761 0
-13047 12760 12761 0
13051 -12763 0
13051 -12764 0
-13051 12763 12764 0
12846 -12939 0
12846 -12937 0
12846 -12940 0
-12846 12939 12937 12940 0
12855 -12770 0
12855 -13007 0
12855 -12947 0
-12855 12770 13007 12947 0
13055 -12774 0
13055 -12775 0
-13055 12774 12775 0
13059 -12777 0
13059 -12778 0
-13059 12777 12778 0
12858 -12949 0
12858 -12947 0
12858 -12950 0
-12858 12949 12947 12950 0
12867 -12878 0
12867 -12874 0
12867 -12955 0
-12867 12878 12874 12955 0
12870 -12878 0
12870 -13021 0
-12870 12878 13021 0
13067 -12791 0
13067 -12792 0
-13067 12791 12792 0
12873 -12875 0
12873 -12795 0
12873 -12955 0
-12873 12875 12795 12955 0
12906 -12798 0
12906 -12799 0
-12906 12798 12799 0
12907 -12801 0
12907 -12802 0
-12907 12801 12802 0
12910 -12804 0
12910 -12805 0
-12910 12804 12805 0
12911 -12807 0
12911 -12808 0
-12911 12807 12808 0
12914 -12810 0
12914 -12811 0
-12914 12810 12811 0
12915 -12813 0
12915 -12814 0
-12915 12813 12814 0
12918 -12816 0
12918 -12817 0
-12918 12816 12817 0
12919 -12819 0
12919 -12820 0
-12919 12819 12820 0
12825 -12905 0
12825 -12909 0
-12825 12905 12909 0
12828 -12825 0
12828 -12913 0
-12828 12825 12913 0
12827 -12828 0
12827 -12917 0
-12827 12828 12917 0
12833 12834 0
12833 12971 0
-12833 -12834 -12971 0
12929 12974 0
12929 12972 0
-12929 -12974 -12972 0
12839 12974 0
12839 12904 0
-12839 -12974 -12904 0
13045 12843 0
13045 12845 0
-13045 -12843 -12845 0
12845 12846 0
12845 12989 0
-12845 -12846 -12989 0
12939 12992 0
12939 12990 0
-12939 -12992 -12990 0
12851 12992 0
12851 13037 0
-12851 -12992 -13037 0
13053 12855 0
13053 12857 0
-13053 -12855 -12857 0
12857 12858 0
12857 13007 0
-12857 -12858 -13007 0
12949 13010 0
12949 13008 0
-12949 -13010 -13008 0
12863 13010 0
12863 13039 0
-12863 -13010 -13039 0
13061 12867 0
13061 12872 0
-13061 -12867 -12872 0
13063 12870 0
13063 12871 0
-13063 -12870 -12871 0
12872 12873 0
12872 12874 0
-12872 -12873 -12874 0
12875 12876 0
12875 13041 0
-12875 -12876 -13041 0
12878 12879 0
12878 12880 0
-12878 -12879 -12880 0
12968 12882 0
12968 12961 0
-12968 -12882 -12961 0
12962 12959 0
12962 12904 0
-12962 -12959 -12904 0
12986 12888 0
12986 12979 0
-12986 -12888 -12979 0
12980 12977 0
12980 12904 0
-12980 -12977 -12904 0
13004 12894 0
13004 12997 0
-13004 -12894 -12997 0
12998 12995 0
12998 12904 0
-12998 -12995 -12904 0
13022 12900 0
13022 13015 0
-13022 -12900 -13015 0
13016 13013 0
13016 12904 0
-13016 -13013 -12904 0
12905 12906 0
12905 12907 0
12905 13024 0
-12905 -12906 -12907 -13024 0
12909 12910 0
12909 12911 0
12909 13027 0
-12909 -12910 -12911 -13027 0
12913 12914 0
12913 12915 0
12913 13030 0
-12913 -12914 -12915 -13030 0
12917 12918 0
12917 12919 0
12917 13033 0
-12917 -12918 -12919 -13033 0
-12924 -12929 0
-12924 -12926 0
-12924 -12927 0
12924 12929 12926 12927 0
-12928 -12929 0
-12928 -12930 0
12928 12929 12930 0
-13049 -12932 0
-13049 -12933 0
13049 12932 12933 0
-12934 -12939 0
-12934 -12936 0
-12934 -12937 0
12934 12939 12936 12937 0
-12938 -12939 0
-12938 -12940 0
12938 12939 12940 0
-13057 -12942 0
-13057 -12943 0
13057 12942 12943 0
-12944 -12949 0
-12944 -12946 0
-12944 -12947 0
12944 12949 12946 12947 0
-12948 -12949 0
-12948 -12950 0
12948 12949 12950 0
-13065 -12952 0
-13065 -12953 0
13065 12952 12953 0
-12954 -12955 0
-12954 -12956 0
12954 12955 12956 0
-12957 -12958 0
-12957 -12959 0
12957 12958 12959 0
-12960 -12961 0
-12960 -12962 0
12960 12961 12962 0
-12963 -12964 0
-12963 -12968 0
12963 12964 12968 0
-12966 -12973 0
-12966 -12968 0
-12966 -12969 0
12966 12973 12968 12969 0
-12970 -12971 0
-12970 -12972 0
-12970 -12973 0
-12970 -12974 0
12970 12971 12972 12973 12974 0
-12975 -12976 0
-12975 -12977 0
12975 12976 12977 0
-12978 -12979 0
-12978 -12980 0
12978 12979 12980 0
-12981 -12982 0
-12981 -12986 0
12981 12982 12986 0
-12984 -12991 0
-12984 -12986 0
-12984 -12987 0
12984 12991 12986 12987 0
-12988 -12989 0
-12988 -12990 0
-12988 -12991 0
-12988 -12992 0
12988 12989 12990 12991 12992 0
-12993 -12994 0
-12993 -12995 0
12993 12994 12995 0
-12996 -12997 0
-12996 -12998 0
12996 12997 12998 0
-12999 -13000 0
-12999 -13004 0
12999 13000 13004 0
-13002 -13009 0
-13002 -13004 0
-13002 -13005 0
13002 13009 13004 13005 0
-13006 -13007 0
-13006 -13008 0
-13006 -13009 0
-13006 -13010 0
13006 13007 13008 13009 13010 0
-13011 -13012 0
-13011 -13013 0
13011 13012 13013 0
-13014 -13015 0
-13014 -13016 0
13014 13015 13016 0
-13017 -13018 0
-13017 -13022 0
13017 13018 13022 0
-13020 -13021 0
-13020 -13022 0
-13020 -13023 0
13020 13021 13022 13023 0
-13024 -13025 0
-13024 -13026 0
13024 13025 13026 0
-13027 -13028 0
-13027 -13029 0
13027 13028 13029 0
-13030 -13031 0
-13030 -13032 0
13030 13031 13032 0
-13033 -13034 0
-13033 -13035 0
13033 13034 13035 0
-13037 13601 0
13037 -13601 0
-13039 13603 0
13039 -13603 0
-13041 13602 0
13041 -13602 0
-13043 13604 0
13043 -13604 0
-13045 13619 0
13045 -13619 0
-13047 13621 0
13047 -13621 0
-13049 13620 0
13049 -13620 0
-13051 13622 0
13051 -13622 0
-13053 13637 0
13053 -13637 0
-13055 13639 0
13055 -13639 0
-13057 13638 0
13057 -13638 0
-13059 13640 0
13059 -13640 0
-13061 13504 0
13061 -13504 0
-13063 13651 0
13063 -13651 0
-13065 13510 0
13065 -13510 0
-13067 13506 0
13067 -13506 0
13229 13558 0
-13229 -13558 0
13226 13603 0
-13226 -13603 0
13235 13469 0
-13235 -13469 0
13232 13602 0
-13232 -13602 0
13241 13604 0
-13241 -13604 0
13238 13534 0
-13238 -13534 0
13560 13534 0
-13560 -13534 0
13556 13601 0
-13556 -13601 0
13557 13603 0
-13557 -13603 0
13372 13558 0
-13372 -13558 0
13247 13568 0
-13247 -13568 0
13244 13621 0
-13244 -13621 0
13253 13481 0
-13253 -13481 0
13250 13620 0
-13250 -13620 0
13259 13622 0
-13259 -13622 0
13256 13667 0
-13256 -13667 0
13570 13667 0
-13570 -13667 0
13566 13619 0
-13566 -13619 0
13567 13621 0
-13567 -13621 0
13386 13568 0
-13386 -13568 0
13265 13578 0
-13265 -13578 0
13262 13639 0
-13262 -13639 0
13271 13493 0
-13271 -13493 0
13268 13638 0
-13268 -13638 0
13277 13640 0
-13277 -13640 0
13274 13669 0
-13274 -13669 0
13580 13669 0
-13580 -13669 0
13576 13637 0
-13576 -13637 0
13577 13639 0
-13577 -13639 0
13400 13578 0
-13400 -13578 0
13283 13505 0
-13283 -13505 0
13280 13510 0
-13280 -13510 0
13289 13506 0
-13289 -13506 0
13286 13671 0
-13286 -13671 0
13585 13651 0
-13585 -13651 0
13425 13510 0
-13425 -13510 0
13501 13584 0
-13501 -13584 0
13509 13505 0
-13509 -13505 0
13588 13534 0
-13588 -13534 0
13589 13604 0
-13589 -13604 0
13591 13602 0
-13591 -13602 0
13594 13603 0
-13594 -13603 0
13599 13601 0
-13599 -13601 0
13512 13592 0
-13512 -13592 0
13606 13534 0
-13606 -13534 0
13607 13622 0
-13607 -13622 0
13609 13620 0
-13609 -13620 0
13612 13621 0
-13612 -13621 0
13617 13619 0
-13617 -13619 0
13518 13610 0
-13518 -13610 0
13624 13534 0
-13624 -13534 0
13625 13640 0
-13625 -13640 0
13627 13638 0
-13627 -13638 0
13630 13639 0
-13630 -13639 0
13635 13637 0
-13635 -13637 0
13524 13628 0
-13524 -13628 0
13642 13534 0
-13642 -13534 0
13643 13506 0
-13643 -13506 0
13645 13510 0
-13645 -13510 0
13648 13651 0
-13648 -13651 0
13653 13504 0
-13653 -13504 0
13530 13646 0
-13530 -13646 0
13431 13590 0
-13431 -13590 0
13428 13593 0
-13428 -13593 0
13432 13197 0
-13432 -13197 0
13429 13199 0
-13429 -13199 0
13437 13311 0
-13437 -13311 0
13434 13314 0
-13434 -13314 0
13438 13205 0
-13438 -13205 0
13435 13207 0
-13435 -13207 0
13443 13323 0
-13443 -13323 0
13440 13326 0
-13440 -13326 0
13444 13213 0
-13444 -13213 0
13441 13215 0
-13441 -13215 0
13449 13335 0
-13449 -13335 0
13446 13338 0
-13446 -13338 0
13450 13221 0
-13450 -13221 0
13447 13223 0
-13447 -13223 0
-13376 13558 0
-13376 13226 0
13376 -13558 -13226 0
-13377 13603 0
-13377 13229 0
13377 -13603 -13229 0
-13552 13469 0
-13552 13232 0
13552 -13469 -13232 0
-13553 13602 0
-13553 13235 0
13553 -13602 -13235 0
-13379 13604 0
-13379 13238 0
13379 -13604 -13238 0
-13380 13534 0
-13380 13241 0
13380 -13534 -13241 0
-13390 13568 0
-13390 13244 0
13390 -13568 -13244 0
-13391 13621 0
-13391 13247 0
13391 -13621 -13247 0
-13562 13481 0
-13562 13250 0
13562 -13481 -13250 0
-13563 13620 0
-13563 13253 0
13563 -13620 -13253 0
-13393 13622 0
-13393 13256 0
13393 -13622 -13256 0
-13394 13667 0
-13394 13259 0
13394 -13667 -13259 0
-13404 13578 0
-13404 13262 0
13404 -13578 -13262 0
-13405 13639 0
-13405 13265 0
13405 -13639 -13265 0
-13572 13493 0
-13572 13268 0
13572 -13493 -13268 0
-13573 13638 0
-13573 13271 0
13573 -13638 -13271 0
-13407 13640 0
-13407 13274 0
13407 -13640 -13274 0
-13408 13669 0
-13408 13277 0
13408 -13669 -13277 0
-13582 13505 0
-13582 13280 0
13582 -13505 -13280 0
-13583 13510 0
-13583 13283 0
13583 -13510 -13283 0
-13421 13506 0
-13421 13286 0
13421 -13506 -13286 0
-13422 13671 0
-13422 13289 0
13422 -13671 -13289 0
-13586 13509 0
-13586 13510 0
13586 -13509 -13510 0
13667 13461 0
13667 13463 0
-13667 -13461 -13463 0
13669 -13376 0
13669 -13377 0
-13669 13376 13377 0
-13671 -13552 0
-13671 -13553 0
13671 13552 13553 0
-13330 13600 0
-13330 13618 0
13330 -13600 -13618 0
-13342 13330 0
-13342 13636 0
13342 -13330 -13636 0
-13351 13600 0
-13351 13605 0
13351 -13600 -13605 0
-13311 13600 0
-13311 13608 0
13311 -13600 -13608 0
-13314 13600 0
-13314 13611 0
13314 -13600 -13611 0
-13360 13600 0
-13360 13614 0
13360 -13600 -13614 0
-13357 13330 0
-13357 13623 0
13357 -13330 -13623 0
-13323 13330 0
-13323 13626 0
13323 -13330 -13626 0
-13326 13330 0
-13326 13629 0
13326 -13330 -13629 0
-13366 13330 0
-13366 13632 0
13366 -13330 -13632 0
-13363 13342 0
-13363 13641 0
13363 -13342 -13641 0
-13335 13342 0
-13335 13644 0
13335 -13342 -13644 0
-13338 13342 0
-13338 13647 0
13338 -13342 -13647 0
-13369 13342 0
-13369 13650 0
13369 -13342 -13650 0
-13655 13587 0
-13655 13346 0
13655 -13587 -13346 0
-13656 13534 0
-13656 13349 0
13656 -13534 -13349 0
-13658 13351 0
-13658 13352 0
13658 -13351 -13352 0
-13659 13596 0
-13659 13355 0
13659 -13596 -13355 0
-13661 13357 0
-13661 13358 0
13661 -13357 -13358 0
-13662 13360 0
-13662 13361 0
13662 -13360 -13361 0
-13664 13363 0
-13664 13364 0
13664 -13363 -13364 0
-13665 13366 0
-13665 13367 0
13665 -13366 -13367 0
-13368 13369 0
-13368 13370 0
13368 -13369 -13370 0
13461 -13372 0
13461 -13601 0
13461 -13557 0
-13461 13372 13601 13557 0
13673 -13379 0
13673 -13380 0
-13673 13379 13380 0
13464 -13559 0
13464 -13557 0
13464 -13560 0
-13464 13559 13557 13560 0
13473 -13386 0
13473 -13619 0
13473 -13567 0
-13473 13386 13619 13567 0
13677 -13390 0
13677 -13391 0
-13677 13390 13391 0
13681 -13393 0
13681 -13394 0
-13681 13393 13394 0
13476 -13569 0
13476 -13567 0
13476 -13570 0
-13476 13569 13567 13570 0
13485 -13400 0
13485 -13637 0
13485 -13577 0
-13485 13400 13637 13577 0
13685 -13404 0
13685 -13405 0
-13685 13404 13405 0
13689 -13407 0
13689 -13408 0
-13689 13407 13408 0
13488 -13579 0
13488 -13577 0
13488 -13580 0
-13488 13579 13577 13580 0
13497 -13508 0
13497 -13504 0
13497 -13585 0
-13497 13508 13504 13585 0
13500 -13508 0
13500 -13651 0
-13500 13508 13651 0
13697 -13421 0
13697 -13422 0
-13697 13421 13422 0
13503 -13505 0
13503 -13425 0
13503 -13585 0
-13503 13505 13425 13585 0
13536 -13428 0
13536 -13429 0
-13536 13428 13429 0
13537 -13431 0
13537 -13432 0
-13537 13431 13432 0
13540 -13434 0
13540 -13435 0
-13540 13434 13435 0
13541 -13437 0
13541 -13438 0
-13541 13437 13438 0
13544 -13440 0
13544 -13441 0
-13544 13440 13441 0
13545 -13443 0
13545 -13444 0
-13545 13443 13444 0
13548 -13446 0
13548 -13447 0
-13548 13446 13447 0
13549 -13449 0
13549 -13450 0
-13549 13449 13450 0
13455 -13535 0
13455 -13539 0
-13455 13535 13539 0
13458 -13455 0
13458 -13543 0
-13458 13455 13543 0
13457 -13458 0
13457 -13547 0
-13457 13458 13547 0
13463 13464 0
13463 13601 0
-13463 -13464 -13601 0
13559 13604 0
13559 13602 0
-13559 -13604 -13602 0
13469 13604 0
13469 13534 0
-13469 -13604 -13534 0
13675 13473 0
13675 13475 0
-13675 -13473 -13475 0
13475 13476 0
13475 13619 0
-13475 -13476 -13619 0
13569 13622 0
13569 13620 0
-13569 -13622 -13620 0
13481 13622 0
13481 13667 0
-13481 -13622 -13667 0
13683 13485 0
13683 13487 0
-13683 -13485 -13487 0
13487 13488 0
13487 13637 0
-13487 -13488 -13637 0
13579 13640 0
13579 13638 0
-13579 -13640 -13638 0
13493 13640 0
13493 13669 0
-13493 -13640 -13669 0
13691 13497 0
13691 13502 0
-13691 -13497 -13502 0
13693 13500 0
13693 13501 0
-13693 -13500 -13501 0
13502 13503 0
13502 13504 0
-13502 -13503 -13504 0
13505 13506 0
13505 13671 0
-13505 -13506 -13671 0
13508 13509 0
13508 13510 0
-13508 -13509 -13510 0
13598 13512 0
13598 13591 0
-13598 -13512 -13591 0
13592 13589 0
13592 13534 0
-13592 -13589 -13534 0
13616 13518 0
13616 13609 0
-13616 -13518 -13609 0
13610 13607 0
13610 13534 0
-13610 -13607 -13534 0
13634 13524 0
13634 13627 0
-13634 -13524 -13627 0
13628 13625 0
13628 13534 0
-13628 -13625 -13534 0
13652 13530 0
13652 13645 0
-13652 -13530 -13645 0
13646 13643 0
13646 13534 0
-13646 -13643 -13534 0
13535 13536 0
13535 13537 0
13535 13654 0
-13535 -13536 -13537 -13654 0
13539 13540 0
13539 13541 0
13539 13657 0
-13539 -13540 -13541 -13657 0
13543 13544 0
13543 13545 0
13543 13660 0
-13543 -13544 -13545 -13660 0
13547 13548 0
13547 13549 0
13547 13663 0
-13547 -13548 -13549 -13663 0
-13554 -13559 0
-13554 -13556 0
-13554 -13557 0
13554 13559 13556 13557 0
-13558 -13559 0
-13558 -13560 0
13558 13559 13560 0
-13679 -13562 0
-13679 -13563 0
13679 13562 13563 0
-13564 -13569 0
-13564 -13566 0
-13564 -13567 0
13564 13569 13566 13567 0
-13568 -13569 0
-13568 -13570 0
13568 13569 13570 0
-13687 -13572 0
-13687 -13573 0
13687 13572 13573 0
-13574 -13579 0
-13574 -13576 0
-13574 -13577 0
13574 13579 13576 13577 0
-13578 -13579 0
-13578 -13580 0
13578 13579 13580 0
-13695 -13582 0
-13695 -13583 0
13695 13582 13583 0
-13584 -13585 0
-13584 -13586 0
13584 13585 13586 0
-13587 -13588 0
-13587 -13589 0
13587 13588 13589 0
-13590 -13591 0
-13590 -13592 0
13590 13591 13592 0
-13593 -13594 0
-13593 -13598 0
13593 13594 13598 0
-13596 -13603 0
-13596 -13598 0
-13596 -13599 0
13596 13603 13598 13599 0
-13600 -13601 0
-13600 -13602 0
-13600 -13603 0
-13600 -13604 0
13600 13601 13602 13603 13604 0
-13605 -13606 0
-13605 -13607 0
13605 13606 13607 0
-13608 -13609 0
-13608 -13610 0
13608 13609 13610 0
-13611 -13612 0
-13611 -13616 0
13611 13612 13616 0
-13614 -13621 0
-13614 -13616 0
-13614 -13617 0
13614 13621 13616 13617 0
-13618 -13619 0
-13618 -13620 0
-13618 -13621 0
-13618 -13622 0
13618 13619 13620 13621 13622 0
-13623 -13624 0
-13623 -13625 0
13623 13624 13625 0
-13626 -13627 0
-13626 -13628 0
13626 13627 13628 0
-13629 -13630 0
-13629 -13634 0
13629 13630 13634 0
-13632 -13639 0
-13632 -13634 0
-13632 -13635 0
13632 13639 13634 13635 0
-13636 -13637 0
-13636 -13638 0
-13636 -13639 0
-13636 -13640 0
13636 13637 13638 13639 13640 0
-13641 -13642 0
-13641 -13643 0
13641 13642 13643 0
-13644 -13645 0
-13644 -13646 0
13644 13645 13646 0
-13647 -13648 0
-13647 -13652 0
13647 13648 13652 0
-13650 -13651 0
-13650 -13652 0
-13650 -13653 0
13650 13651 13652 13653 0
-13654 -13655 0
-13654 -13656 0
13654 13655 13656 0
-13657 -13658 0
-13657 -13659 0
13657 13658 13659 0
-13660 -13661 0
-13660 -13662 0
13660 13661 13662 0
-13663 -13664 0
-13663 -13665 0
13663 13664 13665 0
-13667 14231 0
13667 -14231 0
-13669 14233 0
13669 -14233 0
-13671 14232 0
13671 -14232 0
-13673 14234 0
13673 -14234 0
-13675 14249 0
13675 -14249 0
-13677 14251 0
13677 -14251 0
-13679 14250 0
13679 -14250 0
-13681 14252 0
13681 -14252 0
-13683 14267 0
13683 -14267 0
-13685 14269 0
13685 -14269 0
-13687 14268 0
13687 -14268 0
-13689 14270 0
13689 -14270 0
-13691 14134 0
13691 -14134 0
-13693 14281 0
13693 -14281 0
-13695 14140 0
13695 -14140 0
-13697 14136 0
13697 -14136 0
13859 14188 0
-13859 -14188 0
13856 14233 0
-13856 -14233 0
13865 14099 0
-13865 -14099 0
13862 14232 0
-13862 -14232 0
13871 14234 0
-13871 -14234 0
13868 14164 0
-13868 -14164 0
14190 14164 0
-14190 -14164 0
14186 14231 0
-14186 -14231 0
14187 14233 0
-14187 -14233 0
14002 14188 0
-14002 -14188 0
13877 14198 0
-13877 -14198 0
13874 14251 0
-13874 -14251 0
13883 14111 0
-13883 -14111 0
13880 14250 0
-13880 -14250 0
13889 14252 0
-13889 -14252 0
13886 14297 0
-13886 -14297 0
14200 14297 0
-14200 -14297 0
14196 14249 0
-14196 -14249 0
14197 14251 0
-14197 -14251 0
14016 14198 0
-14016 -14198 0
13895 14208 0
-13895 -14208 0
13892 14269 0
-13892 -14269 0
13901 14123 0
-13901 -14123 0
13898 14268 0
-13898 -14268 0
13907 14270 0
-13907 -14270 0
13904 14299 0
-13904 -14299 0
14210 14299 0
-14210 -14299 0
14206 14267 0
-14206 -14267 0
14207 14269 0
-14207 -14269 0
14030 14208 0
-14030 -14208 0
13913 14135 0
-13913 -14135 0
13910 14140 0
-13910 -14140 0
13919 14136 0
-13919 -14136 0
13916 14301 0
-13916 -14301 0
14215 14281 0
-14215 -14281 0
14055 14140 0
-14055 -14140 0
14131 14214 0
-14131 -14214 0
14139 14135 0
-14139 -14135 0
14218 14164 0
-14218 -14164 0
14219 14234 0
-14219 -14234 0
14221 14232 0
-14221 -14232 0
14224 14233 0
-14224 -14233 0
14229 14231 0
-14229 -14231 0
14142 14222 0
-14142 -14222 0
14236 14164 0
-14236 -14164 0
14237 14252 0
-14237 -14252 0
14239 14250 0
-14239 -14250 0
14242 14251 0
-14242 -14251 0
14247 14249 0
-14247 -14249 0
14148 14240 0
-14148 -14240 0
14254 14164 0
-14254 -14164 0
14255 14270 0
-14255 -14270 0
14257 14268 0
-14257 -14268 0
14260 14269 0
-14260 -14269 0
14265 14267 0
-14265 -14267 0
14154 14258 0
-14154 -14258 0
14272 14164 0
-14272 -14164 0
14273 14136 0
-14273 -14136 0
14275 14140 0
-14275 -14140 0
14278 14281 0
-14278 -14281 0
14283 14134 0
-14283 -14134 0
14160 14276 0
-14160 -14276 0
14061 14220 0
-14061 -14220 0
14058 14223 0
-14058 -14223 0
14062 13827 0
-14062 -13827 0
14059 13829 0
-14059 -13829 0
14067 13941 0
-14067 -13941 0
14064 13944 0
-14064 -13944 0
14068 13835 0
-14068 -13835 0
14065 13837 0
-14065 -13837 0
14073 13953 0
-14073 -13953 0
14070 13956 0
-14070 -13956 0
14074 13843 0
-14074 -13843 0
14071 13845 0
-14071 -13845 0
14079 13965 0
-14079 -13965 0
14076 13968 0
-14076 -13968 0
14080 13851 0
-14080 -13851 0
14077 13853 0
-14077 -13853 0
-14006 14188 0
-14006 13856 0
14006 -14188 -13856 0
-14007 14233 0
-14007 13859 0
14007 -14233 -13859 0
-14182 14099 0
-14182 13862 0
14182 -14099 -13862 0
-14183 14232 0
-14183 13865 0
14183 -14232 -13865 0
-14009 14234 0
-14009 13868 0
14009 -14234 -13868 0
-14010 14164 0
-14010 13871 0
14010 -14164 -13871 0
-14020 14198 0
-14020 13874 0
14020 -14198 -13874 0
-14021 14251 0
-14021 13877 0
14021 -14251 -13877 0
-14192 14111 0
-14192 13880 0
14192 -14111 -13880 0
-14193 14250 0
-14193 13883 0
14193 -14250 -13883 0
-14023 14252 0
-14023 13886 0
14023 -14252 -13886 0
-14024 14297 0
-14024 13889 0
14024 -14297 -13889 0
-14034 14208 0
-14034 13892 0
14034 -14208 -13892 0
-14035 14269 0
-14035 13895 0
14035 -14269 -13895 0
-14202 14123 0
-14202 13898 0
14202 -14123 -13898 0
-14203 14268 0
-14203 13901 0
14203 -14268 -13901 0
-14037 14270 0
-14037 13904 0
14037 -14270 -13904 0
-14038 14299 0
-14038 13907 0
14038 -14299 -13907 0
-14212 14135 0
-14212 13910 0
14212 -14135 -13910 0
-14213 14140 0
-14213 13913 0
14213 -14140 -13913 0
-14051 14136 0
-14051 13916 0
14051 -14136 -13916 0
-14052 14301 0
-14052 13919 0
14052 -14301 -13919 0
-14216 14139 0
-14216 14140 0
14216 -14139 -14140 0
14297 14091 0
14297 14093 0
-14297 -14091 -14093 0
14299 -14006 0
14299 -14007 0
-14299 14006 14007 0
-14301 -14182 0
-14301 -14183 0
14301 14182 14183 0
-13960 14230 0
-13960 14248 0
13960 -14230 -14248 0
-13972 13960 0
-13972 14266 0
13972 -13960 -14266 0
-13981 14230 0
-13981 14235 0
13981 -14230 -14235 0
-13941 14230 0
-13941 14238 0
13941 -14230 -14238 0
-13944 14230 0
-13944 14241 0
13944 -14230 -14241 0
-13990 14230 0
-13990 14244 0
13990 -14230 -14244 0
-13987 13960 0
-13987 14253 0
13987 -13960 -14253 0
-13953 13960 0
-13953 14256 0
13953 -13960 -14256 0
-13956 13960 0
-13956 14259 0
13956 -13960 -14259 0
-13996 13960 0
-13996 14262 0
13996 -13960 -14262 0
-13993 13972 0
-13993 14271 0
13993 -13972 -14271 0
-13965 13972 0
-13965 14274 0
13965 -13972 -14274 0
-13968 13972 0
-13968 14277 0
13968 -13972 -14277 0
-13999 13972 0
-13999 14280 0
13999 -13972 -14280 0
-14285 14217 0
-14285 13976 0
14285 -14217 -13976 0
-14286 14164 0
-14286 13979 0
14286 -14164 -13979 0
-14288 13981 0
-14288 13982 0
14288 -13981 -13982 0
-14289 14226 0
-14289 13985 0
14289 -14226 -13985 0
-14291 13987 0
-14291 13988 0
14291 -13987 -13988 0
-14292 13990 0
-14292 13991 0
14292 -13990 -13991 0
-14294 13993 0
-14294 13994 0
14294 -13993 -13994 0
-14295 13996 0
-14295 13997 0
14295 -13996 -13997 0
-13998 13999 0
-13998 14000 0
13998 -13999 -14000 0
14091 -14002 0
14091 -14231 0
14091 -14187 0
-14091 14002 14231 14187 0
14303 -14009 0
14303 -14010 0
-14303 14009 14010 0
14094 -14189 0
14094 -14187 0
14094 -14190 0
-14094 14189 14187 14190 0
14103 -14016 0
14103 -14249 0
14103 -14197 0
-14103 14016 14249 14197 0
14307 -14020 0
14307 -14021 0
-14307 14020 14021 0
14311 -14023 0
14311 -14024 0
-14311 14023 14024 0
14106 -14199 0
14106 -14197 0
14106 -14200 0
-14106 14199 14197 14200 0
14115 -14030 0
14115 -14267 0
14115 -14207 0
-14115 14030 14267 14207 0
14315 -14034 0
14315 -14035 0
-14315 14034 14035 0
14319 -14037 0
14319 -14038 0
-14319 14037 14038 0
14118 -14209 0
14118 -14207 0
14118 -14210 0
-14118 14209 14207 14210 0
14127 -14138 0
14127 -14134 0
14127 -14215 0
-14127 14138 14134 14215 0
14130 -14138 0
14130 -14281 0
-14130 14138 14281 0
14327 -14051 0
14327 -14052 0
-14327 14051 14052 0
14133 -14135 0
14133 -14055 0
14133 -14215 0
-14133 14135 14055 14215 0
14166 -14058 0
14166 -14059 0
-14166 14058 14059 0
14167 -14061 0
14167 -14062 0
-14167 14061 14062 0
14170 -14064 0
14170 -14065 0
-14170 14064 14065 0
14171 -14067 0
14171 -14068 0
-14171 14067 14068 0
14174 -14070 0
14174 -14071 0
-14174 14070 14071 0
14175 -14073 0
14175 -14074 0
-14175 14073 14074 0
14178 -14076 0
14178 -14077 0
-14178 14076 14077 0
14179 -14079 0
14179 -14080 0
-14179 14079 14080 0
14085 -14165 0
14085 -14169 0
-14085 14165 14169 0
14088 -14085 0
14088 -14173 0
-14088 14085 14173 0
14087 -14088 0
14087 -14177 0
-14087 14088 14177 0
14093 14094 0
14093 14231 0
-14093 -14094 -14231 0
14189 14234 0
14189 14232 0
-14189 -14234 -14232 0
14099 14234 0
14099 14164 0
-14099 -14234 -14164 0
14305 14103 0
14305 14105 0
-14305 -14103 -14105 0
14105 14106 0
14105 14249 0
-14105 -14106 -14249 0
14199 14252 0
14199 14250 0
-14199 -14252 -14250 0
14111 14252 0
14111 14297 0
-14111 -14252 -14297 0
14313 14115 0
14313 14117 0
-14313 -14115 -14117 0
14117 14118 0
14117 14267 0
-14117 -14118 -14267 0
14209 14270 0
14209 14268 0
-14209 -14270 -14268 0
14123 14270 0
14123 14299 0
-14123 -14270 -14299 0
14321 14127 0
14321 14132 0
-14321 -14127 -14132 0
14323 14130 0
14323 14131 0
-14323 -14130 -14131 0
14132 14133 0
14132 14134 0
-14132 -14133 -14134 0
14135 14136 0
14135 14301 0
-14135 -14136 -14301 0
14138 14139 0
14138 14140 0
-14138 -14139 -14140 0
14228 14142 0
14228 14221 0
-14228 -14142 -14221 0
14222 14219 0
14222 14164 0
-14222 -14219 -14164 0
14246 14148 0
14246 14239 0
-14246 -14148 -14239 0
14240 14237 0
14240 14164 0
-14240 -14237 -14164 0
14264 14154 0
14264 14257 0
-14264 -14154 -14257 0
14258 14255 0
14258 14164 0
-14258 -14255 -14164 0
14282 14160 0
14282 14275 0
-14282 -14160 -14275 0
14276 14273 0
14276 14164 0
-14276 -14273 -14164 0
14165 14166 0
14165 14167 0
14165 14284 0
-14165 -14166 -14167 -14284 0
14169 14170 0
14169 14171 0
14169 14287 0
-14169 -14170 -14171 -14287 0
14173 14174 0
14173 14175 0
14173 14290 0
-14173 -14174 -14175 -14290 0
14177 14178 0
14177 14179 0
14177 14293 0
-14177 -14178 -14179 -14293 0
-14184 -14189 0
-14184 -14186 0
-14184 -14187 0
14184 14189 14186 14187 0
-14188 -14189 0
-14188 -14190 0
14188 14189 14190 0
-14309 -14192 0
-14309 -14193 0
14309 14192 14193 0
-14194 -14199 0
-14194 -14196 0
-14194 -14197 0
14194 14199 14196 14197 0
-14198 -14199 0
-14198 -14200 0
14198 14199 14200 0
-14317 -14202 0
-14317 -14203 0
14317 14202 14203 0
-14204 -14209 0
-14204 -14206 0
-14204 -14207 0
14204 14209 14206 14207 0
-14208 -14209 0
-14208 -14210 0
14208 14209 14210 0
-14325 -14212 0
-14325 -14213 0
14325 14212 14213 0
-14214 -14215 0
-14214 -14216 0
14214 14215 14216 0
-14217 -14218 0
-14217 -14219 0
14217 14218 14219 0
-14220 -14221 0
-14220 -14222 0
14220 14221 14222 0
-14223 -14224 0
-14223 -14228 0
14223 14224 14228 0
-14226 -14233 0
-14226 -14228 0
-14226 -14229 0
14226 14233 14228 14229 0
-14230 -14231 0
-14230 -14232 0
-14230 -14233 0
-14230 -14234 0
14230 14231 14232 14233 14234 0
-14235 -14236 0
-14235 -14237 0
14235 14236 14237 0
-14238 -14239 0
-14238 -14240 0
14238 14239 14240 0
-14241 -14242 0
-14241 -14246 0
14241 14242 14246 0
-14244 -14251 0
-14244 -14246 0
-14244 -14247 0
14244 14251 14246 14247 0
-14248 -14249 0
-14248 -14250 0
-14248 -14251 0
-14248 -14252 0
14248 14249 14250 14251 14252 0
-14253 -14254 0
-14253 -14255 0
14253 14254 14255 0
-14256 -14257 0
-14256 -14258 0
14256 14257 14258 0
-14259 -14260 0
-14259 -14264 0
14259 14260 14264 0
-14262 -14269 0
-14262 -14264 0
-14262 -14265 0
14262 14269 14264 14265 0
-14266 -14267 0
-14266 -14268 0
-14266 -14269 0
-14266 -14270 0
14266 14267 14268 14269 14270 0
-14271 -14272 0
-14271 -14273 0
14271 14272 14273 0
-14274 -14275 0
-14274 -14276 0
14274 14275 14276 0
-14277 -14278 0
-14277 -14282 0
14277 14278 14282 0
-14280 -14281 0
-14280 -14282 0
-14280 -14283 0
14280 14281 14282 14283 0
-14284 -14285 0
-14284 -14286 0
14284 14285 14286 0
-14287 -14288 0
-14287 -14289 0
14287 14288 14289 0
-14290 -14291 0
-14290 -14292 0
14290 14291 14292 0
-14293 -14294 0
-14293 -14295 0
14293 14294 14295 0
-14297 14861 0
14297 -14861 0
-14299 14863 0
14299 -14863 0
-14301 14862 0
14301 -14862 0
-14303 14864 0
14303 -14864 0
-14305 14879 0
14305 -14879 0
-14307 14881 0
14307 -14881 0
-14309 14880 0
14309 -14880 0
-14311 14882 0
14311 -14882 0
-14313 14897 0
14313 -14897 0
-14315 14899 0
14315 -14899 0
-14317 14898 0
14317 -14898 0
-14319 14900 0
14319 -14900 0
-14321 14764 0
14321 -14764 0
-14323 14911 0
14323 -14911 0
-14325 14770 0
14325 -14770 0
-14327 14766 0
14327 -14766 0
14489 14818 0
-14489 -14818 0
14486 14863 0
-14486 -14863 0
14495 14729 0
-14495 -14729 0
14492 14862 0
-14492 -14862 0
14501 14864 0
-14501 -14864 0
14498 14794 0
-14498 -14794 0
14820 14794 0
-14820 -14794 0
14816 14861 0
-14816 -14861 0
14817 14863 0
-14817 -14863 0
14632 14818 0
-14632 -14818 0
14507 14828 0
-14507 -14828 0
14504 14881 0
-14504 -14881 0
14513 14741 0
-14513 -14741 0
14510 14880 0
-14510 -14880 0
14519 14882 0
-14519 -14882 0
14516 14927 0
-14516 -14927 0
14830 14927 0
-14830 -14927 0
14826 14879 0
-14826 -14879 0
14827 14881 0
-14827 -14881 0
14646 14828 0
-14646 -14828 0
14525 14838 0
-14525 -14838 0
14522 14899 0
-14522 -14899 0
14531 14753 0
-14531 -14753 0
14528 14898 0
-14528 -14898 0
14537 14900 0
-14537 -14900 0
14534 14929 0
-14534 -14929 0
14840 14929 0
-14840 -14929 0
14836 14897 0
-14836 -14897 0
14837 14899 0
-14837 -14899 0
14660 14838 0
-14660 -14838 0
14543 14765 0
-14543 -14765 0
14540 14770 0
-14540 -14770 0
14549 14766 0
-14549 -14766 0
14546 14931 0
-14546 -14931 0
14845 14911 0
-14845 -14911 0
14685 14770 0
-14685 -14770 0
14761 14844 0
-14761 -14844 0
14769 14765 0
-14769 -14765 0
14848 14794 0
-14848 -14794 0
14849 14864 0
-14849 -14864 0
14851 14862 0
-14851 -14862 0
14854 14863 0
-14854 -14863 0
14859 14861 0
-14859 -14861 0
14772 14852 0
-14772 -14852 0
14866 14794 0
-14866 -14794 0
14867 14882 0
-14867 -14882 0
14869 14880 0
-14869 -14880 0
14872 14881 0
-14872 -14881 0
14877 14879 0
-14877 -14879 0
14778 14870 0
-14778 -14870 0
14884 14794 0
-14884 -14794 0
14885 14900 0
-14885 -14900 0
14887 14898 0
-14887 -14898 0
14890 14899 0
-14890 -14899 0
14895 14897 0
-14895 -14897 0
14784 14888 0
-14784 -14888 0
14902 14794 0
-14902 -14794 0
14903 14766 0
-14903 -14766 0
14905 14770 0
-14905 -14770 0
14908 14911 0
-14908 -14911 0
14913 14764 0
-14913 -14764 0
14790 14906 0
-14790 -14906 0
14691 14850 0
-14691 -14850 0
14688 14853 0
-14688 -14853 0
14692 14457 0
-14692 -14457 0
14689 14459 0
-14689 -14459 0
14697 14571 0
-14697 -14571 0
14694 14574 0
-14694 -14574 0
14698 14465 0
-14698 -14465 0
14695 14467 0
-14695 -14467 0
14703 14583 0
-14703 -14583 0
14700 14586 0
-14700 -14586 0
14704 14473 0
-14704 -14473 0
14701 14475 0
-14701 -14475 0
14709 14595 0
-14709 -14595 0
14706 14598 0
-14706 -14598 0
14710 14481 0
-14710 -14481 0
14707 14483 0
-14707 -14483 0
-14636 14818 0
-14636 14486 0
14636 -14818 -14486 0
-14637 14863 0
-14637 14489 0
14637 -14863 -14489 0
-14812 14729 0
-14812 14492 0
14812 -14729 -14492 0
-14813 14862 0
-14813 14495 0
14813 -14862 -14495 0
-14639 14864 0
-14639 14498 0
14639 -14864 -14498 0
-14640 14794 0
-14640 14501 0
14640 -14794 -14501 0
-14650 14828 0
-14650 14504 0
14650 -14828 -14504 0
-14651 14881 0
-14651 14507 0
14651 -14881 -14507 0
-14822 14741 0
-14822 14510 0
14822 -14741 -14510 0
-14823 14880 0
-14823 14513 0
14823 -14880 -14513 0
-14653 14882 0
-14653 14516 0
14653 -14882 -14516 0
-14654 14927 0
-14654 14519 0
14654 -14927 -14519 0
-14664 14838 0
-14664 14522 0
14664 -14838 -14522 0
-14665 14899 0
-14665 14525 0
14665 -14899 -14525 0
-14832 14753 0
-14832 14528 0
14832 -14753 -14528 0
-14833 14898 0
-14833 14531 0
14833 -14898 -14531 0
-14667 14900 0
-14667 14534 0
14667 -14900 -14534 0
-14668 14929 0
-14668 14537 0
14668 -14929 -14537 0
-14842 14765 0
-14842 14540 0
14842 -14765 -14540 0
-14843 14770 0
-14843 14543 0
14843 -14770 -14543 0
-14681 14766 0
-14681 14546 0
14681 -14766 -14546 0
-14682 14931 0
-14682 14549 0
14682 -14931 -14549 0
-14846 14769 0
-14846 14770 0
14846 -14769 -14770 0
14927 14721 0
14927 14723 0
-14927 -14721 -14723 0
14929 -14636 0
14929 -14637 0
-14929 14636 14637 0
-14931 -14812 0
-14931 -14813 0
14931 14812 14813 0
-14590 14860 0
-14590 14878 0
14590 -14860 -14878 0
-14602 14590 0
-14602 14896 0
14602 -14590 -14896 0
-14611 14860 0
-14611 14865 0
14611 -14860 -14865 0
-14571 14860 0
-14571 14868 0
14571 -14860 -14868 0
-14574 14860 0
-14574 14871 0
14574 -14860 -14871 0
-14620 14860 0
-14620 14874 0
14620 -14860 -14874 0
-14617 14590 0
-14617 14883 0
14617 -14590 -14883 0
-14583 14590 0
-14583 14886 0
14583 -14590 -14886 0
-14586 14590 0
-14586 14889 0
14586 -14590 -14889 0
-14626 14590 0
-14626 14892 0
14626 -14590 -14892 0
-14623 14602 0
-14623 14901 0
14623 -14602 -14901 0
-14595 14602 0
-14595 14904 0
14595 -14602 -14904 0
-14598 14602 0
-14598 14907 0
14598 -14602 -14907 0
-14629 14602 0
-14629 14910 0
14629 -14602 -14910 0
-14915 14847 0
-14915 14606 0
14915 -14847 -14606 0
-14916 14794 0
-14916 14609 0
14916 -14794 -14609 0
-14918 14611 0
-14918 14612 0
14918 -14611 -14612 0
-14919 14856 0
-14919 14615 0
14919 -14856 -14615 0
-14921 14617 0
-14921 14618 0
14921 -14617 -14618 0
-14922 14620 0
-14922 14621 0
14922 -14620 -14621 0
-14924 14623 0
-14924 14624 0
14924 -14623 -14624 0
-14925 14626 0
-14925 14627 0
14925 -14626 -14627 0
-14628 14629 0
-14628 14630 0
14628 -14629 -14630 0
14721 -14632 0
14721 -14861 0
14721 -14817 0
-14721 14632 14861 14817 0
14933 -14639 0
14933 -14640 0
-14933 14639 14640 0
14724 -14819 0
14724 -14817 0
14724 -14820 0
-14724 14819 14817 14820 0
14733 -14646 0
14733 -14879 0
14733 -14827 0
-14733 14646 14879 14827 0
14937 -14650 0
14937 -14651 0
-14937 14650 14651 0
14941 -14653 0
14941 -14654 0
-14941 14653 14654 0
14736 -14829 0
14736 -14827 0
14736 -14830 0
-14736 14829 14827 14830 0
14745 -14660 0
14745 -14897 0
14745 -14837 0
-14745 14660 14897 14837 0
14945 -14664 0
14945 -14665 0
-14945 14664 14665 0
14949 -14667 0
14949 -14668 0
-14949 14667 14668 0
14748 -14839 0
14748 -14837 0
14748 -14840 0
-14748 14839 14837 14840 0
14757 -14768 0
14757 -14764 0
14757 -14845 0
-14757 14768 14764 14845 0
14760 -14768 0
14760 -14911 0
-14760 14768 14911 0
14957 -14681 0
14957 -14682 0
-14957 14681 14682 0
14763 -14765 0
14763 -14685 0
14763 -14845 0
-14763 14765 14685 14845 0
14796 -14688 0
14796 -14689 0
-14796 14688 14689 0
14797 -14691 0
14797 -14692 0
-14797 14691 14692 0
14800 -14694 0
14800 -14695 0
-14800 14694 14695 0
14801 -14697 0
14801 -14698 0
-14801 14697 14698 0
14804 -14700 0
14804 -14701 0
-14804 14700 14701 0
14805 -14703 0
14805 -14704 0
-14805 14703 14704 0
14808 -14706 0
14808 -14707 0
-14808 14706 14707 0
14809 -14709 0
14809 -14710 0
-14809 14709 14710 0
14715 -14795 0
14715 -14799 0
-14715 14795 14799 0
14718 -14715 0
14718 -14803 0
-14718 14715 14803 0
14717 -14718 0
14717 -14807 0
-14717 14718 14807 0
14723 14724 0
14723 14861 0
-14723 -14724 -14861 0
14819 14864 0
14819 14862 0
-14819 -14864 -14862 0
14729 14864 0
14729 14794 0
-14729 -14864 -14794 0
14935 14733 0
14935 14735 0
-14935 -14733 -14735 0
14735 14736 0
14735 14879 0
-14735 -14736 -14879 0
14829 14882 0
14829 14880 0
-14829 -14882 -14880 0
14741 14882 0
14741 14927 0
-14741 -14882 -14927 0
14943 14745 0
14943 14747 0
-14943 -14745 -14747 0
14747 14748 0
14747 14897 0
-14747 -14748 -14897 0
14839 14900 0
14839 14898 0
-14839 -14900 -14898 0
14753 14900 0
14753 14929 0
-14753 -14900 -14929 0
14951 14757 0
14951 14762 0
-14951 -14757 -14762 0
14953 14760 0
14953 14761 0
-14953 -14760 -14761 0
14762 14763 0
14762 14764 0
-14762 -14763 -14764 0
14765 14766 0
14765 14931 0
-14765 -14766 -14931 0
14768 14769 0
14768 14770 0
-14768 -14769 -14770 0
14858 14772 0
14858 14851 0
-14858 -14772 -14851 0
14852 14849 0
14852 14794 0
-14852 -14849 -14794 0
14876 14778 0
14876 14869 0
-14876 -14778 -14869 0
14870 14867 0
14870 14794 0
-14870 -14867 -14794 0
14894 14784 0
14894 14887 0
-14894 -14784 -14887 0
14888 14885 0
14888 14794 0
-14888 -14885 -14794 0
14912 14790 0
14912 14905 0
-14912 -14790 -14905 0
14906 14903 0
14906 14794 0
-14906 -14903 -14794 0
14795 14796 0
14795 14797 0
14795 14914 0
-14795 -14796 -14797 -14914 0
14799 14800 0
14799 14801 0
14799 14917 0
-14799 -14800 -14801 -14917 0
14803 14804 0
14803 14805 0
14803 14920 0
-14803 -14804 -14805 -14920 0
14807 14808 0
14807 14809 0
14807 14923 0
-14807 -14808 -14809 -14923 0
-14814 -14819 0
-14814 -14816 0
-14814 -14817 0
14814 14819 14816 14817 0
-14818 -14819 0
-14818 -14820 0
14818 14819 14820 0
-14939 -14822 0
-14939 -14823 0
14939 14822 14823 0
-14824 -14829 0
-14824 -14826 0
-14824 -14827 0
14824 14829 14826 14827 0
-14828 -14829 0
-14828 -14830 0
14828 14829 14830 0
-14947 -14832 0
-14947 -14833 0
14947 14832 14833 0
-14834 -14839 0
-14834 -14836 0
-14834 -14837 0
14834 14839 14836 14837 0
-14838 -14839 0
-14838 -14840 0
14838 14839 14840 0
-14955 -14842 0
-14955 -14843 0
14955 14842 14843 0
-14844 -14845 0
-14844 -14846 0
14844 14845 14846 0
-14847 -14848 0
-14847 -14849 0
14847 14848 14849 0
-14850 -14851 0
-14850 -14852 0
14850 14851 14852 0
-14853 -14854 0
-14853 -14858 0
14853 14854 14858 0
-14856 -14863 0
-14856 -14858 0
-14856 -14859 0
14856 14863 14858 14859 0
-14860 -14861 0
-14860 -14862 0
-14860 -14863 0
-14860 -14864 0
14860 14861 14862 14863 14864 0
-14865 -14866 0
-14865 -14867 0
14865 14866 14867 0
-14868 -14869 0
-14868 -14870 0
14868 14869 14870 0
-14871 -14872 0
-14871 -14876 0
14871 14872 14876 0
-14874 -14881 0
-14874 -14876 0
-14874 -14877 0
14874 14881 14876 14877 0
-14878 -14879 0
-14878 -14880 0
-14878 -14881 0
-14878 -14882 0
14878 14879 14880 14881 14882 0
-14883 -14884 0
-14883 -14885 0
14883 14884 14885 0
-14886 -14887 0
-14886 -14888 0
14886 14887 14888 0
-14889 -14890 0
-14889 -14894 0
14889 14890 14894 0
-14892 -14899 0
-14892 -14894 0
-14892 -14895 0
14892 14899 14894 14895 0
-14896 -14897 0
-14896 -14898 0
-14896 -14899 0
-14896 -14900 0
14896 14897 14898 14899 14900 0
-14901 -14902 0
-14901 -14903 0
14901 14902 14903 0
-14904 -14905 0
-14904 -14906 0
14904 14905 14906 0
-14907 -14908 0
-14907 -14912 0
14907 14908 14912 0
-14910 -14911 0
-14910 -14912 0
-14910 -14913 0
14910 14911 14912 14913 0
-14914 -14915 0
-14914 -14916 0
14914 14915 14916 0
-14917 -14918 0
-14917 -14919 0
14917 14918 14919 0
-14920 -14921 0
-14920 -14922 0
14920 14921 14922 0
-14923 -14924 0
-14923 -14925 0
14923 14924 14925 0
-14927 15491 0
14927 -15491 0
-14929 15493 0
14929 -15493 0
-14931 15492 0
14931 -15492 0
-14933 15494 0
14933 -15494 0
-14935 15509 0
14935 -15509 0
-14937 15511 0
14937 -15511 0
-14939 15510 0
14939 -15510 0
-14941 15512 0
14941 -15512 0
-14943 15527 0
14943 -15527 0
-14945 15529 0
14945 -15529 0
-14947 15528 0
14947 -15528 0
-14949 15530 0
14949 -15530 0
-14951 15394 0
14951 -15394 0
-14953 15541 0
14953 -15541 0
-14955 15400 0
14955 -15400 0
-14957 15396 0
14957 -15396 0
15119 15448 0
-15119 -15448 0
15116 15493 0
-15116 -15493 0
15125 15359 0
-15125 -15359 0
15122 15492 0
-15122 -15492 0
15131 15494 0
-15131 -15494 0
15128 15424 0
-15128 -15424 0
15450 15424 0
-15450 -15424 0
15446 15491 0
-15446 -15491 0
15447 15493 0
-15447 -15493 0
15262 15448 0
-15262 -15448 0
15137 15458 0
-15137 -15458 0
15134 15511 0
-15134 -15511 0
15143 15371 0
-15143 -15371 0
15140 15510 0
-15140 -15510 0
15149 15512 0
-15149 -15512 0
15146 15557 0
-15146 -15557 0
15460 15557 0
-15460 -15557 0
15456 15509 0
-15456 -15509 0
15457 15511 0
-15457 -15511 0
15276 15458 0
-15276 -15458 0
15155 15468 0
-15155 -15468 0
15152 15529 0
-15152 -15529 0
15161 15383 0
-15161 -15383 0
15158 15528 0
-15158 -15528 0
15167 15530 0
-15167 -15530 0
15164 15559 0
-15164 -15559 0
15470 15559 0
-15470 -15559 0
15466 15527 0
-15466 -15527 0
15467 15529 0
-15467 -15529 0
15290 15468 0
-15290 -15468 0
15173 15395 0
-15173 -15395 0
15170 15400 0
-15170 -15400 0
15179 15396 0
-15179 -15396 0
15176 15561 0
-15176 -15561 0
15475 15541 0
-15475 -15541 0
15315 15400 0
-15315 -15400 0
15391 15474 0
-15391 -15474 0
15399 15395 0
-15399 -15395 0
15478 15424 0
-15478 -15424 0
15479 15494 0
-15479 -15494 0
15481 15492 0
-15481 -15492 0
15484 15493 0
-15484 -15493 0
15489 15491 0
-15489 -15491 0
15402 15482 0
-15402 -15482 0
15496 15424 0
-15496 -15424 0
15497 15512 0
-15497 -15512 0
15499 15510 0
-15499 -15510 0
15502 15511 0
-15502 -15511 0
15507 15509 0
-15507 -15509 0
15408 15500 0
-15408 -15500 0
15514 15424 0
-15514 -15424 0
15515 15530 0
-15515 -15530 0
15517 15528 0
-15517 -15528 0
15520 15529 0
-15520 -15529 0
15525 15527 0
-15525 -15527 0
15414 15518 0
-15414 -15518 0
15532 15424 0
-15532 -15424 0
15533 15396 0
-15533 -15396 0
15535 15400 0
-15535 -15400 0
15538 15541 0
-15538 -15541 0
15543 15394 0
-15543 -15394 0
15420 15536 0
-15420 -15536 0
15321 15480 0
-15321 -15480 0
15318 15483 0
-15318 -15483 0
15322 15087 0
-15322 -15087 0
15319 15089 0
-15319 -15089 0
15327 15201 0
-15327 -15201 0
15324 15204 0
-15324 -15204 0
15328 15095 0
-15328 -15095 0
15325 15097 0
-15325 -15097 0
15333 15213 0
-15333 -15213 0
15330 15216 0
-15330 -15216 0
15334 15103 0
-15334 -15103 0
15331 15105 0
-15331 -15105 0
15339 15225 0
-15339 -15225 0
15336 15228 0
-15336 -15228 0
15340 15111 0
-15340 -15111 0
15337 15113 0
-15337 -15113 0
-15266 15448 0
-15266 15116 0
15266 -15448 -15116 0
-15267 15493 0
-15267 15119 0
15267 -15493 -15119 0
-15442 15359 0
-15442 15122 0
15442 -15359 -15122 0
-15443 15492 0
-15443 15125 0
15443 -15492 -15125 0
-15269 15494 0
-15269 15128 0
15269 -15494 -15128 0
-15270 15424 0
-15270 15131 0
15270 -15424 -15131 0
-15280 15458 0
-15280 15134 0
15280 -15458 -15134 0
-15281 15511 0
-15281 15137 0
15281 -15511 -15137 0
-15452 15371 0
-15452 15140 0
15452 -15371 -15140 0
-15453 15510 0
-15453 15143 0
15453 -15510 -15143 0
-15283 15512 0
-15283 15146 0
15283 -15512 -15146 0
-15284 15557 0
-15284 15149 0
15284 -15557 -15149 0
-15294 15468 0
-15294 15152 0
15294 -15468 -15152 0
-15295 15529 0
-15295 15155 0
15295 -15529 -15155 0
-15462 15383 0
-15462 15158 0
15462 -15383 -15158 0
-15463 15528 0
-15463 15161 0
15463 -15528 -15161 0
-15297 15530 0
-15297 15164 0
15297 -15530 -15164 0
-15298 15559 0
-15298 15167 0
15298 -15559 -15167 0
-15472 15395 0
-15472 15170 0
15472 -15395 -15170 0
-15473 15400 0
-15473 15173 0
15473 -15400 -15173 0
-15311 15396 0
-15311 15176 0
15311 -15396 -15176 0
-15312 15561 0
-15312 15179 0
15312 -15561 -15179 0
-15476 15399 0
-15476 15400 0
15476 -15399 -15400 0
15557 15351 0
15557 15353 0
-15557 -15351 -15353 0
15559 -15266 0
15559 -15267 0
-15559 15266 15267 0
-15561 -15442 0
-15561 -15443 0
15561 15442 15443 0
-15220 15490 0
-15220 15508 0
15220 -15490 -15508 0
-15232 15220 0
-15232 15526 0
15232 -15220 -15526 0
-15241 15490 0
-15241 15495 0
15241 -15490 -15495 0
-15201 15490 0
-15201 15498 0
15201 -15490 -15498 0
-15204 15490 0
-15204 15501 0
15204 -15490 -15501 0
-15250 15490 0
-15250 15504 0
15250 -15490 -15504 0
-15247 15220 0
-15247 15513 0
15247 -15220 -15513 0
-15213 15220 0
-15213 15516 0
15213 -15220 -15516 0
-15216 15220 0
-15216 15519 0
15216 -15220 -15519 0
-15256 15220 0
-15256 15522 0
15256 -15220 -15522 0
-15253 15232 0
-15253 15531 0
15253 -15232 -15531 0
-15225 15232 0
-15225 15534 0
15225 -15232 -15534 0
-15228 15232 0
-15228 15537 0
15228 -15232 -15537 0
-15259 15232 0
-15259 15540 0
15259 -15232 -15540 0
-15545 15477 0
-15545 15236 0
15545 -15477 -15236 0
-15546 15424 0
-15546 15239 0
15546 -15424 -15239 0
-15548 15241 0
-15548 15242 0
15548 -15241 -15242 0
-15549 15486 0
-15549 15245 0
15549 -15486 -15245 0
-15551 15247 0
-15551 15248 0
15551 -15247 -15248 0
-15552 15250 0
-15552 15251 0
15552 -15250 -15251 0
-15554 15253 0
-15554 15254 0
15554 -15253 -15254 0
-15555 15256 0
-15555 15257 0
15555 -15256 -15257 0
-15258 15259 0
-15258 15260 0
15258 -15259 -15260 0
15351 -15262 0
15351 -15491 0
15351 -15447 0
-15351 15262 15491 15447 0
15563 -15269 0
15563 -15270 0
-15563 15269 15270 0
15354 -15449 0
15354 -15447 0
15354 -15450 0
-15354 15449 15447 15450 0
15363 -15276 0
15363 -15509 0
15363 -15457 0
-15363 15276 15509 15457 0
15567 -15280 0
15567 -15281 0
-15567 15280 15281 0
15571 -15283 0
15571 -15284 0
-15571 15283 15284 0
15366 -15459 0
15366 -15457 0
15366 -15460 0
-15366 15459 15457 15460 0
15375 -15290 0
15375 -15527 0
15375 -15467 0
-15375 15290 15527 15467 0
15575 -15294 0
15575 -15295 0
-15575 15294 15295 0
15579 -15297 0
15579 -15298 0
-15579 15297 15298 0
15378 -15469 0
15378 -15467 0
15378 -15470 0
-15378 15469 15467 15470 0
15387 -15398 0
15387 -15394 0
15387 -15475 0
-15387 15398 15394 15475 0
15390 -15398 0
15390 -15541 0
-15390 15398 15541 0
15587 -15311 0
15587 -15312 0
-15587 15311 15312 0
15393 -15395 0
15393 -15315 0
15393 -15475 0
-15393 15395 15315 15475 0
15426 -15318 0
15426 -15319 0
-15426 15318 15319 0
15427 -15321 0
15427 -15322 0
-15427 15321 15322 0
15430 -15324 0
15430 -15325 0
-15430 15324 15325 0
15431 -15327 0
15431 -15328 0
-15431 15327 15328 0
15434 -15330 0
15434 -15331 0
-15434 15330 15331 0
15435 -15333 0
15435 -15334 0
-15435 15333 15334 0
15438 -15336 0
15438 -15337 0
-15438 15336 15337 0
15439 -15339 0
15439 -15340 0
-15439 15339 15340 0
15345 -15425 0
15345 -15429 0
-15345 15425 15429 0
15348 -15345 0
15348 -15433 0
-15348 15345 15433 0
15347 -15348 0
15347 -15437 0
-15347 15348 15437 0
15353 15354 0
15353 15491 0
-15353 -15354 -15491 0
15449 15494 0
15449 15492 0
-15449 -15494 -15492 0
15359 15494 0
15359 15424 0
-15359 -15494 -15424 0
15565 15363 0
15565 15365 0
-15565 -15363 -15365 0
15365 15366 0
15365 15509 0
-15365 -15366 -15509 0
15459 15512 0
15459 15510 0
-15459 -15512 -15510 0
15371 15512 0
15371 15557 0
-15371 -15512 -15557 0
15573 15375 0
15573 15377 0
-15573 -15375 -15377 0
15377 15378 0
15377 15527 0
-15377 -15378 -15527 0
15469 15530 0
15469 15528 0
-15469 -15530 -15528 0
15383 15530 0
15383 15559 0
-15383 -15530 -15559 0
15581 15387 0
15581 15392 0
-15581 -15387 -15392 0
15583 15390 0
15583 15391 0
-15583 -15390 -15391 0
15392 15393 0
15392 15394 0
-15392 -15393 -15394 0
15395 15396 0
15395 15561 0
-15395 -15396 -15561 0
15398 15399 0
15398 15400 0
-15398 -15399 -15400 0
15488 15402 0
15488 15481 0
-15488 -15402 -15481 0
15482 15479 0
15482 15424 0
-15482 -15479 -15424 0
15506 15408 0
15506 15499 0
-15506 -15408 -15499 0
15500 15497 0
15500 15424 0
-15500 -15497 -15424 0
15524 15414 0
15524 15517 0
-15524 -15414 -15517 0
15518 15515 0
15518 15424 0
-15518 -15515 -15424 0
15542 15420 0
15542 15535 0
-15542 -15420 -15535 0
15536 15533 0
15536 15424 0
-15536 -15533 -15424 0
15425 15426 0
15425 15427 0
15425 15544 0
-15425 -15426 -15427 -15544 0
15429 15430 0
15429 15431 0
15429 15547 0
-15429 -15430 -15431 -15547 0
15433 15434 0
15433 15435 0
15433 15550 0
-15433 -15434 -15435 -15550 0
15437 15438 0
15437 15439 0
15437 15553 0
-15437 -15438 -15439 -15553 0
-15444 -15449 0
-15444 -15446 0
-15444 -15447 0
15444 15449 15446 15447 0
-15448 -15449 0
-15448 -15450 0
15448 15449 15450 0
-15569 -15452 0
-15569 -15453 0
15569 15452 15453 0
-15454 -15459 0
-15454 -15456 0
-15454 -15457 0
15454 15459 15456 15457 0
-15458 -15459 0
-15458 -15460 0
15458 15459 15460 0
-15577 -15462 0
-15577 -15463 0
15577 15462 15463 0
-15464 -15469 0
-15464 -15466 0
-15464 -15467 0
15464 15469 15466 15467 0
-15468 -15469 0
-15468 -15470 0
15468 15469 15470 0
-15585 -15472 0
-15585 -15473 0
15585 15472 15473 0
-15474 -15475 0
-15474 -15476 0
15474 15475 15476 0
-15477 -15478 0
-15477 -15479 0
15477 15478 15479 0
-15480 -15481 0
-15480 -15482 0
15480 15481 15482 0
-15483 -15484 0
-15483 -15488 0
15483 15484 15488 0
-15486 -15493 0
-15486 -15488 0
-15486 -15489 0
15486 15493 15488 15489 0
-15490 -15491 0
-15490 -15492 0
-15490 -15493 0
-15490 -15494 0
15490 15491 15492 15493 15494 0
-15495 -15496 0
-15495 -15497 0
15495 15496 15497 0
-15498 -15499 0
-15498 -15500 0
15498 15499 15500 0
-15501 -15502 0
-15501 -15506 0
15501 15502 15506 0
-15504 -15511 0
-15504 -15506 0
-15504 -15507 0
15504 15511 15506 15507 0
-15508 -15509 0
-15508 -15510 0
-15508 -15511 0
-15508 -15512 0
15508 15509 15510 15511 15512 0
-15513 -15514 0
-15513 -15515 0
15513 15514 15515 0
-15516 -15517 0
-15516 -15518 0
15516 15517 15518 0
-15519 -15520 0
-15519 -15524 0
15519 15520 15524 0
-15522 -15529 0
-15522 -15524 0
-15522 -15525 0
15522 15529 15524 15525 0
-15526 -15527 0
-15526 -15528 0
-15526 -15529 0
-15526 -15530 0
15526 15527 15528 15529 15530 0
-15531 -15532 0
-15531 -15533 0
15531 15532 15533 0
-15534 -15535 0
-15534 -15536 0
15534 15535 15536 0
-15537 -15538 0
-15537 -15542 0
15537 15538 15542 0
-15540 -15541 0
-15540 -15542 0
-15540 -15543 0
15540 15541 15542 15543 0
-15544 -15545 0
-15544 -15546 0
15544 15545 15546 0
-15547 -15548 0
-15547 -15549 0
15547 15548 15549 0
-15550 -15551 0
-15550 -15552 0
15550 15551 15552 0
-15553 -15554 0
-15553 -15555 0
15553 15554 15555 0
-15557 16121 0
15557 -16121 0
-15559 16123 0
15559 -16123 0
-15561 16122 0
15561 -16122 0
-15563 16124 0
15563 -16124 0
-15565 16139 0
15565 -16139 0
-15567 16141 0
15567 -16141 0
-15569 16140 0
15569 -16140 0
-15571 16142 0
15571 -16142 0
-15573 16157 0
15573 -16157 0
-15575 16159 0
15575 -16159 0
-15577 16158 0
15577 -16158 0
-15579 16160 0
15579 -16160 0
-15581 16024 0
15581 -16024 0
-15583 16171 0
15583 -16171 0
-15585 16030 0
15585 -16030 0
-15587 16026 0
15587 -16026 0
15749 16078 0
-15749 -16078 0
15746 16123 0
-15746 -16123 0
15755 15989 0
-15755 -15989 0
15752 16122 0
-15752 -16122 0
15761 16124 0
-15761 -16124 0
15758 16054 0
-15758 -16054 0
16080 16054 0
-16080 -16054 0
16076 16121 0
-16076 -16121 0
16077 16123 0
-16077 -16123 0
15892 16078 0
-15892 -16078 0
15767 16088 0
-15767 -16088 0
15764 16141 0
-15764 -16141 0
15773 16001 0
-15773 -16001 0
15770 16140 0
-15770 -16140 0
15779 16142 0
-15779 -16142 0
15776 16003 0
-15776 -16003 0
16090 16003 0
-16090 -16003 0
16086 16139 0
-16086 -16139 0
16087 16141 0
-16087 -16141 0
15906 16088 0
-15906 -16088 0
15785 16098 0
-15785 -16098 0
15782 16159 0
-15782 -16159 0
15791 16013 0
-15791 -16013 0
15788 16158 0
-15788 -16158 0
15797 16160 0
-15797 -16160 0
15794 16015 0
-15794 -16015 0
16100 16015 0
-16100 -16015 0
16096 16157 0
-16096 -16157 0
16097 16159 0
-16097 -16159 0
15920 16098 0
-15920 -16098 0
15803 16025 0
-15803 -16025 0
15800 16030 0
-15800 -16030 0
15809 16026 0
-15809 -16026 0
15806 16071 0
-15806 -16071 0
16105 16171 0
-16105 -16171 0
15945 16030 0
-15945 -16030 0
16021 16104 0
-16021 -16104 0
16029 16025 0
-16029 -16025 0
16108 16054 0
-16108 -16054 0
16109 16124 0
-16109 -16124 0
16111 16122 0
-16111 -16122 0
16114 16123 0
-16114 -16123 0
16119 16121 0
-16119 -16121 0
16032 16112 0
-16032 -16112 0
16126 16054 0
-16126 -16054 0
16127 16142 0
-16127 -16142 0
16129 16140 0
-16129 -16140 0
16132 16141 0
-16132 -16141 0
16137 16139 0
-16137 -16139 0
16038 16130 0
-16038 -16130 0
16144 16054 0
-16144 -16054 0
16145 16160 0
-16145 -16160 0
16147 16158 0
-16147 -16158 0
16150 16159 0
-16150 -16159 0
16155 16157 0
-16155 -16157 0
16044 16148 0
-16044 -16148 0
16162 16054 0
-16162 -16054 0
16163 16026 0
-16163 -16026 0
16165 16030 0
-16165 -16030 0
16168 16171 0
-16168 -16171 0
16173 16024 0
-16173 -16024 0
16050 16166 0
-16050 -16166 0
15951 16110 0
-15951 -16110 0
15948 16113 0
-15948 -16113 0
15952 15717 0
-15952 -15717 0
15949 15719 0
-15949 -15719 0
15957 15831 0
-15957 -15831 0
15954 15834 0
-15954 -15834 0
15958 15725 0
-15958 -15725 0
15955 15727 0
-15955 -15727 0
15963 15843 0
-15963 -15843 0
15960 15846 0
-15960 -15846 0
15964 15733 0
-15964 -15733 0
15961 15735 0
-15961 -15735 0
15969 15855 0
-15969 -15855 0
15966 15858 0
-15966 -15858 0
15970 15741 0
-15970 -15741 0
15967 15743 0
-15967 -15743 0
-15896 16078 0
-15896 15746 0
15896 -16078 -15746 0
-15897 16123 0
-15897 15749 0
15897 -16123 -15749 0
-16072 15989 0
-16072 15752 0
16072 -15989 -15752 0
-16073 16122 0
-16073 15755 0
16073 -16122 -15755 0
-15899 16124 0
-15899 15758 0
15899 -16124 -15758 0
-15900 16054 0
-15900 15761 0
15900 -16054 -15761 0
-15910 16088 0
-15910 15764 0
15910 -16088 -15764 0
-15911 16141 0
-15911 15767 0
15911 -16141 -15767 0
-16082 16001 0
-16082 15770 0
16082 -16001 -15770 0
-16083 16140 0
-16083 15773 0
16083 -16140 -15773 0
-15913 16142 0
-15913 15776 0
15913 -16142 -15776 0
-15914 16003 0
-15914 15779 0
15914 -16003 -15779 0
-15924 16098 0
-15924 15782 0
15924 -16098 -15782 0
-15925 16159 0
-15925 15785 0
15925 -16159 -15785 0
-16092 16013 0
-16092 15788 0
16092 -16013 -15788 0
-16093 16158 0
-16093 15791 0
16093 -16158 -15791 0
-15927 16160 0
-15927 15794 0
15927 -16160 -15794 0
-15928 16015 0
-15928 15797 0
15928 -16015 -15797 0
-16102 16025 0
-16102 15800 0
16102 -16025 -15800 0
-16103 16030 0
-16103 15803 0
16103 -16030 -15803 0
-15941 16026 0
-15941 15806 0
15941 -16026 -15806 0
-15942 16071 0
-15942 15809 0
15942 -16071 -15809 0
-16106 16029 0
-16106 16030 0
16106 -16029 -16030 0
16003 15981 0
16003 15983 0
-16003 -15981 -15983 0
16015 -15896 0
16015 -15897 0
-16015 15896 15897 0
-16071 -16072 0
-16071 -16073 0
16071 16072 16073 0
-15850 16120 0
-15850 16138 0
15850 -16120 -16138 0
-15862 15850 0
-15862 16156 0
15862 -15850 -16156 0
-15871 16120 0
-15871 16125 0
15871 -16120 -16125 0
-15831 16120 0
-15831 16128 0
15831 -16120 -16128 0
-15834 16120 0
-15834 16131 0
15834 -16120 -16131 0
-15880 16120 0
-15880 16134 0
15880 -16120 -16134 0
-15877 15850 0
-15877 16143 0
15877 -15850 -16143 0
-15843 15850 0
-15843 16146 0
15843 -15850 -16146 0
-15846 15850 0
-15846 16149 0
15846 -15850 -16149 0
-15886 15850 0
-15886 16152 0
15886 -15850 -16152 0
-15883 15862 0
-15883 16161 0
15883 -15862 -16161 0
-15855 15862 0
-15855 16164 0
15855 -15862 -16164 0
-15858 15862 0
-15858 16167 0
15858 -15862 -16167 0
-15889 15862 0
-15889 16170 0
15889 -15862 -16170 0
-16175 16107 0
-16175 15866 0
16175 -16107 -15866 0
-16176 16054 0
-16176 15869 0
16176 -16054 -15869 0
-16178 15871 0
-16178 15872 0
16178 -15871 -15872 0
-16179 16116 0
-16179 15875 0
16179 -16116 -15875 0
-16181 15877 0
-16181 15878 0
16181 -15877 -15878 0
-16182 15880 0
-16182 15881 0
16182 -15880 -15881 0
-16184 15883 0
-16184 15884 0
16184 -15883 -15884 0
-16185 15886 0
-16185 15887 0
16185 -15886 -15887 0
-16188 15889 0
-16188 15890 0
16188 -15889 -15890 0
15981 -15892 0
15981 -16121 0
15981 -16077 0
-15981 15892 16121 16077 0
15898 -15899 0
15898 -15900 0
-15898 15899 15900 0
15984 -16079 0
15984 -16077 0
15984 -16080 0
-15984 16079 16077 16080 0
15993 -15906 0
15993 -16139 0
15993 -16087 0
-15993 15906 16139 16087 0
15909 -15910 0
15909 -15911 0
-15909 15910 15911 0
15912 -15913 0
15912 -15914 0
-15912 15913 15914 0
15996 -16089 0
15996 -16087 0
15996 -16090 0
-15996 16089 16087 16090 0
16005 -15920 0
16005 -16157 0
16005 -16097 0
-16005 15920 16157 16097 0
15923 -15924 0
15923 -15925 0
-15923 15924 15925 0
15926 -15927 0
15926 -15928 0
-15926 15927 15928 0
16008 -16099 0
16008 -16097 0
16008 -16100 0
-16008 16099 16097 16100 0
16017 -16028 0
16017 -16024 0
16017 -16105 0
-16017 16028 16024 16105 0
16020 -16028 0
16020 -16171 0
-16020 16028 16171 0
15940 -15941 0
15940 -15942 0
-15940 15941 15942 0
16023 -16025 0
16023 -15945 0
16023 -16105 0
-16023 16025 15945 16105 0
16056 -15948 0
16056 -15949 0
-16056 15948 15949 0
16057 -15951 0
16057 -15952 0
-16057 15951 15952 0
16060 -15954 0
16060 -15955 0
-16060 15954 15955 0
16061 -15957 0
16061 -15958 0
-16061 15957 15958 0
16064 -15960 0
16064 -15961 0
-16064 15960 15961 0
16065 -15963 0
16065 -15964 0
-16065 15963 15964 0
16068 -15966 0
16068 -15967 0
-16068 15966 15967 0
16069 -15969 0
16069 -15970 0
-16069 15969 15970 0
15975 -16055 0
15975 -16059 0
-15975 16055 16059 0
15978 -15975 0
15978 -16063 0
-15978 15975 16063 0
16187 -15978 0
16187 -16067 0
-16187 15978 16067 0
15983 15984 0
15983 16121 0
-15983 -15984 -16121 0
16079 16124 0
16079 16122 0
-16079 -16124 -16122 0
15989 16124 0
15989 16054 0
-15989 -16124 -16054 0
15992 15993 0
15992 15995 0
-15992 -15993 -15995 0
15995 15996 0
15995 16139 0
-15995 -15996 -16139 0
16089 16142 0
16089 16140 0
-16089 -16142 -16140 0
16001 16142 0
16001 16003 0
-16001 -16142 -16003 0
16004 16005 0
16004 16007 0
-16004 -16005 -16007 0
16007 16008 0
16007 16157 0
-16007 -16008 -16157 0
16099 16160 0
16099 16158 0
-16099 -16160 -16158 0
16013 16160 0
16013 16015 0
-16013 -16160 -16015 0
16016 16017 0
16016 16022 0
-16016 -16017 -16022 0
16019 16020 0
16019 16021 0
-16019 -16020 -16021 0
16022 16023 0
16022 16024 0
-16022 -16023 -16024 0
16025 16026 0
16025 16071 0
-16025 -16026 -16071 0
16028 16029 0
16028 16030 0
-16028 -16029 -16030 0
16118 16032 0
16118 16111 0
-16118 -16032 -16111 0
16112 16109 0
16112 16054 0
-16112 -16109 -16054 0
16136 16038 0
16136 16129 0
-16136 -16038 -16129 0
16130 16127 0
16130 16054 0
-16130 -16127 -16054 0
16154 16044 0
16154 16147 0
-16154 -16044 -16147 0
16148 16145 0
16148 16054 0
-16148 -16145 -16054 0
16172 16050 0
16172 16165 0
-16172 -16050 -16165 0
16166 16163 0
16166 16054 0
-16166 -16163 -16054 0
16055 16056 0
16055 16057 0
16055 16174 0
-16055 -16056 -16057 -16174 0
16059 16060 0
16059 16061 0
16059 16177 0
-16059 -16060 -16061 -16177 0
16063 16064 0
16063 16065 0
16063 16180 0
-16063 -16064 -16065 -16180 0
16067 16068 0
16067 16069 0
16067 16183 0
-16067 -16068 -16069 -16183 0
-16074 -16079 0
-16074 -16076 0
-16074 -16077 0
16074 16079 16076 16077 0
-16078 -16079 0
-16078 -16080 0
16078 16079 16080 0
-16081 -16082 0
-16081 -16083 0
16081 16082 16083 0
-16084 -16089 0
-16084 -16086 0
-16084 -16087 0
16084 16089 16086 16087 0
-16088 -16089 0
-16088 -16090 0
16088 16089 16090 0
-16091 -16092 0
-16091 -16093 0
16091 16092 16093 0
-16094 -16099 0
-16094 -16096 0
-16094 -16097 0
16094 16099 16096 16097 0
-16098 -16099 0
-16098 -16100 0
16098 16099 16100 0
-16101 -16102 0
-16101 -16103 0
16101 16102 16103 0
-16104 -16105 0
-16104 -16106 0
16104 16105 16106 0
-16107 -16108 0
-16107 -16109 0
16107 16108 16109 0
-16110 -16111 0
-16110 -16112 0
16110 16111 16112 0
-16113 -16114 0
-16113 -16118 0
16113 16114 16118 0
-16116 -16123 0
-16116 -16118 0
-16116 -16119 0
16116 16123 16118 16119 0
-16120 -16121 0
-16120 -16122 0
-16120 -16123 0
-16120 -16124 0
16120 16121 16122 16123 16124 0
-16125 -16126 0
-16125 -16127 0
16125 16126 16127 0
-16128 -16129 0
-16128 -16130 0
16128 16129 16130 0
-16131 -16132 0
-16131 -16136 0
16131 16132 16136 0
-16134 -16141 0
-16134 -16136 0
-16134 -16137 0
16134 16141 16136 16137 0
-16138 -16139 0
-16138 -16140 0
-16138 -16141 0
-16138 -16142 0
16138 16139 16140 16141 16142 0
-16143 -16144 0
-16143 -16145 0
16143 16144 16145 0
-16146 -16147 0
-16146 -16148 0
16146 16147 16148 0
-16149 -16150 0
-16149 -16154 0
16149 16150 16154 0
-16152 -16159 0
-16152 -16154 0
-16152 -16155 0
16152 16159 16154 16155 0
-16156 -16157 0
-16156 -16158 0
-16156 -16159 0
-16156 -16160 0
16156 16157 16158 16159 16160 0
-16161 -16162 0
-16161 -16163 0
16161 16162 16163 0
-16164 -16165 0
-16164 -16166 0
16164 16165 16166 0
-16167 -16168 0
-16167 -16172 0
16167 16168 16172 0
-16170 -16171 0
-16170 -16172 0
-16170 -16173 0
16170 16171 16172 16173 0
-16174 -16175 0
-16174 -16176 0
16174 16175 16176 0
-16177 -16178 0
-16177 -16179 0
16177 16178 16179 0
-16180 -16181 0
-16180 -16182 0
16180 16181 16182 0
-16183 -16184 0
-16183 -16185 0
16183 16184 16185 0
16186 -16187 0
16186 -16188 0
-16186 16187 16188 0
16186 0