p cnf 16772 16692
-606 0
-600 0
-526 0
-692 0
-666 0
-546 0
-560 0
-420 0
-682 0
-564 0
-563 0
-527 0
-142 0
-152 0
-503 0
-460 0
-478 0
-473 0
-194 0
-572 0
-620 0
541 728 0
-541 -728 0
517 526 0
-517 -526 0
525 692 0
-525 -692 0
601 606 0
-601 -606 0
665 546 0
-665 -546 0
547 666 0
-547 -666 0
664 560 0
-664 -560 0
565 682 0
-565 -682 0
548 600 0
-548 -600 0
681 564 0
-681 -564 0
559 420 0
-559 -420 0
544 620 0
-544 -620 0
685 563 0
-685 -563 0
678 541 0
-678 -541 0
615 527 0
-615 -527 0
571 563 0
-571 -563 0
693 526 0
-693 -526 0
570 527 0
-570 -527 0
337 572 0
-337 -572 0
340 142 0
-340 -142 0
143 152 0
-143 -152 0
145 503 0
-145 -503 0
481 682 0
-481 -682 0
497 563 0
-497 -563 0
352 152 0
-352 -152 0
501 527 0
-501 -527 0
360 503 0
-360 -503 0
502 692 0
-502 -692 0
366 460 0
-366 -460 0
483 526 0
-483 -526 0
596 715 0
-596 -715 0
380 194 0
-380 -194 0
167 460 0
-167 -460 0
169 478 0
-169 -478 0
383 386 0
-383 -386 0
384 572 0
-384 -572 0
178 176 0
-178 -176 0
386 178 0
-386 -178 0
389 392 0
-389 -392 0
390 620 0
-390 -620 0
186 184 0
-186 -184 0
728 186 0
-728 -186 0
190 188 0
-190 -188 0
392 190 0
-392 -190 0
191 473 0
-191 -473 0
193 194 0
-193 -194 0
-684 544 0
-684 545 0
684 -544 -545 0
-619 606 0
-619 548 0
-619 547 0
-619 546 0
619 -606 -548 -547 -546 0
-614 544 0
-614 545 0
614 -544 -545 0
-622 544 0
-622 545 0
622 -544 -545 0
-623 517 0
-623 527 0
623 -517 -527 0
-624 526 0
-624 615 0
624 -526 -615 0
-642 541 0
-642 664 0
642 -541 -664 0
-643 544 0
-643 541 0
643 -544 -541 0
-649 559 0
-649 681 0
649 -559 -681 0
-650 559 0
-650 682 0
650 -559 -682 0
-656 541 0
-656 560 0
-656 420 0
656 -541 -560 -420 0
-657 541 0
-657 682 0
657 -541 -682 0
-668 420 0
-668 565 0
668 -420 -565 0
-669 559 0
-669 682 0
669 -559 -682 0
-670 420 0
-670 681 0
670 -420 -681 0
-672 541 0
-672 560 0
-672 420 0
-672 682 0
672 -541 -560 -420 -682 0
-673 541 0
-673 564 0
673 -541 -564 0
-609 606 0
-609 547 0
-609 546 0
609 -606 -547 -546 0
-610 606 0
-610 600 0
610 -606 -600 0
-611 601 0
-611 548 0
611 -601 -548 0
-627 606 0
-627 600 0
-627 666 0
627 -606 -600 -666 0
-628 601 0
-628 547 0
628 -601 -547 0
-629 548 0
-629 547 0
629 -548 -547 0
-632 665 0
-632 529 0
632 -665 -529 0
-635 547 0
-635 548 0
-635 606 0
-635 638 0
635 -547 -548 -606 -638 0
-636 664 0
-636 544 0
-636 545 0
636 -664 -544 -545 0
-645 548 0
-645 606 0
-645 663 0
-645 648 0
645 -548 -606 -663 -648 0
-646 559 0
-646 544 0
-646 545 0
646 -559 -544 -545 0
-652 682 0
-652 420 0
-652 560 0
-652 542 0
652 -682 -420 -560 -542 0
-653 565 0
-653 544 0
-653 545 0
653 -565 -544 -545 0
-659 548 0
-659 606 0
-659 663 0
-659 667 0
659 -548 -606 -663 -667 0
-660 681 0
-660 544 0
-660 545 0
660 -681 -544 -545 0
-661 560 0
-661 620 0
-661 667 0
661 -560 -620 -667 0
-675 559 0
-675 560 0
-675 679 0
-675 542 0
675 -559 -560 -679 -542 0
-676 685 0
-676 544 0
-676 545 0
676 -685 -544 -545 0
-677 685 0
-677 686 0
677 -685 -686 0
-688 570 0
-688 563 0
-688 337 0
-688 691 0
688 -570 -563 -337 -691 0
-689 340 0
-689 569 0
689 -340 -569 0
-716 570 0
-716 563 0
-716 337 0
-716 691 0
716 -570 -563 -337 -691 0
-717 340 0
-717 569 0
717 -340 -569 0
-710 527 0
-710 692 0
-710 478 0
710 -527 -692 -478 0
-711 497 0
-711 501 0
-711 692 0
711 -497 -501 -692 0
-695 692 0
-695 352 0
695 -692 -352 0
-696 483 0
-696 502 0
696 -483 -502 0
-697 501 0
-697 483 0
697 -501 -483 0
-700 360 0
-700 526 0
700 -360 -526 0
-701 502 0
-701 526 0
701 -502 -526 0
-704 366 0
-704 692 0
-704 527 0
704 -366 -692 -527 0
-707 483 0
-707 596 0
-707 709 0
707 -483 -596 -709 0
-713 596 0
-713 587 0
713 -596 -587 0
-714 682 0
-714 715 0
714 -682 -715 0
-719 380 0
-719 692 0
719 -380 -692 0
-722 383 0
-722 384 0
722 -383 -384 0
-723 386 0
-723 572 0
723 -386 -572 0
-726 389 0
-726 390 0
726 -389 -390 0
-727 392 0
-727 620 0
727 -392 -620 0
567 -620 0
567 -597 0
-567 620 597 0
568 -525 0
568 -526 0
-568 525 526 0
534 -601 0
534 -548 0
534 -547 0
534 -665 0
-534 601 548 547 665 0
535 -601 0
535 -600 0
535 -666 0
-535 601 600 666 0
538 -544 0
538 -664 0
538 -682 0
538 -681 0
-538 544 664 682 681 0
539 -544 0
539 -664 0
539 -559 0
-539 544 664 559 0
540 -560 0
540 -420 0
-540 560 420 0
543 -601 0
543 -600 0
543 -666 0
543 -665 0
-543 601 600 666 665 0
510 -728 0
510 -512 0
510 -516 0
510 -618 0
-510 728 512 516 618 0
511 -517 0
511 -728 0
511 -613 0
-511 517 728 613 0
522 -728 0
522 -686 0
522 -524 0
522 -618 0
-522 728 686 524 618 0
523 -525 0
523 -728 0
523 -621 0
-523 525 728 621 0
556 -728 0
556 -558 0
556 -561 0
556 -566 0
-556 728 558 561 566 0
557 -615 0
557 -728 0
557 -683 0
-557 615 728 683 0
580 -563 0
580 -527 0
580 -526 0
580 -502 0
-580 563 527 526 502 0
581 -483 0
581 -460 0
-581 483 460 0
582 -483 0
582 -692 0
-582 483 692 0
588 -497 0
588 -527 0
588 -526 0
-588 497 527 526 0
589 -501 0
589 -473 0
-589 501 473 0
590 -483 0
590 -473 0
-590 483 473 0
585 -715 0
585 -483 0
585 -502 0
585 -478 0
-585 715 483 502 478 0
586 -596 0
586 -481 0
-586 596 481 0
593 -483 0
593 -692 0
-593 483 692 0
594 -563 0
594 -692 0
-594 563 692 0
595 -527 0
595 -526 0
-595 527 526 0
575 -563 0
575 -527 0
575 -526 0
575 -502 0
-575 563 527 526 502 0
576 -497 0
576 -501 0
576 -692 0
-576 497 501 692 0
577 -501 0
577 -502 0
577 -503 0
-577 501 502 503 0
625 565 0
625 559 0
625 560 0
625 602 0
-625 -565 -559 -560 -602 0
734 510 0
734 511 0
-734 -510 -511 0
512 565 0
512 559 0
512 560 0
-512 -565 -559 -560 0
516 517 0
516 527 0
516 563 0
516 564 0
-516 -517 -527 -563 -564 0
736 522 0
736 523 0
-736 -522 -523 0
524 525 0
524 526 0
524 527 0
524 563 0
-524 -525 -526 -527 -563 0
529 666 0
529 600 0
529 606 0
-529 -666 -600 -606 0
633 534 0
633 535 0
633 541 0
-633 -534 -535 -541 0
647 538 0
647 539 0
647 540 0
647 541 0
-647 -538 -539 -540 -541 0
542 543 0
542 544 0
-542 -543 -544 0
545 546 0
545 547 0
545 548 0
545 606 0
-545 -546 -547 -548 -606 0
686 564 0
686 565 0
686 559 0
686 560 0
-686 -564 -565 -559 -560 0
752 556 0
752 557 0
-752 -556 -557 0
558 559 0
558 560 0
-558 -559 -560 0
561 615 0
561 563 0
561 564 0
561 565 0
-561 -615 -563 -564 -565 0
566 567 0
566 568 0
-566 -567 -568 0
569 570 0
569 571 0
569 572 0
569 691 0
-569 -570 -571 -572 -691 0
702 575 0
702 576 0
702 577 0
702 596 0
-702 -575 -576 -577 -596 0
705 580 0
705 581 0
705 582 0
705 596 0
-705 -580 -581 -582 -596 0
708 585 0
708 586 0
-708 -585 -586 0
587 588 0
587 589 0
587 590 0
587 692 0
-587 -588 -589 -590 -692 0
720 593 0
720 594 0
720 595 0
720 596 0
-720 -593 -594 -595 -596 0
-597 -665 0
-597 -666 0
-597 -600 0
-597 -601 0
597 665 666 600 601 0
-602 -685 0
-602 -681 0
602 685 681 0
-730 -606 0
-730 -728 0
730 606 728 0
-732 -609 0
-732 -610 0
-732 -611 0
-732 -728 0
732 609 610 611 728 0
-613 -614 0
-613 -615 0
-613 -685 0
-613 -686 0
613 614 615 685 686 0
-618 -619 0
-618 -620 0
618 619 620 0
-621 -622 0
-621 -623 0
-621 -624 0
-621 -625 0
621 622 623 624 625 0
-738 -627 0
-738 -628 0
-738 -629 0
-738 -728 0
738 627 628 629 728 0
-740 -632 0
-740 -633 0
740 632 633 0
-742 -635 0
-742 -636 0
-742 -641 0
742 635 636 641 0
-638 -664 0
-638 -665 0
638 664 665 0
-641 -642 0
-641 -643 0
641 642 643 0
-744 -645 0
-744 -646 0
-744 -647 0
744 645 646 647 0
-648 -649 0
-648 -650 0
648 649 650 0
-746 -652 0
-746 -653 0
-746 -655 0
746 652 653 655 0
-655 -656 0
-655 -657 0
655 656 657 0
-748 -659 0
-748 -660 0
-748 -661 0
-748 -671 0
748 659 660 661 671 0
-663 -664 0
-663 -665 0
-663 -666 0
663 664 665 666 0
-667 -668 0
-667 -669 0
-667 -670 0
667 668 669 670 0
-671 -672 0
-671 -673 0
671 672 673 0
-750 -675 0
-750 -676 0
-750 -677 0
-750 -678 0
750 675 676 677 678 0
-679 -685 0
-679 -681 0
-679 -682 0
679 685 681 682 0
-683 -684 0
-683 -685 0
-683 -686 0
683 684 685 686 0
-754 -688 0
-754 -689 0
-754 -728 0
754 688 689 728 0
-691 -692 0
-691 -693 0
691 692 693 0
-756 -695 0
-756 -696 0
-756 -697 0
-756 -715 0
756 695 696 697 715 0
-758 -700 0
-758 -701 0
-758 -702 0
758 700 701 702 0
-760 -704 0
-760 -705 0
760 704 705 0
-762 -707 0
-762 -708 0
762 707 708 0
-709 -710 0
-709 -711 0
709 710 711 0
-764 -713 0
-764 -714 0
764 713 714 0
-715 -716 0
-715 -717 0
715 716 717 0
-766 -719 0
-766 -720 0
766 719 720 0
-768 -722 0
-768 -723 0
-768 -728 0
768 722 723 728 0
-770 -726 0
-770 -727 0
-770 -728 0
770 726 727 728 0
-730 1274 0
730 -1274 0
-732 1268 0
732 -1268 0
-734 1194 0
734 -1194 0
-736 1360 0
736 -1360 0
-738 1334 0
738 -1334 0
-740 1214 0
740 -1214 0
-742 1228 0
742 -1228 0
-744 1088 0
744 -1088 0
-746 1350 0
746 -1350 0
-748 1232 0
748 -1232 0
-750 1231 0
750 -1231 0
-752 1195 0
752 -1195 0
-754 810 0
754 -810 0
-756 820 0
756 -820 0
-758 1171 0
758 -1171 0
-760 1128 0
760 -1128 0
-762 1146 0
762 -1146 0
-764 1141 0
764 -1141 0
-766 862 0
766 -862 0
-768 1240 0
768 -1240 0
-770 1288 0
770 -1288 0
1209 1396 0
-1209 -1396 0
1185 1194 0
-1185 -1194 0
1193 1360 0
-1193 -1360 0
1269 1274 0
-1269 -1274 0
1333 1214 0
-1333 -1214 0
1215 1334 0
-1215 -1334 0
1332 1228 0
-1332 -1228 0
1233 1350 0
-1233 -1350 0
1216 1268 0
-1216 -1268 0
1349 1232 0
-1349 -1232 0
1227 1088 0
-1227 -1088 0
1212 1288 0
-1212 -1288 0
1353 1231 0
-1353 -1231 0
1346 1209 0
-1346 -1209 0
1283 1195 0
-1283 -1195 0
1239 1231 0
-1239 -1231 0
1361 1194 0
-1361 -1194 0
1238 1195 0
-1238 -1195 0
1005 1240 0
-1005 -1240 0
1008 810 0
-1008 -810 0
811 820 0
-811 -820 0
813 1171 0
-813 -1171 0
1149 1350 0
-1149 -1350 0
1165 1231 0
-1165 -1231 0
1020 820 0
-1020 -820 0
1169 1195 0
-1169 -1195 0
1028 1171 0
-1028 -1171 0
1170 1360 0
-1170 -1360 0
1034 1128 0
-1034 -1128 0
1151 1194 0
-1151 -1194 0
1264 1383 0
-1264 -1383 0
1048 862 0
-1048 -862 0
835 1128 0
-835 -1128 0
837 1146 0
-837 -1146 0
1051 1054 0
-1051 -1054 0
1052 1240 0
-1052 -1240 0
846 844 0
-846 -844 0
1054 846 0
-1054 -846 0
1057 1060 0
-1057 -1060 0
1058 1288 0
-1058 -1288 0
854 852 0
-854 -852 0
1396 854 0
-1396 -854 0
858 856 0
-858 -856 0
1060 858 0
-1060 -858 0
859 1141 0
-859 -1141 0
861 862 0
-861 -862 0
-1352 1212 0
-1352 1213 0
1352 -1212 -1213 0
-1287 1274 0
-1287 1216 0
-1287 1215 0
-1287 1214 0
1287 -1274 -1216 -1215 -1214 0
-1282 1212 0
-1282 1213 0
1282 -1212 -1213 0
-1290 1212 0
-1290 1213 0
1290 -1212 -1213 0
-1291 1185 0
-1291 1195 0
1291 -1185 -1195 0
-1292 1194 0
-1292 1283 0
1292 -1194 -1283 0
-1310 1209 0
-1310 1332 0
1310 -1209 -1332 0
-1311 1212 0
-1311 1209 0
1311 -1212 -1209 0
-1317 1227 0
-1317 1349 0
1317 -1227 -1349 0
-1318 1227 0
-1318 1350 0
1318 -1227 -1350 0
-1324 1209 0
-1324 1228 0
-1324 1088 0
1324 -1209 -1228 -1088 0
-1325 1209 0
-1325 1350 0
1325 -1209 -1350 0
-1336 1088 0
-1336 1233 0
1336 -1088 -1233 0
-1337 1227 0
-1337 1350 0
1337 -1227 -1350 0
-1338 1088 0
-1338 1349 0
1338 -1088 -1349 0
-1340 1209 0
-1340 1228 0
-1340 1088 0
-1340 1350 0
1340 -1209 -1228 -1088 -1350 0
-1341 1209 0
-1341 1232 0
1341 -1209 -1232 0
-1277 1274 0
-1277 1215 0
-1277 1214 0
1277 -1274 -1215 -1214 0
-1278 1274 0
-1278 1268 0
1278 -1274 -1268 0
-1279 1269 0
-1279 1216 0
1279 -1269 -1216 0
-1295 1274 0
-1295 1268 0
-1295 1334 0
1295 -1274 -1268 -1334 0
-1296 1269 0
-1296 1215 0
1296 -1269 -1215 0
-1297 1216 0
-1297 1215 0
1297 -1216 -1215 0
-1300 1333 0
-1300 1197 0
1300 -1333 -1197 0
-1303 1215 0
-1303 1216 0
-1303 1274 0
-1303 1306 0
1303 -1215 -1216 -1274 -1306 0
-1304 1332 0
-1304 1212 0
-1304 1213 0
1304 -1332 -1212 -1213 0
-1313 1216 0
-1313 1274 0
-1313 1331 0
-1313 1316 0
1313 -1216 -1274 -1331 -1316 0
-1314 1227 0
-1314 1212 0
-1314 1213 0
1314 -1227 -1212 -1213 0
-1320 1350 0
-1320 1088 0
-1320 1228 0
-1320 1210 0
1320 -1350 -1088 -1228 -1210 0
-1321 1233 0
-1321 1212 0
-1321 1213 0
1321 -1233 -1212 -1213 0
-1327 1216 0
-1327 1274 0
-1327 1331 0
-1327 1335 0
1327 -1216 -1274 -1331 -1335 0
-1328 1349 0
-1328 1212 0
-1328 1213 0
1328 -1349 -1212 -1213 0
-1329 1228 0
-1329 1288 0
-1329 1335 0
1329 -1228 -1288 -1335 0
-1343 1227 0
-1343 1228 0
-1343 1347 0
-1343 1210 0
1343 -1227 -1228 -1347 -1210 0
-1344 1353 0
-1344 1212 0
-1344 1213 0
1344 -1353 -1212 -1213 0
-1345 1353 0
-1345 1354 0
1345 -1353 -1354 0
-1356 1238 0
-1356 1231 0
-1356 1005 0
-1356 1359 0
1356 -1238 -1231 -1005 -1359 0
-1357 1008 0
-1357 1237 0
1357 -1008 -1237 0
-1384 1238 0
-1384 1231 0
-1384 1005 0
-1384 1359 0
1384 -1238 -1231 -1005 -1359 0
-1385 1008 0
-1385 1237 0
1385 -1008 -1237 0
-1378 1195 0
-1378 1360 0
-1378 1146 0
1378 -1195 -1360 -1146 0
-1379 1165 0
-1379 1169 0
-1379 1360 0
1379 -1165 -1169 -1360 0
-1363 1360 0
-1363 1020 0
1363 -1360 -1020 0
-1364 1151 0
-1364 1170 0
1364 -1151 -1170 0
-1365 1169 0
-1365 1151 0
1365 -1169 -1151 0
-1368 1028 0
-1368 1194 0
1368 -1028 -1194 0
-1369 1170 0
-1369 1194 0
1369 -1170 -1194 0
-1372 1034 0
-1372 1360 0
-1372 1195 0
1372 -1034 -1360 -1195 0
-1375 1151 0
-1375 1264 0
-1375 1377 0
1375 -1151 -1264 -1377 0
-1381 1264 0
-1381 1255 0
1381 -1264 -1255 0
-1382 1350 0
-1382 1383 0
1382 -1350 -1383 0
-1387 1048 0
-1387 1360 0
1387 -1048 -1360 0
-1390 1051 0
-1390 1052 0
1390 -1051 -1052 0
-1391 1054 0
-1391 1240 0
1391 -1054 -1240 0
-1394 1057 0
-1394 1058 0
1394 -1057 -1058 0
-1395 1060 0
-1395 1288 0
1395 -1060 -1288 0
1235 -1288 0
1235 -1265 0
-1235 1288 1265 0
1236 -1193 0
1236 -1194 0
-1236 1193 1194 0
1202 -1269 0
1202 -1216 0
1202 -1215 0
1202 -1333 0
-1202 1269 1216 1215 1333 0
1203 -1269 0
1203 -1268 0
1203 -1334 0
-1203 1269 1268 1334 0
1206 -1212 0
1206 -1332 0
1206 -1350 0
1206 -1349 0
-1206 1212 1332 1350 1349 0
1207 -1212 0
1207 -1332 0
1207 -1227 0
-1207 1212 1332 1227 0
1208 -1228 0
1208 -1088 0
-1208 1228 1088 0
1211 -1269 0
1211 -1268 0
1211 -1334 0
1211 -1333 0
-1211 1269 1268 1334 1333 0
1178 -1396 0
1178 -1180 0
1178 -1184 0
1178 -1286 0
-1178 1396 1180 1184 1286 0
1179 -1185 0
1179 -1396 0
1179 -1281 0
-1179 1185 1396 1281 0
1190 -1396 0
1190 -1354 0
1190 -1192 0
1190 -1286 0
-1190 1396 1354 1192 1286 0
1191 -1193 0
1191 -1396 0
1191 -1289 0
-1191 1193 1396 1289 0
1224 -1396 0
1224 -1226 0
1224 -1229 0
1224 -1234 0
-1224 1396 1226 1229 1234 0
1225 -1283 0
1225 -1396 0
1225 -1351 0
-1225 1283 1396 1351 0
1248 -1231 0
1248 -1195 0
1248 -1194 0
1248 -1170 0
-1248 1231 1195 1194 1170 0
1249 -1151 0
1249 -1128 0
-1249 1151 1128 0
1250 -1151 0
1250 -1360 0
-1250 1151 1360 0
1256 -1165 0
1256 -1195 0
1256 -1194 0
-1256 1165 1195 1194 0
1257 -1169 0
1257 -1141 0
-1257 1169 1141 0
1258 -1151 0
1258 -1141 0
-1258 1151 1141 0
1253 -1383 0
1253 -1151 0
1253 -1170 0
1253 -1146 0
-1253 1383 1151 1170 1146 0
1254 -1264 0
1254 -1149 0
-1254 1264 1149 0
1261 -1151 0
1261 -1360 0
-1261 1151 1360 0
1262 -1231 0
1262 -1360 0
-1262 1231 1360 0
1263 -1195 0
1263 -1194 0
-1263 1195 1194 0
1243 -1231 0
1243 -1195 0
1243 -1194 0
1243 -1170 0
-1243 1231 1195 1194 1170 0
1244 -1165 0
1244 -1169 0
1244 -1360 0
-1244 1165 1169 1360 0
1245 -1169 0
1245 -1170 0
1245 -1171 0
-1245 1169 1170 1171 0
1293 1233 0
1293 1227 0
1293 1228 0
1293 1270 0
-1293 -1233 -1227 -1228 -1270 0
1402 1178 0
1402 1179 0
-1402 -1178 -1179 0
1180 1233 0
1180 1227 0
1180 1228 0
-1180 -1233 -1227 -1228 0
1184 1185 0
1184 1195 0
1184 1231 0
1184 1232 0
-1184 -1185 -1195 -1231 -1232 0
1404 1190 0
1404 1191 0
-1404 -1190 -1191 0
1192 1193 0
1192 1194 0
1192 1195 0
1192 1231 0
-1192 -1193 -1194 -1195 -1231 0
1197 1334 0
1197 1268 0
1197 1274 0
-1197 -1334 -1268 -1274 0
1301 1202 0
1301 1203 0
1301 1209 0
-1301 -1202 -1203 -1209 0
1315 1206 0
1315 1207 0
1315 1208 0
1315 1209 0
-1315 -1206 -1207 -1208 -1209 0
1210 1211 0
1210 1212 0
-1210 -1211 -1212 0
1213 1214 0
1213 1215 0
1213 1216 0
1213 1274 0
-1213 -1214 -1215 -1216 -1274 0
1354 1232 0
1354 1233 0
1354 1227 0
1354 1228 0
-1354 -1232 -1233 -1227 -1228 0
1420 1224 0
1420 1225 0
-1420 -1224 -1225 0
1226 1227 0
1226 1228 0
-1226 -1227 -1228 0
1229 1283 0
1229 1231 0
1229 1232 0
1229 1233 0
-1229 -1283 -1231 -1232 -1233 0
1234 1235 0
1234 1236 0
-1234 -1235 -1236 0
1237 1238 0
1237 1239 0
1237 1240 0
1237 1359 0
-1237 -1238 -1239 -1240 -1359 0
1370 1243 0
1370 1244 0
1370 1245 0
1370 1264 0
-1370 -1243 -1244 -1245 -1264 0
1373 1248 0
1373 1249 0
1373 1250 0
1373 1264 0
-1373 -1248 -1249 -1250 -1264 0
1376 1253 0
1376 1254 0
-1376 -1253 -1254 0
1255 1256 0
1255 1257 0
1255 1258 0
1255 1360 0
-1255 -1256 -1257 -1258 -1360 0
1388 1261 0
1388 1262 0
1388 1263 0
1388 1264 0
-1388 -1261 -1262 -1263 -1264 0
-1265 -1333 0
-1265 -1334 0
-1265 -1268 0
-1265 -1269 0
1265 1333 1334 1268 1269 0
-1270 -1353 0
-1270 -1349 0
1270 1353 1349 0
-1398 -1274 0
-1398 -1396 0
1398 1274 1396 0
-1400 -1277 0
-1400 -1278 0
-1400 -1279 0
-1400 -1396 0
1400 1277 1278 1279 1396 0
-1281 -1282 0
-1281 -1283 0
-1281 -1353 0
-1281 -1354 0
1281 1282 1283 1353 1354 0
-1286 -1287 0
-1286 -1288 0
1286 1287 1288 0
-1289 -1290 0
-1289 -1291 0
-1289 -1292 0
-1289 -1293 0
1289 1290 1291 1292 1293 0
-1406 -1295 0
-1406 -1296 0
-1406 -1297 0
-1406 -1396 0
1406 1295 1296 1297 1396 0
-1408 -1300 0
-1408 -1301 0
1408 1300 1301 0
-1410 -1303 0
-1410 -1304 0
-1410 -1309 0
1410 1303 1304 1309 0
-1306 -1332 0
-1306 -1333 0
1306 1332 1333 0
-1309 -1310 0
-1309 -1311 0
1309 1310 1311 0
-1412 -1313 0
-1412 -1314 0
-1412 -1315 0
1412 1313 1314 1315 0
-1316 -1317 0
-1316 -1318 0
1316 1317 1318 0
-1414 -1320 0
-1414 -1321 0
-1414 -1323 0
1414 1320 1321 1323 0
-1323 -1324 0
-1323 -1325 0
1323 1324 1325 0
-1416 -1327 0
-1416 -1328 0
-1416 -1329 0
-1416 -1339 0
1416 1327 1328 1329 1339 0
-1331 -1332 0
-1331 -1333 0
-1331 -1334 0
1331 1332 1333 1334 0
-1335 -1336 0
-1335 -1337 0
-1335 -1338 0
1335 1336 1337 1338 0
-1339 -1340 0
-1339 -1341 0
1339 1340 1341 0
-1418 -1343 0
-1418 -1344 0
-1418 -1345 0
-1418 -1346 0
1418 1343 1344 1345 1346 0
-1347 -1353 0
-1347 -1349 0
-1347 -1350 0
1347 1353 1349 1350 0
-1351 -1352 0
-1351 -1353 0
-1351 -1354 0
1351 1352 1353 1354 0
-1422 -1356 0
-1422 -1357 0
-1422 -1396 0
1422 1356 1357 1396 0
-1359 -1360 0
-1359 -1361 0
1359 1360 1361 0
-1424 -1363 0
-1424 -1364 0
-1424 -1365 0
-1424 -1383 0
1424 1363 1364 1365 1383 0
-1426 -1368 0
-1426 -1369 0
-1426 -1370 0
1426 1368 1369 1370 0
-1428 -1372 0
-1428 -1373 0
1428 1372 1373 0
-1430 -1375 0
-1430 -1376 0
1430 1375 1376 0
-1377 -1378 0
-1377 -1379 0
1377 1378 1379 0
-1432 -1381 0
-1432 -1382 0
1432 1381 1382 0
-1383 -1384 0
-1383 -1385 0
1383 1384 1385 0
-1434 -1387 0
-1434 -1388 0
1434 1387 1388 0
-1436 -1390 0
-1436 -1391 0
-1436 -1396 0
1436 1390 1391 1396 0
-1438 -1394 0
-1438 -1395 0
-1438 -1396 0
1438 1394 1395 1396 0
-1398 1942 0
1398 -1942 0
-1400 1936 0
1400 -1936 0
-1402 1862 0
1402 -1862 0
-1404 2028 0
1404 -2028 0
-1406 2002 0
1406 -2002 0
-1408 1882 0
1408 -1882 0
-1410 1896 0
1410 -1896 0
-1412 1756 0
1412 -1756 0
-1414 2018 0
1414 -2018 0
-1416 1900 0
1416 -1900 0
-1418 1899 0
1418 -1899 0
-1420 1863 0
1420 -1863 0
-1422 1478 0
1422 -1478 0
-1424 1488 0
1424 -1488 0
-1426 1839 0
1426 -1839 0
-1428 1796 0
1428 -1796 0
-1430 1814 0
1430 -1814 0
-1432 1809 0
1432 -1809 0
-1434 1530 0
1434 -1530 0
-1436 1908 0
1436 -1908 0
-1438 1956 0
1438 -1956 0
1877 2064 0
-1877 -2064 0
1853 1862 0
-1853 -1862 0
1861 2028 0
-1861 -2028 0
1937 1942 0
-1937 -1942 0
2001 1882 0
-2001 -1882 0
1883 2002 0
-1883 -2002 0
2000 1896 0
-2000 -1896 0
1901 2018 0
-1901 -2018 0
1884 1936 0
-1884 -1936 0
2017 1900 0
-2017 -1900 0
1895 1756 0
-1895 -1756 0
1880 1956 0
-1880 -1956 0
2021 1899 0
-2021 -1899 0
2014 1877 0
-2014 -1877 0
1951 1863 0
-1951 -1863 0
1907 1899 0
-1907 -1899 0
2029 1862 0
-2029 -1862 0
1906 1863 0
-1906 -1863 0
1673 1908 0
-1673 -1908 0
1676 1478 0
-1676 -1478 0
1479 1488 0
-1479 -1488 0
1481 1839 0
-1481 -1839 0
1817 2018 0
-1817 -2018 0
1833 1899 0
-1833 -1899 0
1688 1488 0
-1688 -1488 0
1837 1863 0
-1837 -1863 0
1696 1839 0
-1696 -1839 0
1838 2028 0
-1838 -2028 0
1702 1796 0
-1702 -1796 0
1819 1862 0
-1819 -1862 0
1932 2051 0
-1932 -2051 0
1716 1530 0
-1716 -1530 0
1503 1796 0
-1503 -1796 0
1505 1814 0
-1505 -1814 0
1719 1722 0
-1719 -1722 0
1720 1908 0
-1720 -1908 0
1514 1512 0
-1514 -1512 0
1722 1514 0
-1722 -1514 0
1725 1728 0
-1725 -1728 0
1726 1956 0
-1726 -1956 0
1522 1520 0
-1522 -1520 0
2064 1522 0
-2064 -1522 0
1526 1524 0
-1526 -1524 0
1728 1526 0
-1728 -1526 0
1527 1809 0
-1527 -1809 0
1529 1530 0
-1529 -1530 0
-2020 1880 0
-2020 1881 0
2020 -1880 -1881 0
-1955 1942 0
-1955 1884 0
-1955 1883 0
-1955 1882 0
1955 -1942 -1884 -1883 -1882 0
-1950 1880 0
-1950 1881 0
1950 -1880 -1881 0
-1958 1880 0
-1958 1881 0
1958 -1880 -1881 0
-1959 1853 0
-1959 1863 0
1959 -1853 -1863 0
-1960 1862 0
-1960 1951 0
1960 -1862 -1951 0
-1978 1877 0
-1978 2000 0
1978 -1877 -2000 0
-1979 1880 0
-1979 1877 0
1979 -1880 -1877 0
-1985 1895 0
-1985 2017 0
1985 -1895 -2017 0
-1986 1895 0
-1986 2018 0
1986 -1895 -2018 0
-1992 1877 0
-1992 1896 0
-1992 1756 0
1992 -1877 -1896 -1756 0
-1993 1877 0
-1993 2018 0
1993 -1877 -2018 0
-2004 1756 0
-2004 1901 0
2004 -1756 -1901 0
-2005 1895 0
-2005 2018 0
2005 -1895 -2018 0
-2006 1756 0
-2006 2017 0
2006 -1756 -2017 0
-2008 1877 0
-2008 1896 0
-2008 1756 0
-2008 2018 0
2008 -1877 -1896 -1756 -2018 0
-2009 1877 0
-2009 1900 0
2009 -1877 -1900 0
-1945 1942 0
-1945 1883 0
-1945 1882 0
1945 -1942 -1883 -1882 0
-1946 1942 0
-1946 1936 0
1946 -1942 -1936 0
-1947 1937 0
-1947 1884 0
1947 -1937 -1884 0
-1963 1942 0
-1963 1936 0
-1963 2002 0
1963 -1942 -1936 -2002 0
-1964 1937 0
-1964 1883 0
1964 -1937 -1883 0
-1965 1884 0
-1965 1883 0
1965 -1884 -1883 0
-1968 2001 0
-1968 1865 0
1968 -2001 -1865 0
-1971 1883 0
-1971 1884 0
-1971 1942 0
-1971 1974 0
1971 -1883 -1884 -1942 -1974 0
-1972 2000 0
-1972 1880 0
-1972 1881 0
1972 -2000 -1880 -1881 0
-1981 1884 0
-1981 1942 0
-1981 1999 0
-1981 1984 0
1981 -1884 -1942 -1999 -1984 0
-1982 1895 0
-1982 1880 0
-1982 1881 0
1982 -1895 -1880 -1881 0
-1988 2018 0
-1988 1756 0
-1988 1896 0
-1988 1878 0
1988 -2018 -1756 -1896 -1878 0
-1989 1901 0
-1989 1880 0
-1989 1881 0
1989 -1901 -1880 -1881 0
-1995 1884 0
-1995 1942 0
-1995 1999 0
-1995 2003 0
1995 -1884 -1942 -1999 -2003 0
-1996 2017 0
-1996 1880 0
-1996 1881 0
1996 -2017 -1880 -1881 0
-1997 1896 0
-1997 1956 0
-1997 2003 0
1997 -1896 -1956 -2003 0
-2011 1895 0
-2011 1896 0
-2011 2015 0
-2011 1878 0
2011 -1895 -1896 -2015 -1878 0
-2012 2021 0
-2012 1880 0
-2012 1881 0
2012 -2021 -1880 -1881 0
-2013 2021 0
-2013 2022 0
2013 -2021 -2022 0
-2024 1906 0
-2024 1899 0
-2024 1673 0
-2024 2027 0
2024 -1906 -1899 -1673 -2027 0
-2025 1676 0
-2025 1905 0
2025 -1676 -1905 0
-2052 1906 0
-2052 1899 0
-2052 1673 0
-2052 2027 0
2052 -1906 -1899 -1673 -2027 0
-2053 1676 0
-2053 1905 0
2053 -1676 -1905 0
-2046 1863 0
-2046 2028 0
-2046 1814 0
2046 -1863 -2028 -1814 0
-2047 1833 0
-2047 1837 0
-2047 2028 0
2047 -1833 -1837 -2028 0
-2031 2028 0
-2031 1688 0
2031 -2028 -1688 0
-2032 1819 0
-2032 1838 0
2032 -1819 -1838 0
-2033 1837 0
-2033 1819 0
2033 -1837 -1819 0
-2036 1696 0
-2036 1862 0
2036 -1696 -1862 0
-2037 1838 0
-2037 1862 0
2037 -1838 -1862 0
-2040 1702 0
-2040 2028 0
-2040 1863 0
2040 -1702 -2028 -1863 0
-2043 1819 0
-2043 1932 0
-2043 2045 0
2043 -1819 -1932 -2045 0
-2049 1932 0
-2049 1923 0
2049 -1932 -1923 0
-2050 2018 0
-2050 2051 0
2050 -2018 -2051 0
-2055 1716 0
-2055 2028 0
2055 -1716 -2028 0
-2058 1719 0
-2058 1720 0
2058 -1719 -1720 0
-2059 1722 0
-2059 1908 0
2059 -1722 -1908 0
-2062 1725 0
-2062 1726 0
2062 -1725 -1726 0
-2063 1728 0
-2063 1956 0
2063 -1728 -1956 0
1903 -1956 0
1903 -1933 0
-1903 1956 1933 0
1904 -1861 0
1904 -1862 0
-1904 1861 1862 0
1870 -1937 0
1870 -1884 0
1870 -1883 0
1870 -2001 0
-1870 1937 1884 1883 2001 0
1871 -1937 0
1871 -1936 0
1871 -2002 0
-1871 1937 1936 2002 0
1874 -1880 0
1874 -2000 0
1874 -2018 0
1874 -2017 0
-1874 1880 2000 2018 2017 0
1875 -1880 0
1875 -2000 0
1875 -1895 0
-1875 1880 2000 1895 0
1876 -1896 0
1876 -1756 0
-1876 1896 1756 0
1879 -1937 0
1879 -1936 0
1879 -2002 0
1879 -2001 0
-1879 1937 1936 2002 2001 0
1846 -2064 0
1846 -1848 0
1846 -1852 0
1846 -1954 0
-1846 2064 1848 1852 1954 0
1847 -1853 0
1847 -2064 0
1847 -1949 0
-1847 1853 2064 1949 0
1858 -2064 0
1858 -2022 0
1858 -1860 0
1858 -1954 0
-1858 2064 2022 1860 1954 0
1859 -1861 0
1859 -2064 0
1859 -1957 0
-1859 1861 2064 1957 0
1892 -2064 0
1892 -1894 0
1892 -1897 0
1892 -1902 0
-1892 2064 1894 1897 1902 0
1893 -1951 0
1893 -2064 0
1893 -2019 0
-1893 1951 2064 2019 0
1916 -1899 0
1916 -1863 0
1916 -1862 0
1916 -1838 0
-1916 1899 1863 1862 1838 0
1917 -1819 0
1917 -1796 0
-1917 1819 1796 0
1918 -1819 0
1918 -2028 0
-1918 1819 2028 0
1924 -1833 0
1924 -1863 0
1924 -1862 0
-1924 1833 1863 1862 0
1925 -1837 0
1925 -1809 0
-1925 1837 1809 0
1926 -1819 0
1926 -1809 0
-1926 1819 1809 0
1921 -2051 0
1921 -1819 0
1921 -1838 0
1921 -1814 0
-1921 2051 1819 1838 1814 0
1922 -1932 0
1922 -1817 0
-1922 1932 1817 0
1929 -1819 0
1929 -2028 0
-1929 1819 2028 0
1930 -1899 0
1930 -2028 0
-1930 1899 2028 0
1931 -1863 0
1931 -1862 0
-1931 1863 1862 0
1911 -1899 0
1911 -1863 0
1911 -1862 0
1911 -1838 0
-1911 1899 1863 1862 1838 0
1912 -1833 0
1912 -1837 0
1912 -2028 0
-1912 1833 1837 2028 0
1913 -1837 0
1913 -1838 0
1913 -1839 0
-1913 1837 1838 1839 0
1961 1901 0
1961 1895 0
1961 1896 0
1961 1938 0
-1961 -1901 -1895 -1896 -1938 0
2070 1846 0
2070 1847 0
-2070 -1846 -1847 0
1848 1901 0
1848 1895 0
1848 1896 0
-1848 -1901 -1895 -1896 0
1852 1853 0
1852 1863 0
1852 1899 0
1852 1900 0
-1852 -1853 -1863 -1899 -1900 0
2072 1858 0
2072 1859 0
-2072 -1858 -1859 0
1860 1861 0
1860 1862 0
1860 1863 0
1860 1899 0
-1860 -1861 -1862 -1863 -1899 0
1865 2002 0
1865 1936 0
1865 1942 0
-1865 -2002 -1936 -1942 0
1969 1870 0
1969 1871 0
1969 1877 0
-1969 -1870 -1871 -1877 0
1983 1874 0
1983 1875 0
1983 1876 0
1983 1877 0
-1983 -1874 -1875 -1876 -1877 0
1878 1879 0
1878 1880 0
-1878 -1879 -1880 0
1881 1882 0
1881 1883 0
1881 1884 0
1881 1942 0
-1881 -1882 -1883 -1884 -1942 0
2022 1900 0
2022 1901 0
2022 1895 0
2022 1896 0
-2022 -1900 -1901 -1895 -1896 0
2088 1892 0
2088 1893 0
-2088 -1892 -1893 0
1894 1895 0
1894 1896 0
-1894 -1895 -1896 0
1897 1951 0
1897 1899 0
1897 1900 0
1897 1901 0
-1897 -1951 -1899 -1900 -1901 0
1902 1903 0
1902 1904 0
-1902 -1903 -1904 0
1905 1906 0
1905 1907 0
1905 1908 0
1905 2027 0
-1905 -1906 -1907 -1908 -2027 0
2038 1911 0
2038 1912 0
2038 1913 0
2038 1932 0
-2038 -1911 -1912 -1913 -1932 0
2041 1916 0
2041 1917 0
2041 1918 0
2041 1932 0
-2041 -1916 -1917 -1918 -1932 0
2044 1921 0
2044 1922 0
-2044 -1921 -1922 0
1923 1924 0
1923 1925 0
1923 1926 0
1923 2028 0
-1923 -1924 -1925 -1926 -2028 0
2056 1929 0
2056 1930 0
2056 1931 0
2056 1932 0
-2056 -1929 -1930 -1931 -1932 0
-1933 -2001 0
-1933 -2002 0
-1933 -1936 0
-1933 -1937 0
1933 2001 2002 1936 1937 0
-1938 -2021 0
-1938 -2017 0
1938 2021 2017 0
-2066 -1942 0
-2066 -2064 0
2066 1942 2064 0
-2068 -1945 0
-2068 -1946 0
-2068 -1947 0
-2068 -2064 0
2068 1945 1946 1947 2064 0
-1949 -1950 0
-1949 -1951 0
-1949 -2021 0
-1949 -2022 0
1949 1950 1951 2021 2022 0
-1954 -1955 0
-1954 -1956 0
1954 1955 1956 0
-1957 -1958 0
-1957 -1959 0
-1957 -1960 0
-1957 -1961 0
1957 1958 1959 1960 1961 0
-2074 -1963 0
-2074 -1964 0
-2074 -1965 0
-2074 -2064 0
2074 1963 1964 1965 2064 0
-2076 -1968 0
-2076 -1969 0
2076 1968 1969 0
-2078 -1971 0
-2078 -1972 0
-2078 -1977 0
2078 1971 1972 1977 0
-1974 -2000 0
-1974 -2001 0
1974 2000 2001 0
-1977 -1978 0
-1977 -1979 0
1977 1978 1979 0
-2080 -1981 0
-2080 -1982 0
-2080 -1983 0
2080 1981 1982 1983 0
-1984 -1985 0
-1984 -1986 0
1984 1985 1986 0
-2082 -1988 0
-2082 -1989 0
-2082 -1991 0
2082 1988 1989 1991 0
-1991 -1992 0
-1991 -1993 0
1991 1992 1993 0
-2084 -1995 0
-2084 -1996 0
-2084 -1997 0
-2084 -2007 0
2084 1995 1996 1997 2007 0
-1999 -2000 0
-1999 -2001 0
-1999 -2002 0
1999 2000 2001 2002 0
-2003 -2004 0
-2003 -2005 0
-2003 -2006 0
2003 2004 2005 2006 0
-2007 -2008 0
-2007 -2009 0
2007 2008 2009 0
-2086 -2011 0
-2086 -2012 0
-2086 -2013 0
-2086 -2014 0
2086 2011 2012 2013 2014 0
-2015 -2021 0
-2015 -2017 0
-2015 -2018 0
2015 2021 2017 2018 0
-2019 -2020 0
-2019 -2021 0
-2019 -2022 0
2019 2020 2021 2022 0
-2090 -2024 0
-2090 -2025 0
-2090 -2064 0
2090 2024 2025 2064 0
-2027 -2028 0
-2027 -2029 0
2027 2028 2029 0
-2092 -2031 0
-2092 -2032 0
-2092 -2033 0
-2092 -2051 0
2092 2031 2032 2033 2051 0
-2094 -2036 0
-2094 -2037 0
-2094 -2038 0
2094 2036 2037 2038 0
-2096 -2040 0
-2096 -2041 0
2096 2040 2041 0
-2098 -2043 0
-2098 -2044 0
2098 2043 2044 0
-2045 -2046 0
-2045 -2047 0
2045 2046 2047 0
-2100 -2049 0
-2100 -2050 0
2100 2049 2050 0
-2051 -2052 0
-2051 -2053 0
2051 2052 2053 0
-2102 -2055 0
-2102 -2056 0
2102 2055 2056 0
-2104 -2058 0
-2104 -2059 0
-2104 -2064 0
2104 2058 2059 2064 0
-2106 -2062 0
-2106 -2063 0
-2106 -2064 0
2106 2062 2063 2064 0
-2066 2610 0
2066 -2610 0
-2068 2604 0
2068 -2604 0
-2070 2530 0
2070 -2530 0
-2072 2696 0
2072 -2696 0
-2074 2670 0
2074 -2670 0
-2076 2550 0
2076 -2550 0
-2078 2564 0
2078 -2564 0
-2080 2424 0
2080 -2424 0
-2082 2686 0
2082 -2686 0
-2084 2568 0
2084 -2568 0
-2086 2567 0
2086 -2567 0
-2088 2531 0
2088 -2531 0
-2090 2146 0
2090 -2146 0
-2092 2156 0
2092 -2156 0
-2094 2507 0
2094 -2507 0
-2096 2464 0
2096 -2464 0
-2098 2482 0
2098 -2482 0
-2100 2477 0
2100 -2477 0
-2102 2198 0
2102 -2198 0
-2104 2576 0
2104 -2576 0
-2106 2624 0
2106 -2624 0
2545 2732 0
-2545 -2732 0
2521 2530 0
-2521 -2530 0
2529 2696 0
-2529 -2696 0
2605 2610 0
-2605 -2610 0
2669 2550 0
-2669 -2550 0
2551 2670 0
-2551 -2670 0
2668 2564 0
-2668 -2564 0
2569 2686 0
-2569 -2686 0
2552 2604 0
-2552 -2604 0
2685 2568 0
-2685 -2568 0
2563 2424 0
-2563 -2424 0
2548 2624 0
-2548 -2624 0
2689 2567 0
-2689 -2567 0
2682 2545 0
-2682 -2545 0
2619 2531 0
-2619 -2531 0
2575 2567 0
-2575 -2567 0
2697 2530 0
-2697 -2530 0
2574 2531 0
-2574 -2531 0
2341 2576 0
-2341 -2576 0
2344 2146 0
-2344 -2146 0
2147 2156 0
-2147 -2156 0
2149 2507 0
-2149 -2507 0
2485 2686 0
-2485 -2686 0
2501 2567 0
-2501 -2567 0
2356 2156 0
-2356 -2156 0
2505 2531 0
-2505 -2531 0
2364 2507 0
-2364 -2507 0
2506 2696 0
-2506 -2696 0
2370 2464 0
-2370 -2464 0
2487 2530 0
-2487 -2530 0
2600 2719 0
-2600 -2719 0
2384 2198 0
-2384 -2198 0
2171 2464 0
-2171 -2464 0
2173 2482 0
-2173 -2482 0
2387 2390 0
-2387 -2390 0
2388 2576 0
-2388 -2576 0
2182 2180 0
-2182 -2180 0
2390 2182 0
-2390 -2182 0
2393 2396 0
-2393 -2396 0
2394 2624 0
-2394 -2624 0
2190 2188 0
-2190 -2188 0
2732 2190 0
-2732 -2190 0
2194 2192 0
-2194 -2192 0
2396 2194 0
-2396 -2194 0
2195 2477 0
-2195 -2477 0
2197 2198 0
-2197 -2198 0
-2688 2548 0
-2688 2549 0
2688 -2548 -2549 0
-2623 2610 0
-2623 2552 0
-2623 2551 0
-2623 2550 0
2623 -2610 -2552 -2551 -2550 0
-2618 2548 0
-2618 2549 0
2618 -2548 -2549 0
-2626 2548 0
-2626 2549 0
2626 -2548 -2549 0
-2627 2521 0
-2627 2531 0
2627 -2521 -2531 0
-2628 2530 0
-2628 2619 0
2628 -2530 -2619 0
-2646 2545 0
-2646 2668 0
2646 -2545 -2668 0
-2647 2548 0
-2647 2545 0
2647 -2548 -2545 0
-2653 2563 0
-2653 2685 0
2653 -2563 -2685 0
-2654 2563 0
-2654 2686 0
2654 -2563 -2686 0
-2660 2545 0
-2660 2564 0
-2660 2424 0
2660 -2545 -2564 -2424 0
-2661 2545 0
-2661 2686 0
2661 -2545 -2686 0
-2672 2424 0
-2672 2569 0
2672 -2424 -2569 0
-2673 2563 0
-2673 2686 0
2673 -2563 -2686 0
-2674 2424 0
-2674 2685 0
2674 -2424 -2685 0
-2676 2545 0
-2676 2564 0
-2676 2424 0
-2676 2686 0
2676 -2545 -2564 -2424 -2686 0
-2677 2545 0
-2677 2568 0
2677 -2545 -2568 0
-2613 2610 0
-2613 2551 0
-2613 2550 0
2613 -2610 -2551 -2550 0
-2614 2610 0
-2614 2604 0
2614 -2610 -2604 0
-2615 2605 0
-2615 2552 0
2615 -2605 -2552 0
-2631 2610 0
-2631 2604 0
-2631 2670 0
2631 -2610 -2604 -2670 0
-2632 2605 0
-2632 2551 0
2632 -2605 -2551 0
-2633 2552 0
-2633 2551 0
2633 -2552 -2551 0
-2636 2669 0
-2636 2533 0
2636 -2669 -2533 0
-2639 2551 0
-2639 2552 0
-2639 2610 0
-2639 2642 0
2639 -2551 -2552 -2610 -2642 0
-2640 2668 0
-2640 2548 0
-2640 2549 0
2640 -2668 -2548 -2549 0
-2649 2552 0
-2649 2610 0
-2649 2667 0
-2649 2652 0
2649 -2552 -2610 -2667 -2652 0
-2650 2563 0
-2650 2548 0
-2650 2549 0
2650 -2563 -2548 -2549 0
-2656 2686 0
-2656 2424 0
-2656 2564 0
-2656 2546 0
2656 -2686 -2424 -2564 -2546 0
-2657 2569 0
-2657 2548 0
-2657 2549 0
2657 -2569 -2548 -2549 0
-2663 2552 0
-2663 2610 0
-2663 2667 0
-2663 2671 0
2663 -2552 -2610 -2667 -2671 0
-2664 2685 0
-2664 2548 0
-2664 2549 0
2664 -2685 -2548 -2549 0
-2665 2564 0
-2665 2624 0
-2665 2671 0
2665 -2564 -2624 -2671 0
-2679 2563 0
-2679 2564 0
-2679 2683 0
-2679 2546 0
2679 -2563 -2564 -2683 -2546 0
-2680 2689 0
-2680 2548 0
-2680 2549 0
2680 -2689 -2548 -2549 0
-2681 2689 0
-2681 2690 0
2681 -2689 -2690 0
-2692 2574 0
-2692 2567 0
-2692 2341 0
-2692 2695 0
2692 -2574 -2567 -2341 -2695 0
-2693 2344 0
-2693 2573 0
2693 -2344 -2573 0
-2720 2574 0
-2720 2567 0
-2720 2341 0
-2720 2695 0
2720 -2574 -2567 -2341 -2695 0
-2721 2344 0
-2721 2573 0
2721 -2344 -2573 0
-2714 2531 0
-2714 2696 0
-2714 2482 0
2714 -2531 -2696 -2482 0
-2715 2501 0
-2715 2505 0
-2715 2696 0
2715 -2501 -2505 -2696 0
-2699 2696 0
-2699 2356 0
2699 -2696 -2356 0
-2700 2487 0
-2700 2506 0
2700 -2487 -2506 0
-2701 2505 0
-2701 2487 0
2701 -2505 -2487 0
-2704 2364 0
-2704 2530 0
2704 -2364 -2530 0
-2705 2506 0
-2705 2530 0
2705 -2506 -2530 0
-2708 2370 0
-2708 2696 0
-2708 2531 0
2708 -2370 -2696 -2531 0
-2711 2487 0
-2711 2600 0
-2711 2713 0
2711 -2487 -2600 -2713 0
-2717 2600 0
-2717 2591 0
2717 -2600 -2591 0
-2718 2686 0
-2718 2719 0
2718 -2686 -2719 0
-2723 2384 0
-2723 2696 0
2723 -2384 -2696 0
-2726 2387 0
-2726 2388 0
2726 -2387 -2388 0
-2727 2390 0
-2727 2576 0
2727 -2390 -2576 0
-2730 2393 0
-2730 2394 0
2730 -2393 -2394 0
-2731 2396 0
-2731 2624 0
2731 -2396 -2624 0
2571 -2624 0
2571 -2601 0
-2571 2624 2601 0
2572 -2529 0
2572 -2530 0
-2572 2529 2530 0
2538 -2605 0
2538 -2552 0
2538 -2551 0
2538 -2669 0
-2538 2605 2552 2551 2669 0
2539 -2605 0
2539 -2604 0
2539 -2670 0
-2539 2605 2604 2670 0
2542 -2548 0
2542 -2668 0
2542 -2686 0
2542 -2685 0
-2542 2548 2668 2686 2685 0
2543 -2548 0
2543 -2668 0
2543 -2563 0
-2543 2548 2668 2563 0
2544 -2564 0
2544 -2424 0
-2544 2564 2424 0
2547 -2605 0
2547 -2604 0
2547 -2670 0
2547 -2669 0
-2547 2605 2604 2670 2669 0
2514 -2732 0
2514 -2516 0
2514 -2520 0
2514 -2622 0
-2514 2732 2516 2520 2622 0
2515 -2521 0
2515 -2732 0
2515 -2617 0
-2515 2521 2732 2617 0
2526 -2732 0
2526 -2690 0
2526 -2528 0
2526 -2622 0
-2526 2732 2690 2528 2622 0
2527 -2529 0
2527 -2732 0
2527 -2625 0
-2527 2529 2732 2625 0
2560 -2732 0
2560 -2562 0
2560 -2565 0
2560 -2570 0
-2560 2732 2562 2565 2570 0
2561 -2619 0
2561 -2732 0
2561 -2687 0
-2561 2619 2732 2687 0
2584 -2567 0
2584 -2531 0
2584 -2530 0
2584 -2506 0
-2584 2567 2531 2530 2506 0
2585 -2487 0
2585 -2464 0
-2585 2487 2464 0
2586 -2487 0
2586 -2696 0
-2586 2487 2696 0
2592 -2501 0
2592 -2531 0
2592 -2530 0
-2592 2501 2531 2530 0
2593 -2505 0
2593 -2477 0
-2593 2505 2477 0
2594 -2487 0
2594 -2477 0
-2594 2487 2477 0
2589 -2719 0
2589 -2487 0
2589 -2506 0
2589 -2482 0
-2589 2719 2487 2506 2482 0
2590 -2600 0
2590 -2485 0
-2590 2600 2485 0
2597 -2487 0
2597 -2696 0
-2597 2487 2696 0
2598 -2567 0
2598 -2696 0
-2598 2567 2696 0
2599 -2531 0
2599 -2530 0
-2599 2531 2530 0
2579 -2567 0
2579 -2531 0
2579 -2530 0
2579 -2506 0
-2579 2567 2531 2530 2506 0
2580 -2501 0
2580 -2505 0
2580 -2696 0
-2580 2501 2505 2696 0
2581 -2505 0
2581 -2506 0
2581 -2507 0
-2581 2505 2506 2507 0
2629 2569 0
2629 2563 0
2629 2564 0
2629 2606 0
-2629 -2569 -2563 -2564 -2606 0
2738 2514 0
2738 2515 0
-2738 -2514 -2515 0
2516 2569 0
2516 2563 0
2516 2564 0
-2516 -2569 -2563 -2564 0
2520 2521 0
2520 2531 0
2520 2567 0
2520 2568 0
-2520 -2521 -2531 -2567 -2568 0
2740 2526 0
2740 2527 0
-2740 -2526 -2527 0
2528 2529 0
2528 2530 0
2528 2531 0
2528 2567 0
-2528 -2529 -2530 -2531 -2567 0
2533 2670 0
2533 2604 0
2533 2610 0
-2533 -2670 -2604 -2610 0
2637 2538 0
2637 2539 0
2637 2545 0
-2637 -2538 -2539 -2545 0
2651 2542 0
2651 2543 0
2651 2544 0
2651 2545 0
-2651 -2542 -2543 -2544 -2545 0
2546 2547 0
2546 2548 0
-2546 -2547 -2548 0
2549 2550 0
2549 2551 0
2549 2552 0
2549 2610 0
-2549 -2550 -2551 -2552 -2610 0
2690 2568 0
2690 2569 0
2690 2563 0
2690 2564 0
-2690 -2568 -2569 -2563 -2564 0
2756 2560 0
2756 2561 0
-2756 -2560 -2561 0
2562 2563 0
2562 2564 0
-2562 -2563 -2564 0
2565 2619 0
2565 2567 0
2565 2568 0
2565 2569 0
-2565 -2619 -2567 -2568 -2569 0
2570 2571 0
2570 2572 0
-2570 -2571 -2572 0
2573 2574 0
2573 2575 0
2573 2576 0
2573 2695 0
-2573 -2574 -2575 -2576 -2695 0
2706 2579 0
2706 2580 0
2706 2581 0
2706 2600 0
-2706 -2579 -2580 -2581 -2600 0
2709 2584 0
2709 2585 0
2709 2586 0
2709 2600 0
-2709 -2584 -2585 -2586 -2600 0
2712 2589 0
2712 2590 0
-2712 -2589 -2590 0
2591 2592 0
2591 2593 0
2591 2594 0
2591 2696 0
-2591 -2592 -2593 -2594 -2696 0
2724 2597 0
2724 2598 0
2724 2599 0
2724 2600 0
-2724 -2597 -2598 -2599 -2600 0
-2601 -2669 0
-2601 -2670 0
-2601 -2604 0
-2601 -2605 0
2601 2669 2670 2604 2605 0
-2606 -2689 0
-2606 -2685 0
2606 2689 2685 0
-2734 -2610 0
-2734 -2732 0
2734 2610 2732 0
-2736 -2613 0
-2736 -2614 0
-2736 -2615 0
-2736 -2732 0
2736 2613 2614 2615 2732 0
-2617 -2618 0
-2617 -2619 0
-2617 -2689 0
-2617 -2690 0
2617 2618 2619 2689 2690 0
-2622 -2623 0
-2622 -2624 0
2622 2623 2624 0
-2625 -2626 0
-2625 -2627 0
-2625 -2628 0
-2625 -2629 0
2625 2626 2627 2628 2629 0
-2742 -2631 0
-2742 -2632 0
-2742 -2633 0
-2742 -2732 0
2742 2631 2632 2633 2732 0
-2744 -2636 0
-2744 -2637 0
2744 2636 2637 0
-2746 -2639 0
-2746 -2640 0
-2746 -2645 0
2746 2639 2640 2645 0
-2642 -2668 0
-2642 -2669 0
2642 2668 2669 0
-2645 -2646 0
-2645 -2647 0
2645 2646 2647 0
-2748 -2649 0
-2748 -2650 0
-2748 -2651 0
2748 2649 2650 2651 0
-2652 -2653 0
-2652 -2654 0
2652 2653 2654 0
-2750 -2656 0
-2750 -2657 0
-2750 -2659 0
2750 2656 2657 2659 0
-2659 -2660 0
-2659 -2661 0
2659 2660 2661 0
-2752 -2663 0
-2752 -2664 0
-2752 -2665 0
-2752 -2675 0
2752 2663 2664 2665 2675 0
-2667 -2668 0
-2667 -2669 0
-2667 -2670 0
2667 2668 2669 2670 0
-2671 -2672 0
-2671 -2673 0
-2671 -2674 0
2671 2672 2673 2674 0
-2675 -2676 0
-2675 -2677 0
2675 2676 2677 0
-2754 -2679 0
-2754 -2680 0
-2754 -2681 0
-2754 -2682 0
2754 2679 2680 2681 2682 0
-2683 -2689 0
-2683 -2685 0
-2683 -2686 0
2683 2689 2685 2686 0
-2687 -2688 0
-2687 -2689 0
-2687 -2690 0
2687 2688 2689 2690 0
-2758 -2692 0
-2758 -2693 0
-2758 -2732 0
2758 2692 2693 2732 0
-2695 -2696 0
-2695 -2697 0
2695 2696 2697 0
-2760 -2699 0
-2760 -2700 0
-2760 -2701 0
-2760 -2719 0
2760 2699 2700 2701 2719 0
-2762 -2704 0
-2762 -2705 0
-2762 -2706 0
2762 2704 2705 2706 0
-2764 -2708 0
-2764 -2709 0
2764 2708 2709 0
-2766 -2711 0
-2766 -2712 0
2766 2711 2712 0
-2713 -2714 0
-2713 -2715 0
2713 2714 2715 0
-2768 -2717 0
-2768 -2718 0
2768 2717 2718 0
-2719 -2720 0
-2719 -2721 0
2719 2720 2721 0
-2770 -2723 0
-2770 -2724 0
2770 2723 2724 0
-2772 -2726 0
-2772 -2727 0
-2772 -2732 0
2772 2726 2727 2732 0
-2774 -2730 0
-2774 -2731 0
-2774 -2732 0
2774 2730 2731 2732 0
-2734 3278 0
2734 -3278 0
-2736 3272 0
2736 -3272 0
-2738 3198 0
2738 -3198 0
-2740 3364 0
2740 -3364 0
-2742 3338 0
2742 -3338 0
-2744 3218 0
2744 -3218 0
-2746 3232 0
2746 -3232 0
-2748 3092 0
2748 -3092 0
-2750 3354 0
2750 -3354 0
-2752 3236 0
2752 -3236 0
-2754 3235 0
2754 -3235 0
-2756 3199 0
2756 -3199 0
-2758 2814 0
2758 -2814 0
-2760 2824 0
2760 -2824 0
-2762 3175 0
2762 -3175 0
-2764 3132 0
2764 -3132 0
-2766 3150 0
2766 -3150 0
-2768 3145 0
2768 -3145 0
-2770 2866 0
2770 -2866 0
-2772 3244 0
2772 -3244 0
-2774 3292 0
2774 -3292 0
3213 3400 0
-3213 -3400 0
3189 3198 0
-3189 -3198 0
3197 3364 0
-3197 -3364 0
3273 3278 0
-3273 -3278 0
3337 3218 0
-3337 -3218 0
3219 3338 0
-3219 -3338 0
3336 3232 0
-3336 -3232 0
3237 3354 0
-3237 -3354 0
3220 3272 0
-3220 -3272 0
3353 3236 0
-3353 -3236 0
3231 3092 0
-3231 -3092 0
3216 3292 0
-3216 -3292 0
3357 3235 0
-3357 -3235 0
3350 3213 0
-3350 -3213 0
3287 3199 0
-3287 -3199 0
3243 3235 0
-3243 -3235 0
3365 3198 0
-3365 -3198 0
3242 3199 0
-3242 -3199 0
3009 3244 0
-3009 -3244 0
3012 2814 0
-3012 -2814 0
2815 2824 0
-2815 -2824 0
2817 3175 0
-2817 -3175 0
3153 3354 0
-3153 -3354 0
3169 3235 0
-3169 -3235 0
3024 2824 0
-3024 -2824 0
3173 3199 0
-3173 -3199 0
3032 3175 0
-3032 -3175 0
3174 3364 0
-3174 -3364 0
3038 3132 0
-3038 -3132 0
3155 3198 0
-3155 -3198 0
3268 3387 0
-3268 -3387 0
3052 2866 0
-3052 -2866 0
2839 3132 0
-2839 -3132 0
2841 3150 0
-2841 -3150 0
3055 3058 0
-3055 -3058 0
3056 3244 0
-3056 -3244 0
2850 2848 0
-2850 -2848 0
3058 2850 0
-3058 -2850 0
3061 3064 0
-3061 -3064 0
3062 3292 0
-3062 -3292 0
2858 2856 0
-2858 -2856 0
3400 2858 0
-3400 -2858 0
2862 2860 0
-2862 -2860 0
3064 2862 0
-3064 -2862 0
2863 3145 0
-2863 -3145 0
2865 2866 0
-2865 -2866 0
-3356 3216 0
-3356 3217 0
3356 -3216 -3217 0
-3291 3278 0
-3291 3220 0
-3291 3219 0
-3291 3218 0
3291 -3278 -3220 -3219 -3218 0
-3286 3216 0
-3286 3217 0
3286 -3216 -3217 0
-3294 3216 0
-3294 3217 0
3294 -3216 -3217 0
-3295 3189 0
-3295 3199 0
3295 -3189 -3199 0
-3296 3198 0
-3296 3287 0
3296 -3198 -3287 0
-3314 3213 0
-3314 3336 0
3314 -3213 -3336 0
-3315 3216 0
-3315 3213 0
3315 -3216 -3213 0
-3321 3231 0
-3321 3353 0
3321 -3231 -3353 0
-3322 3231 0
-3322 3354 0
3322 -3231 -3354 0
-3328 3213 0
-3328 3232 0
-3328 3092 0
3328 -3213 -3232 -3092 0
-3329 3213 0
-3329 3354 0
3329 -3213 -3354 0
-3340 3092 0
-3340 3237 0
3340 -3092 -3237 0
-3341 3231 0
-3341 3354 0
3341 -3231 -3354 0
-3342 3092 0
-3342 3353 0
3342 -3092 -3353 0
-3344 3213 0
-3344 3232 0
-3344 3092 0
-3344 3354 0
3344 -3213 -3232 -3092 -3354 0
-3345 3213 0
-3345 3236 0
3345 -3213 -3236 0
-3281 3278 0
-3281 3219 0
-3281 3218 0
3281 -3278 -3219 -3218 0
-3282 3278 0
-3282 3272 0
3282 -3278 -3272 0
-3283 3273 0
-3283 3220 0
3283 -3273 -3220 0
-3299 3278 0
-3299 3272 0
-3299 3338 0
3299 -3278 -3272 -3338 0
-3300 3273 0
-3300 3219 0
3300 -3273 -3219 0
-3301 3220 0
-3301 3219 0
3301 -3220 -3219 0
-3304 3337 0
-3304 3201 0
3304 -3337 -3201 0
-3307 3219 0
-3307 3220 0
-3307 3278 0
-3307 3310 0
3307 -3219 -3220 -3278 -3310 0
-3308 3336 0
-3308 3216 0
-3308 3217 0
3308 -3336 -3216 -3217 0
-3317 3220 0
-3317 3278 0
-3317 3335 0
-3317 3320 0
3317 -3220 -3278 -3335 -3320 0
-3318 3231 0
-3318 3216 0
-3318 3217 0
3318 -3231 -3216 -3217 0
-3324 3354 0
-3324 3092 0
-3324 3232 0
-3324 3214 0
3324 -3354 -3092 -3232 -3214 0
-3325 3237 0
-3325 3216 0
-3325 3217 0
3325 -3237 -3216 -3217 0
-3331 3220 0
-3331 3278 0
-3331 3335 0
-3331 3339 0
3331 -3220 -3278 -3335 -3339 0
-3332 3353 0
-3332 3216 0
-3332 3217 0
3332 -3353 -3216 -3217 0
-3333 3232 0
-3333 3292 0
-3333 3339 0
3333 -3232 -3292 -3339 0
-3347 3231 0
-3347 3232 0
-3347 3351 0
-3347 3214 0
3347 -3231 -3232 -3351 -3214 0
-3348 3357 0
-3348 3216 0
-3348 3217 0
3348 -3357 -3216 -3217 0
-3349 3357 0
-3349 3358 0
3349 -3357 -3358 0
-3360 3242 0
-3360 3235 0
-3360 3009 0
-3360 3363 0
3360 -3242 -3235 -3009 -3363 0
-3361 3012 0
-3361 3241 0
3361 -3012 -3241 0
-3388 3242 0
-3388 3235 0
-3388 3009 0
-3388 3363 0
3388 -3242 -3235 -3009 -3363 0
-3389 3012 0
-3389 3241 0
3389 -3012 -3241 0
-3382 3199 0
-3382 3364 0
-3382 3150 0
3382 -3199 -3364 -3150 0
-3383 3169 0
-3383 3173 0
-3383 3364 0
3383 -3169 -3173 -3364 0
-3367 3364 0
-3367 3024 0
3367 -3364 -3024 0
-3368 3155 0
-3368 3174 0
3368 -3155 -3174 0
-3369 3173 0
-3369 3155 0
3369 -3173 -3155 0
-3372 3032 0
-3372 3198 0
3372 -3032 -3198 0
-3373 3174 0
-3373 3198 0
3373 -3174 -3198 0
-3376 3038 0
-3376 3364 0
-3376 3199 0
3376 -3038 -3364 -3199 0
-3379 3155 0
-3379 3268 0
-3379 3381 0
3379 -3155 -3268 -3381 0
-3385 3268 0
-3385 3259 0
3385 -3268 -3259 0
-3386 3354 0
-3386 3387 0
3386 -3354 -3387 0
-3391 3052 0
-3391 3364 0
3391 -3052 -3364 0
-3394 3055 0
-3394 3056 0
3394 -3055 -3056 0
-3395 3058 0
-3395 3244 0
3395 -3058 -3244 0
-3398 3061 0
-3398 3062 0
3398 -3061 -3062 0
-3399 3064 0
-3399 3292 0
3399 -3064 -3292 0
3239 -3292 0
3239 -3269 0
-3239 3292 3269 0
3240 -3197 0
3240 -3198 0
-3240 3197 3198 0
3206 -3273 0
3206 -3220 0
3206 -3219 0
3206 -3337 0
-3206 3273 3220 3219 3337 0
3207 -3273 0
3207 -3272 0
3207 -3338 0
-3207 3273 3272 3338 0
3210 -3216 0
3210 -3336 0
3210 -3354 0
3210 -3353 0
-3210 3216 3336 3354 3353 0
3211 -3216 0
3211 -3336 0
3211 -3231 0
-3211 3216 3336 3231 0
3212 -3232 0
3212 -3092 0
-3212 3232 3092 0
3215 -3273 0
3215 -3272 0
3215 -3338 0
3215 -3337 0
-3215 3273 3272 3338 3337 0
3182 -3400 0
3182 -3184 0
3182 -3188 0
3182 -3290 0
-3182 3400 3184 3188 3290 0
3183 -3189 0
3183 -3400 0
3183 -3285 0
-3183 3189 3400 3285 0
3194 -3400 0
3194 -3358 0
3194 -3196 0
3194 -3290 0
-3194 3400 3358 3196 3290 0
3195 -3197 0
3195 -3400 0
3195 -3293 0
-3195 3197 3400 3293 0
3228 -3400 0
3228 -3230 0
3228 -3233 0
3228 -3238 0
-3228 3400 3230 3233 3238 0
3229 -3287 0
3229 -3400 0
3229 -3355 0
-3229 3287 3400 3355 0
3252 -3235 0
3252 -3199 0
3252 -3198 0
3252 -3174 0
-3252 3235 3199 3198 3174 0
3253 -3155 0
3253 -3132 0
-3253 3155 3132 0
3254 -3155 0
3254 -3364 0
-3254 3155 3364 0
3260 -3169 0
3260 -3199 0
3260 -3198 0
-3260 3169 3199 3198 0
3261 -3173 0
3261 -3145 0
-3261 3173 3145 0
3262 -3155 0
3262 -3145 0
-3262 3155 3145 0
3257 -3387 0
3257 -3155 0
3257 -3174 0
3257 -3150 0
-3257 3387 3155 3174 3150 0
3258 -3268 0
3258 -3153 0
-3258 3268 3153 0
3265 -3155 0
3265 -3364 0
-3265 3155 3364 0
3266 -3235 0
3266 -3364 0
-3266 3235 3364 0
3267 -3199 0
3267 -3198 0
-3267 3199 3198 0
3247 -3235 0
3247 -3199 0
3247 -3198 0
3247 -3174 0
-3247 3235 3199 3198 3174 0
3248 -3169 0
3248 -3173 0
3248 -3364 0
-3248 3169 3173 3364 0
3249 -3173 0
3249 -3174 0
3249 -3175 0
-3249 3173 3174 3175 0
3297 3237 0
3297 3231 0
3297 3232 0
3297 3274 0
-3297 -3237 -3231 -3232 -3274 0
3406 3182 0
3406 3183 0
-3406 -3182 -3183 0
3184 3237 0
3184 3231 0
3184 3232 0
-3184 -3237 -3231 -3232 0
3188 3189 0
3188 3199 0
3188 3235 0
3188 3236 0
-3188 -3189 -3199 -3235 -3236 0
3408 3194 0
3408 3195 0
-3408 -3194 -3195 0
3196 3197 0
3196 3198 0
3196 3199 0
3196 3235 0
-3196 -3197 -3198 -3199 -3235 0
3201 3338 0
3201 3272 0
3201 3278 0
-3201 -3338 -3272 -3278 0
3305 3206 0
3305 3207 0
3305 3213 0
-3305 -3206 -3207 -3213 0
3319 3210 0
3319 3211 0
3319 3212 0
3319 3213 0
-3319 -3210 -3211 -3212 -3213 0
3214 3215 0
3214 3216 0
-3214 -3215 -3216 0
3217 3218 0
3217 3219 0
3217 3220 0
3217 3278 0
-3217 -3218 -3219 -3220 -3278 0
3358 3236 0
3358 3237 0
3358 3231 0
3358 3232 0
-3358 -3236 -3237 -3231 -3232 0
3424 3228 0
3424 3229 0
-3424 -3228 -3229 0
3230 3231 0
3230 3232 0
-3230 -3231 -3232 0
3233 3287 0
3233 3235 0
3233 3236 0
3233 3237 0
-3233 -3287 -3235 -3236 -3237 0
3238 3239 0
3238 3240 0
-3238 -3239 -3240 0
3241 3242 0
3241 3243 0
3241 3244 0
3241 3363 0
-3241 -3242 -3243 -3244 -3363 0
3374 3247 0
3374 3248 0
3374 3249 0
3374 3268 0
-3374 -3247 -3248 -3249 -3268 0
3377 3252 0
3377 3253 0
3377 3254 0
3377 3268 0
-3377 -3252 -3253 -3254 -3268 0
3380 3257 0
3380 3258 0
-3380 -3257 -3258 0
3259 3260 0
3259 3261 0
3259 3262 0
3259 3364 0
-3259 -3260 -3261 -3262 -3364 0
3392 3265 0
3392 3266 0
3392 3267 0
3392 3268 0
-3392 -3265 -3266 -3267 -3268 0
-3269 -3337 0
-3269 -3338 0
-3269 -3272 0
-3269 -3273 0
3269 3337 3338 3272 3273 0
-3274 -3357 0
-3274 -3353 0
3274 3357 3353 0
-3402 -3278 0
-3402 -3400 0
3402 3278 3400 0
-3404 -3281 0
-3404 -3282 0
-3404 -3283 0
-3404 -3400 0
3404 3281 3282 3283 3400 0
-3285 -3286 0
-3285 -3287 0
-3285 -3357 0
-3285 -3358 0
3285 3286 3287 3357 3358 0
-3290 -3291 0
-3290 -3292 0
3290 3291 3292 0
-3293 -3294 0
-3293 -3295 0
-3293 -3296 0
-3293 -3297 0
3293 3294 3295 3296 3297 0
-3410 -3299 0
-3410 -3300 0
-3410 -3301 0
-3410 -3400 0
3410 3299 3300 3301 3400 0
-3412 -3304 0
-3412 -3305 0
3412 3304 3305 0
-3414 -3307 0
-3414 -3308 0
-3414 -3313 0
3414 3307 3308 3313 0
-3310 -3336 0
-3310 -3337 0
3310 3336 3337 0
-3313 -3314 0
-3313 -3315 0
3313 3314 3315 0
-3416 -3317 0
-3416 -3318 0
-3416 -3319 0
3416 3317 3318 3319 0
-3320 -3321 0
-3320 -3322 0
3320 3321 3322 0
-3418 -3324 0
-3418 -3325 0
-3418 -3327 0
3418 3324 3325 3327 0
-3327 -3328 0
-3327 -3329 0
3327 3328 3329 0
-3420 -3331 0
-3420 -3332 0
-3420 -3333 0
-3420 -3343 0
3420 3331 3332 3333 3343 0
-3335 -3336 0
-3335 -3337 0
-3335 -3338 0
3335 3336 3337 3338 0
-3339 -3340 0
-3339 -3341 0
-3339 -3342 0
3339 3340 3341 3342 0
-3343 -3344 0
-3343 -3345 0
3343 3344 3345 0
-3422 -3347 0
-3422 -3348 0
-3422 -3349 0
-3422 -3350 0
3422 3347 3348 3349 3350 0
-3351 -3357 0
-3351 -3353 0
-3351 -3354 0
3351 3357 3353 3354 0
-3355 -3356 0
-3355 -3357 0
-3355 -3358 0
3355 3356 3357 3358 0
-3426 -3360 0
-3426 -3361 0
-3426 -3400 0
3426 3360 3361 3400 0
-3363 -3364 0
-3363 -3365 0
3363 3364 3365 0
-3428 -3367 0
-3428 -3368 0
-3428 -3369 0
-3428 -3387 0
3428 3367 3368 3369 3387 0
-3430 -3372 0
-3430 -3373 0
-3430 -3374 0
3430 3372 3373 3374 0
-3432 -3376 0
-3432 -3377 0
3432 3376 3377 0
-3434 -3379 0
-3434 -3380 0
3434 3379 3380 0
-3381 -3382 0
-3381 -3383 0
3381 3382 3383 0
-3436 -3385 0
-3436 -3386 0
3436 3385 3386 0
-3387 -3388 0
-3387 -3389 0
3387 3388 3389 0
-3438 -3391 0
-3438 -3392 0
3438 3391 3392 0
-3440 -3394 0
-3440 -3395 0
-3440 -3400 0
3440 3394 3395 3400 0
-3442 -3398 0
-3442 -3399 0
-3442 -3400 0
3442 3398 3399 3400 0
-3402 3946 0
3402 -3946 0
-3404 3940 0
3404 -3940 0
-3406 3866 0
3406 -3866 0
-3408 4032 0
3408 -4032 0
-3410 4006 0
3410 -4006 0
-3412 3886 0
3412 -3886 0
-3414 3900 0
3414 -3900 0
-3416 3760 0
3416 -3760 0
-3418 4022 0
3418 -4022 0
-3420 3904 0
3420 -3904 0
-3422 3903 0
3422 -3903 0
-3424 3867 0
3424 -3867 0
-3426 3482 0
3426 -3482 0
-3428 3492 0
3428 -3492 0
-3430 3843 0
3430 -3843 0
-3432 3800 0
3432 -3800 0
-3434 3818 0
3434 -3818 0
-3436 3813 0
3436 -3813 0
-3438 3534 0
3438 -3534 0
-3440 3912 0
3440 -3912 0
-3442 3960 0
3442 -3960 0
3881 4068 0
-3881 -4068 0
3857 3866 0
-3857 -3866 0
3865 4032 0
-3865 -4032 0
3941 3946 0
-3941 -3946 0
4005 3886 0
-4005 -3886 0
3887 4006 0
-3887 -4006 0
4004 3900 0
-4004 -3900 0
3905 4022 0
-3905 -4022 0
3888 3940 0
-3888 -3940 0
4021 3904 0
-4021 -3904 0
3899 3760 0
-3899 -3760 0
3884 3960 0
-3884 -3960 0
4025 3903 0
-4025 -3903 0
4018 3881 0
-4018 -3881 0
3955 3867 0
-3955 -3867 0
3911 3903 0
-3911 -3903 0
4033 3866 0
-4033 -3866 0
3910 3867 0
-3910 -3867 0
3677 3912 0
-3677 -3912 0
3680 3482 0
-3680 -3482 0
3483 3492 0
-3483 -3492 0
3485 3843 0
-3485 -3843 0
3821 4022 0
-3821 -4022 0
3837 3903 0
-3837 -3903 0
3692 3492 0
-3692 -3492 0
3841 3867 0
-3841 -3867 0
3700 3843 0
-3700 -3843 0
3842 4032 0
-3842 -4032 0
3706 3800 0
-3706 -3800 0
3823 3866 0
-3823 -3866 0
3936 4055 0
-3936 -4055 0
3720 3534 0
-3720 -3534 0
3507 3800 0
-3507 -3800 0
3509 3818 0
-3509 -3818 0
3723 3726 0
-3723 -3726 0
3724 3912 0
-3724 -3912 0
3518 3516 0
-3518 -3516 0
3726 3518 0
-3726 -3518 0
3729 3732 0
-3729 -3732 0
3730 3960 0
-3730 -3960 0
3526 3524 0
-3526 -3524 0
4068 3526 0
-4068 -3526 0
3530 3528 0
-3530 -3528 0
3732 3530 0
-3732 -3530 0
3531 3813 0
-3531 -3813 0
3533 3534 0
-3533 -3534 0
-4024 3884 0
-4024 3885 0
4024 -3884 -3885 0
-3959 3946 0
-3959 3888 0
-3959 3887 0
-3959 3886 0
3959 -3946 -3888 -3887 -3886 0
-3954 3884 0
-3954 3885 0
3954 -3884 -3885 0
-3962 3884 0
-3962 3885 0
3962 -3884 -3885 0
-3963 3857 0
-3963 3867 0
3963 -3857 -3867 0
-3964 3866 0
-3964 3955 0
3964 -3866 -3955 0
-3982 3881 0
-3982 4004 0
3982 -3881 -4004 0
-3983 3884 0
-3983 3881 0
3983 -3884 -3881 0
-3989 3899 0
-3989 4021 0
3989 -3899 -4021 0
-3990 3899 0
-3990 4022 0
3990 -3899 -4022 0
-3996 3881 0
-3996 3900 0
-3996 3760 0
3996 -3881 -3900 -3760 0
-3997 3881 0
-3997 4022 0
3997 -3881 -4022 0
-4008 3760 0
-4008 3905 0
4008 -3760 -3905 0
-4009 3899 0
-4009 4022 0
4009 -3899 -4022 0
-4010 3760 0
-4010 4021 0
4010 -3760 -4021 0
-4012 3881 0
-4012 3900 0
-4012 3760 0
-4012 4022 0
4012 -3881 -3900 -3760 -4022 0
-4013 3881 0
-4013 3904 0
4013 -3881 -3904 0
-3949 3946 0
-3949 3887 0
-3949 3886 0
3949 -3946 -3887 -3886 0
-3950 3946 0
-3950 3940 0
3950 -3946 -3940 0
-3951 3941 0
-3951 3888 0
3951 -3941 -3888 0
-3967 3946 0
-3967 3940 0
-3967 4006 0
3967 -3946 -3940 -4006 0
-3968 3941 0
-3968 3887 0
3968 -3941 -3887 0
-3969 3888 0
-3969 3887 0
3969 -3888 -3887 0
-3972 4005 0
-3972 3869 0
3972 -4005 -3869 0
-3975 3887 0
-3975 3888 0
-3975 3946 0
-3975 3978 0
3975 -3887 -3888 -3946 -3978 0
-3976 4004 0
-3976 3884 0
-3976 3885 0
3976 -4004 -3884 -3885 0
-3985 3888 0
-3985 3946 0
-3985 4003 0
-3985 3988 0
3985 -3888 -3946 -4003 -3988 0
-3986 3899 0
-3986 3884 0
-3986 3885 0
3986 -3899 -3884 -3885 0
-3992 4022 0
-3992 3760 0
-3992 3900 0
-3992 3882 0
3992 -4022 -3760 -3900 -3882 0
-3993 3905 0
-3993 3884 0
-3993 3885 0
3993 -3905 -3884 -3885 0
-3999 3888 0
-3999 3946 0
-3999 4003 0
-3999 4007 0
3999 -3888 -3946 -4003 -4007 0
-4000 4021 0
-4000 3884 0
-4000 3885 0
4000 -4021 -3884 -3885 0
-4001 3900 0
-4001 3960 0
-4001 4007 0
4001 -3900 -3960 -4007 0
-4015 3899 0
-4015 3900 0
-4015 4019 0
-4015 3882 0
4015 -3899 -3900 -4019 -3882 0
-4016 4025 0
-4016 3884 0
-4016 3885 0
4016 -4025 -3884 -3885 0
-4017 4025 0
-4017 4026 0
4017 -4025 -4026 0
-4028 3910 0
-4028 3903 0
-4028 3677 0
-4028 4031 0
4028 -3910 -3903 -3677 -4031 0
-4029 3680 0
-4029 3909 0
4029 -3680 -3909 0
-4056 3910 0
-4056 3903 0
-4056 3677 0
-4056 4031 0
4056 -3910 -3903 -3677 -4031 0
-4057 3680 0
-4057 3909 0
4057 -3680 -3909 0
-4050 3867 0
-4050 4032 0
-4050 3818 0
4050 -3867 -4032 -3818 0
-4051 3837 0
-4051 3841 0
-4051 4032 0
4051 -3837 -3841 -4032 0
-4035 4032 0
-4035 3692 0
4035 -4032 -3692 0
-4036 3823 0
-4036 3842 0
4036 -3823 -3842 0
-4037 3841 0
-4037 3823 0
4037 -3841 -3823 0
-4040 3700 0
-4040 3866 0
4040 -3700 -3866 0
-4041 3842 0
-4041 3866 0
4041 -3842 -3866 0
-4044 3706 0
-4044 4032 0
-4044 3867 0
4044 -3706 -4032 -3867 0
-4047 3823 0
-4047 3936 0
-4047 4049 0
4047 -3823 -3936 -4049 0
-4053 3936 0
-4053 3927 0
4053 -3936 -3927 0
-4054 4022 0
-4054 4055 0
4054 -4022 -4055 0
-4059 3720 0
-4059 4032 0
4059 -3720 -4032 0
-4062 3723 0
-4062 3724 0
4062 -3723 -3724 0
-4063 3726 0
-4063 3912 0
4063 -3726 -3912 0
-4066 3729 0
-4066 3730 0
4066 -3729 -3730 0
-4067 3732 0
-4067 3960 0
4067 -3732 -3960 0
3907 -3960 0
3907 -3937 0
-3907 3960 3937 0
3908 -3865 0
3908 -3866 0
-3908 3865 3866 0
3874 -3941 0
3874 -3888 0
3874 -3887 0
3874 -4005 0
-3874 3941 3888 3887 4005 0
3875 -3941 0
3875 -3940 0
3875 -4006 0
-3875 3941 3940 4006 0
3878 -3884 0
3878 -4004 0
3878 -4022 0
3878 -4021 0
-3878 3884 4004 4022 4021 0
3879 -3884 0
3879 -4004 0
3879 -3899 0
-3879 3884 4004 3899 0
3880 -3900 0
3880 -3760 0
-3880 3900 3760 0
3883 -3941 0
3883 -3940 0
3883 -4006 0
3883 -4005 0
-3883 3941 3940 4006 4005 0
3850 -4068 0
3850 -3852 0
3850 -3856 0
3850 -3958 0
-3850 4068 3852 3856 3958 0
3851 -3857 0
3851 -4068 0
3851 -3953 0
-3851 3857 4068 3953 0
3862 -4068 0
3862 -4026 0
3862 -3864 0
3862 -3958 0
-3862 4068 4026 3864 3958 0
3863 -3865 0
3863 -4068 0
3863 -3961 0
-3863 3865 4068 3961 0
3896 -4068 0
3896 -3898 0
3896 -3901 0
3896 -3906 0
-3896 4068 3898 3901 3906 0
3897 -3955 0
3897 -4068 0
3897 -4023 0
-3897 3955 4068 4023 0
3920 -3903 0
3920 -3867 0
3920 -3866 0
3920 -3842 0
-3920 3903 3867 3866 3842 0
3921 -3823 0
3921 -3800 0
-3921 3823 3800 0
3922 -3823 0
3922 -4032 0
-3922 3823 4032 0
3928 -3837 0
3928 -3867 0
3928 -3866 0
-3928 3837 3867 3866 0
3929 -3841 0
3929 -3813 0
-3929 3841 3813 0
3930 -3823 0
3930 -3813 0
-3930 3823 3813 0
3925 -4055 0
3925 -3823 0
3925 -3842 0
3925 -3818 0
-3925 4055 3823 3842 3818 0
3926 -3936 0
3926 -3821 0
-3926 3936 3821 0
3933 -3823 0
3933 -4032 0
-3933 3823 4032 0
3934 -3903 0
3934 -4032 0
-3934 3903 4032 0
3935 -3867 0
3935 -3866 0
-3935 3867 3866 0
3915 -3903 0
3915 -3867 0
3915 -3866 0
3915 -3842 0
-3915 3903 3867 3866 3842 0
3916 -3837 0
3916 -3841 0
3916 -4032 0
-3916 3837 3841 4032 0
3917 -3841 0
3917 -3842 0
3917 -3843 0
-3917 3841 3842 3843 0
3965 3905 0
3965 3899 0
3965 3900 0
3965 3942 0
-3965 -3905 -3899 -3900 -3942 0
4074 3850 0
4074 3851 0
-4074 -3850 -3851 0
3852 3905 0
3852 3899 0
3852 3900 0
-3852 -3905 -3899 -3900 0
3856 3857 0
3856 3867 0
3856 3903 0
3856 3904 0
-3856 -3857 -3867 -3903 -3904 0
4076 3862 0
4076 3863 0
-4076 -3862 -3863 0
3864 3865 0
3864 3866 0
3864 3867 0
3864 3903 0
-3864 -3865 -3866 -3867 -3903 0
3869 4006 0
3869 3940 0
3869 3946 0
-3869 -4006 -3940 -3946 0
3973 3874 0
3973 3875 0
3973 3881 0
-3973 -3874 -3875 -3881 0
3987 3878 0
3987 3879 0
3987 3880 0
3987 3881 0
-3987 -3878 -3879 -3880 -3881 0
3882 3883 0
3882 3884 0
-3882 -3883 -3884 0
3885 3886 0
3885 3887 0
3885 3888 0
3885 3946 0
-3885 -3886 -3887 -3888 -3946 0
4026 3904 0
4026 3905 0
4026 3899 0
4026 3900 0
-4026 -3904 -3905 -3899 -3900 0
4092 3896 0
4092 3897 0
-4092 -3896 -3897 0
3898 3899 0
3898 3900 0
-3898 -3899 -3900 0
3901 3955 0
3901 3903 0
3901 3904 0
3901 3905 0
-3901 -3955 -3903 -3904 -3905 0
3906 3907 0
3906 3908 0
-3906 -3907 -3908 0
3909 3910 0
3909 3911 0
3909 3912 0
3909 4031 0
-3909 -3910 -3911 -3912 -4031 0
4042 3915 0
4042 3916 0
4042 3917 0
4042 3936 0
-4042 -3915 -3916 -3917 -3936 0
4045 3920 0
4045 3921 0
4045 3922 0
4045 3936 0
-4045 -3920 -3921 -3922 -3936 0
4048 3925 0
4048 3926 0
-4048 -3925 -3926 0
3927 3928 0
3927 3929 0
3927 3930 0
3927 4032 0
-3927 -3928 -3929 -3930 -4032 0
4060 3933 0
4060 3934 0
4060 3935 0
4060 3936 0
-4060 -3933 -3934 -3935 -3936 0
-3937 -4005 0
-3937 -4006 0
-3937 -3940 0
-3937 -3941 0
3937 4005 4006 3940 3941 0
-3942 -4025 0
-3942 -4021 0
3942 4025 4021 0
-4070 -3946 0
-4070 -4068 0
4070 3946 4068 0
-4072 -3949 0
-4072 -3950 0
-4072 -3951 0
-4072 -4068 0
4072 3949 3950 3951 4068 0
-3953 -3954 0
-3953 -3955 0
-3953 -4025 0
-3953 -4026 0
3953 3954 3955 4025 4026 0
-3958 -3959 0
-3958 -3960 0
3958 3959 3960 0
-3961 -3962 0
-3961 -3963 0
-3961 -3964 0
-3961 -3965 0
3961 3962 3963 3964 3965 0
-4078 -3967 0
-4078 -3968 0
-4078 -3969 0
-4078 -4068 0
4078 3967 3968 3969 4068 0
-4080 -3972 0
-4080 -3973 0
4080 3972 3973 0
-4082 -3975 0
-4082 -3976 0
-4082 -3981 0
4082 3975 3976 3981 0
-3978 -4004 0
-3978 -4005 0
3978 4004 4005 0
-3981 -3982 0
-3981 -3983 0
3981 3982 3983 0
-4084 -3985 0
-4084 -3986 0
-4084 -3987 0
4084 3985 3986 3987 0
-3988 -3989 0
-3988 -3990 0
3988 3989 3990 0
-4086 -3992 0
-4086 -3993 0
-4086 -3995 0
4086 3992 3993 3995 0
-3995 -3996 0
-3995 -3997 0
3995 3996 3997 0
-4088 -3999 0
-4088 -4000 0
-4088 -4001 0
-4088 -4011 0
4088 3999 4000 4001 4011 0
-4003 -4004 0
-4003 -4005 0
-4003 -4006 0
4003 4004 4005 4006 0
-4007 -4008 0
-4007 -4009 0
-4007 -4010 0
4007 4008 4009 4010 0
-4011 -4012 0
-4011 -4013 0
4011 4012 4013 0
-4090 -4015 0
-4090 -4016 0
-4090 -4017 0
-4090 -4018 0
4090 4015 4016 4017 4018 0
-4019 -4025 0
-4019 -4021 0
-4019 -4022 0
4019 4025 4021 4022 0
-4023 -4024 0
-4023 -4025 0
-4023 -4026 0
4023 4024 4025 4026 0
-4094 -4028 0
-4094 -4029 0
-4094 -4068 0
4094 4028 4029 4068 0
-4031 -4032 0
-4031 -4033 0
4031 4032 4033 0
-4096 -4035 0
-4096 -4036 0
-4096 -4037 0
-4096 -4055 0
4096 4035 4036 4037 4055 0
-4098 -4040 0
-4098 -4041 0
-4098 -4042 0
4098 4040 4041 4042 0
-4100 -4044 0
-4100 -4045 0
4100 4044 4045 0
-4102 -4047 0
-4102 -4048 0
4102 4047 4048 0
-4049 -4050 0
-4049 -4051 0
4049 4050 4051 0
-4104 -4053 0
-4104 -4054 0
4104 4053 4054 0
-4055 -4056 0
-4055 -4057 0
4055 4056 4057 0
-4106 -4059 0
-4106 -4060 0
4106 4059 4060 0
-4108 -4062 0
-4108 -4063 0
-4108 -4068 0
4108 4062 4063 4068 0
-4110 -4066 0
-4110 -4067 0
-4110 -4068 0
4110 4066 4067 4068 0
-4070 4614 0
4070 -4614 0
-4072 4608 0
4072 -4608 0
-4074 4534 0
4074 -4534 0
-4076 4700 0
4076 -4700 0
-4078 4674 0
4078 -4674 0
-4080 4554 0
4080 -4554 0
-4082 4568 0
4082 -4568 0
-4084 4428 0
4084 -4428 0
-4086 4690 0
4086 -4690 0
-4088 4572 0
4088 -4572 0
-4090 4571 0
4090 -4571 0
-4092 4535 0
4092 -4535 0
-4094 4150 0
4094 -4150 0
-4096 4160 0
4096 -4160 0
-4098 4511 0
4098 -4511 0
-4100 4468 0
4100 -4468 0
-4102 4486 0
4102 -4486 0
-4104 4481 0
4104 -4481 0
-4106 4202 0
4106 -4202 0
-4108 4580 0
4108 -4580 0
-4110 4628 0
4110 -4628 0
4549 4736 0
-4549 -4736 0
4525 4534 0
-4525 -4534 0
4533 4700 0
-4533 -4700 0
4609 4614 0
-4609 -4614 0
4673 4554 0
-4673 -4554 0
4555 4674 0
-4555 -4674 0
4672 4568 0
-4672 -4568 0
4573 4690 0
-4573 -4690 0
4556 4608 0
-4556 -4608 0
4689 4572 0
-4689 -4572 0
4567 4428 0
-4567 -4428 0
4552 4628 0
-4552 -4628 0
4693 4571 0
-4693 -4571 0
4686 4549 0
-4686 -4549 0
4623 4535 0
-4623 -4535 0
4579 4571 0
-4579 -4571 0
4701 4534 0
-4701 -4534 0
4578 4535 0
-4578 -4535 0
4345 4580 0
-4345 -4580 0
4348 4150 0
-4348 -4150 0
4151 4160 0
-4151 -4160 0
4153 4511 0
-4153 -4511 0
4489 4690 0
-4489 -4690 0
4505 4571 0
-4505 -4571 0
4360 4160 0
-4360 -4160 0
4509 4535 0
-4509 -4535 0
4368 4511 0
-4368 -4511 0
4510 4700 0
-4510 -4700 0
4374 4468 0
-4374 -4468 0
4491 4534 0
-4491 -4534 0
4604 4723 0
-4604 -4723 0
4388 4202 0
-4388 -4202 0
4175 4468 0
-4175 -4468 0
4177 4486 0
-4177 -4486 0
4391 4394 0
-4391 -4394 0
4392 4580 0
-4392 -4580 0
4186 4184 0
-4186 -4184 0
4394 4186 0
-4394 -4186 0
4397 4400 0
-4397 -4400 0
4398 4628 0
-4398 -4628 0
4194 4192 0
-4194 -4192 0
4736 4194 0
-4736 -4194 0
4198 4196 0
-4198 -4196 0
4400 4198 0
-4400 -4198 0
4199 4481 0
-4199 -4481 0
4201 4202 0
-4201 -4202 0
-4692 4552 0
-4692 4553 0
4692 -4552 -4553 0
-4627 4614 0
-4627 4556 0
-4627 4555 0
-4627 4554 0
4627 -4614 -4556 -4555 -4554 0
-4622 4552 0
-4622 4553 0
4622 -4552 -4553 0
-4630 4552 0
-4630 4553 0
4630 -4552 -4553 0
-4631 4525 0
-4631 4535 0
4631 -4525 -4535 0
-4632 4534 0
-4632 4623 0
4632 -4534 -4623 0
-4650 4549 0
-4650 4672 0
4650 -4549 -4672 0
-4651 4552 0
-4651 4549 0
4651 -4552 -4549 0
-4657 4567 0
-4657 4689 0
4657 -4567 -4689 0
-4658 4567 0
-4658 4690 0
4658 -4567 -4690 0
-4664 4549 0
-4664 4568 0
-4664 4428 0
4664 -4549 -4568 -4428 0
-4665 4549 0
-4665 4690 0
4665 -4549 -4690 0
-4676 4428 0
-4676 4573 0
4676 -4428 -4573 0
-4677 4567 0
-4677 4690 0
4677 -4567 -4690 0
-4678 4428 0
-4678 4689 0
4678 -4428 -4689 0
-4680 4549 0
-4680 4568 0
-4680 4428 0
-4680 4690 0
4680 -4549 -4568 -4428 -4690 0
-4681 4549 0
-4681 4572 0
4681 -4549 -4572 0
-4617 4614 0
-4617 4555 0
-4617 4554 0
4617 -4614 -4555 -4554 0
-4618 4614 0
-4618 4608 0
4618 -4614 -4608 0
-4619 4609 0
-4619 4556 0
4619 -4609 -4556 0
-4635 4614 0
-4635 4608 0
-4635 4674 0
4635 -4614 -4608 -4674 0
-4636 4609 0
-4636 4555 0
4636 -4609 -4555 0
-4637 4556 0
-4637 4555 0
4637 -4556 -4555 0
-4640 4673 0
-4640 4537 0
4640 -4673 -4537 0
-4643 4555 0
-4643 4556 0
-4643 4614 0
-4643 4646 0
4643 -4555 -4556 -4614 -4646 0
-4644 4672 0
-4644 4552 0
-4644 4553 0
4644 -4672 -4552 -4553 0
-4653 4556 0
-4653 4614 0
-4653 4671 0
-4653 4656 0
4653 -4556 -4614 -4671 -4656 0
-4654 4567 0
-4654 4552 0
-4654 4553 0
4654 -4567 -4552 -4553 0
-4660 4690 0
-4660 4428 0
-4660 4568 0
-4660 4550 0
4660 -4690 -4428 -4568 -4550 0
-4661 4573 0
-4661 4552 0
-4661 4553 0
4661 -4573 -4552 -4553 0
-4667 4556 0
-4667 4614 0
-4667 4671 0
-4667 4675 0
4667 -4556 -4614 -4671 -4675 0
-4668 4689 0
-4668 4552 0
-4668 4553 0
4668 -4689 -4552 -4553 0
-4669 4568 0
-4669 4628 0
-4669 4675 0
4669 -4568 -4628 -4675 0
-4683 4567 0
-4683 4568 0
-4683 4687 0
-4683 4550 0
4683 -4567 -4568 -4687 -4550 0
-4684 4693 0
-4684 4552 0
-4684 4553 0
4684 -4693 -4552 -4553 0
-4685 4693 0
-4685 4694 0
4685 -4693 -4694 0
-4696 4578 0
-4696 4571 0
-4696 4345 0
-4696 4699 0
4696 -4578 -4571 -4345 -4699 0
-4697 4348 0
-4697 4577 0
4697 -4348 -4577 0
-4724 4578 0
-4724 4571 0
-4724 4345 0
-4724 4699 0
4724 -4578 -4571 -4345 -4699 0
-4725 4348 0
-4725 4577 0
4725 -4348 -4577 0
-4718 4535 0
-4718 4700 0
-4718 4486 0
4718 -4535 -4700 -4486 0
-4719 4505 0
-4719 4509 0
-4719 4700 0
4719 -4505 -4509 -4700 0
-4703 4700 0
-4703 4360 0
4703 -4700 -4360 0
-4704 4491 0
-4704 4510 0
4704 -4491 -4510 0
-4705 4509 0
-4705 4491 0
4705 -4509 -4491 0
-4708 4368 0
-4708 4534 0
4708 -4368 -4534 0
-4709 4510 0
-4709 4534 0
4709 -4510 -4534 0
-4712 4374 0
-4712 4700 0
-4712 4535 0
4712 -4374 -4700 -4535 0
-4715 4491 0
-4715 4604 0
-4715 4717 0
4715 -4491 -4604 -4717 0
-4721 4604 0
-4721 4595 0
4721 -4604 -4595 0
-4722 4690 0
-4722 4723 0
4722 -4690 -4723 0
-4727 4388 0
-4727 4700 0
4727 -4388 -4700 0
-4730 4391 0
-4730 4392 0
4730 -4391 -4392 0
-4731 4394 0
-4731 4580 0
4731 -4394 -4580 0
-4734 4397 0
-4734 4398 0
4734 -4397 -4398 0
-4735 4400 0
-4735 4628 0
4735 -4400 -4628 0
4575 -4628 0
4575 -4605 0
-4575 4628 4605 0
4576 -4533 0
4576 -4534 0
-4576 4533 4534 0
4542 -4609 0
4542 -4556 0
4542 -4555 0
4542 -4673 0
-4542 4609 4556 4555 4673 0
4543 -4609 0
4543 -4608 0
4543 -4674 0
-4543 4609 4608 4674 0
4546 -4552 0
4546 -4672 0
4546 -4690 0
4546 -4689 0
-4546 4552 4672 4690 4689 0
4547 -4552 0
4547 -4672 0
4547 -4567 0
-4547 4552 4672 4567 0
4548 -4568 0
4548 -4428 0
-4548 4568 4428 0
4551 -4609 0
4551 -4608 0
4551 -4674 0
4551 -4673 0
-4551 4609 4608 4674 4673 0
4518 -4736 0
4518 -4520 0
4518 -4524 0
4518 -4626 0
-4518 4736 4520 4524 4626 0
4519 -4525 0
4519 -4736 0
4519 -4621 0
-4519 4525 4736 4621 0
4530 -4736 0
4530 -4694 0
4530 -4532 0
4530 -4626 0
-4530 4736 4694 4532 4626 0
4531 -4533 0
4531 -4736 0
4531 -4629 0
-4531 4533 4736 4629 0
4564 -4736 0
4564 -4566 0
4564 -4569 0
4564 -4574 0
-4564 4736 4566 4569 4574 0
4565 -4623 0
4565 -4736 0
4565 -4691 0
-4565 4623 4736 4691 0
4588 -4571 0
4588 -4535 0
4588 -4534 0
4588 -4510 0
-4588 4571 4535 4534 4510 0
4589 -4491 0
4589 -4468 0
-4589 4491 4468 0
4590 -4491 0
4590 -4700 0
-4590 4491 4700 0
4596 -4505 0
4596 -4535 0
4596 -4534 0
-4596 4505 4535 4534 0
4597 -4509 0
4597 -4481 0
-4597 4509 4481 0
4598 -4491 0
4598 -4481 0
-4598 4491 4481 0
4593 -4723 0
4593 -4491 0
4593 -4510 0
4593 -4486 0
-4593 4723 4491 4510 4486 0
4594 -4604 0
4594 -4489 0
-4594 4604 4489 0
4601 -4491 0
4601 -4700 0
-4601 4491 4700 0
4602 -4571 0
4602 -4700 0
-4602 4571 4700 0
4603 -4535 0
4603 -4534 0
-4603 4535 4534 0
4583 -4571 0
4583 -4535 0
4583 -4534 0
4583 -4510 0
-4583 4571 4535 4534 4510 0
4584 -4505 0
4584 -4509 0
4584 -4700 0
-4584 4505 4509 4700 0
4585 -4509 0
4585 -4510 0
4585 -4511 0
-4585 4509 4510 4511 0
4633 4573 0
4633 4567 0
4633 4568 0
4633 4610 0
-4633 -4573 -4567 -4568 -4610 0
4742 4518 0
4742 4519 0
-4742 -4518 -4519 0
4520 4573 0
4520 4567 0
4520 4568 0
-4520 -4573 -4567 -4568 0
4524 4525 0
4524 4535 0
4524 4571 0
4524 4572 0
-4524 -4525 -4535 -4571 -4572 0
4744 4530 0
4744 4531 0
-4744 -4530 -4531 0
4532 4533 0
4532 4534 0
4532 4535 0
4532 4571 0
-4532 -4533 -4534 -4535 -4571 0
4537 4674 0
4537 4608 0
4537 4614 0
-4537 -4674 -4608 -4614 0
4641 4542 0
4641 4543 0
4641 4549 0
-4641 -4542 -4543 -4549 0
4655 4546 0
4655 4547 0
4655 4548 0
4655 4549 0
-4655 -4546 -4547 -4548 -4549 0
4550 4551 0
4550 4552 0
-4550 -4551 -4552 0
4553 4554 0
4553 4555 0
4553 4556 0
4553 4614 0
-4553 -4554 -4555 -4556 -4614 0
4694 4572 0
4694 4573 0
4694 4567 0
4694 4568 0
-4694 -4572 -4573 -4567 -4568 0
4760 4564 0
4760 4565 0
-4760 -4564 -4565 0
4566 4567 0
4566 4568 0
-4566 -4567 -4568 0
4569 4623 0
4569 4571 0
4569 4572 0
4569 4573 0
-4569 -4623 -4571 -4572 -4573 0
4574 4575 0
4574 4576 0
-4574 -4575 -4576 0
4577 4578 0
4577 4579 0
4577 4580 0
4577 4699 0
-4577 -4578 -4579 -4580 -4699 0
4710 4583 0
4710 4584 0
4710 4585 0
4710 4604 0
-4710 -4583 -4584 -4585 -4604 0
4713 4588 0
4713 4589 0
4713 4590 0
4713 4604 0
-4713 -4588 -4589 -4590 -4604 0
4716 4593 0
4716 4594 0
-4716 -4593 -4594 0
4595 4596 0
4595 4597 0
4595 4598 0
4595 4700 0
-4595 -4596 -4597 -4598 -4700 0
4728 4601 0
4728 4602 0
4728 4603 0
4728 4604 0
-4728 -4601 -4602 -4603 -4604 0
-4605 -4673 0
-4605 -4674 0
-4605 -4608 0
-4605 -4609 0
4605 4673 4674 4608 4609 0
-4610 -4693 0
-4610 -4689 0
4610 4693 4689 0
-4738 -4614 0
-4738 -4736 0
4738 4614 4736 0
-4740 -4617 0
-4740 -4618 0
-4740 -4619 0
-4740 -4736 0
4740 4617 4618 4619 4736 0
-4621 -4622 0
-4621 -4623 0
-4621 -4693 0
-4621 -4694 0
4621 4622 4623 4693 4694 0
-4626 -4627 0
-4626 -4628 0
4626 4627 4628 0
-4629 -4630 0
-4629 -4631 0
-4629 -4632 0
-4629 -4633 0
4629 4630 4631 4632 4633 0
-4746 -4635 0
-4746 -4636 0
-4746 -4637 0
-4746 -4736 0
4746 4635 4636 4637 4736 0
-4748 -4640 0
-4748 -4641 0
4748 4640 4641 0
-4750 -4643 0
-4750 -4644 0
-4750 -4649 0
4750 4643 4644 4649 0
-4646 -4672 0
-4646 -4673 0
4646 4672 4673 0
-4649 -4650 0
-4649 -4651 0
4649 4650 4651 0
-4752 -4653 0
-4752 -4654 0
-4752 -4655 0
4752 4653 4654 4655 0
-4656 -4657 0
-4656 -4658 0
4656 4657 4658 0
-4754 -4660 0
-4754 -4661 0
-4754 -4663 0
4754 4660 4661 4663 0
-4663 -4664 0
-4663 -4665 0
4663 4664 4665 0
-4756 -4667 0
-4756 -4668 0
-4756 -4669 0
-4756 -4679 0
4756 4667 4668 4669 4679 0
-4671 -4672 0
-4671 -4673 0
-4671 -4674 0
4671 4672 4673 4674 0
-4675 -4676 0
-4675 -4677 0
-4675 -4678 0
4675 4676 4677 4678 0
-4679 -4680 0
-4679 -4681 0
4679 4680 4681 0
-4758 -4683 0
-4758 -4684 0
-4758 -4685 0
-4758 -4686 0
4758 4683 4684 4685 4686 0
-4687 -4693 0
-4687 -4689 0
-4687 -4690 0
4687 4693 4689 4690 0
-4691 -4692 0
-4691 -4693 0
-4691 -4694 0
4691 4692 4693 4694 0
-4762 -4696 0
-4762 -4697 0
-4762 -4736 0
4762 4696 4697 4736 0
-4699 -4700 0
-4699 -4701 0
4699 4700 4701 0
-4764 -4703 0
-4764 -4704 0
-4764 -4705 0
-4764 -4723 0
4764 4703 4704 4705 4723 0
-4766 -4708 0
-4766 -4709 0
-4766 -4710 0
4766 4708 4709 4710 0
-4768 -4712 0
-4768 -4713 0
4768 4712 4713 0
-4770 -4715 0
-4770 -4716 0
4770 4715 4716 0
-4717 -4718 0
-4717 -4719 0
4717 4718 4719 0
-4772 -4721 0
-4772 -4722 0
4772 4721 4722 0
-4723 -4724 0
-4723 -4725 0
4723 4724 4725 0
-4774 -4727 0
-4774 -4728 0
4774 4727 4728 0
-4776 -4730 0
-4776 -4731 0
-4776 -4736 0
4776 4730 4731 4736 0
-4778 -4734 0
-4778 -4735 0
-4778 -4736 0
4778 4734 4735 4736 0
-4738 5282 0
4738 -5282 0
-4740 5276 0
4740 -5276 0
-4742 5202 0
4742 -5202 0
-4744 5368 0
4744 -5368 0
-4746 5342 0
4746 -5342 0
-4748 5222 0
4748 -5222 0
-4750 5236 0
4750 -5236 0
-4752 5096 0
4752 -5096 0
-4754 5358 0
4754 -5358 0
-4756 5240 0
4756 -5240 0
-4758 5239 0
4758 -5239 0
-4760 5203 0
4760 -5203 0
-4762 4818 0
4762 -4818 0
-4764 4828 0
4764 -4828 0
-4766 5179 0
4766 -5179 0
-4768 5136 0
4768 -5136 0
-4770 5154 0
4770 -5154 0
-4772 5149 0
4772 -5149 0
-4774 4870 0
4774 -4870 0
-4776 5248 0
4776 -5248 0
-4778 5296 0
4778 -5296 0
5217 5404 0
-5217 -5404 0
5193 5202 0
-5193 -5202 0
5201 5368 0
-5201 -5368 0
5277 5282 0
-5277 -5282 0
5341 5222 0
-5341 -5222 0
5223 5342 0
-5223 -5342 0
5340 5236 0
-5340 -5236 0
5241 5358 0
-5241 -5358 0
5224 5276 0
-5224 -5276 0
5357 5240 0
-5357 -5240 0
5235 5096 0
-5235 -5096 0
5220 5296 0
-5220 -5296 0
5361 5239 0
-5361 -5239 0
5354 5217 0
-5354 -5217 0
5291 5203 0
-5291 -5203 0
5247 5239 0
-5247 -5239 0
5369 5202 0
-5369 -5202 0
5246 5203 0
-5246 -5203 0
5013 5248 0
-5013 -5248 0
5016 4818 0
-5016 -4818 0
4819 4828 0
-4819 -4828 0
4821 5179 0
-4821 -5179 0
5157 5358 0
-5157 -5358 0
5173 5239 0
-5173 -5239 0
5028 4828 0
-5028 -4828 0
5177 5203 0
-5177 -5203 0
5036 5179 0
-5036 -5179 0
5178 5368 0
-5178 -5368 0
5042 5136 0
-5042 -5136 0
5159 5202 0
-5159 -5202 0
5272 5391 0
-5272 -5391 0
5056 4870 0
-5056 -4870 0
4843 5136 0
-4843 -5136 0
4845 5154 0
-4845 -5154 0
5059 5062 0
-5059 -5062 0
5060 5248 0
-5060 -5248 0
4854 4852 0
-4854 -4852 0
5062 4854 0
-5062 -4854 0
5065 5068 0
-5065 -5068 0
5066 5296 0
-5066 -5296 0
4862 4860 0
-4862 -4860 0
5404 4862 0
-5404 -4862 0
4866 4864 0
-4866 -4864 0
5068 4866 0
-5068 -4866 0
4867 5149 0
-4867 -5149 0
4869 4870 0
-4869 -4870 0
-5360 5220 0
-5360 5221 0
5360 -5220 -5221 0
-5295 5282 0
-5295 5224 0
-5295 5223 0
-5295 5222 0
5295 -5282 -5224 -5223 -5222 0
-5290 5220 0
-5290 5221 0
5290 -5220 -5221 0
-5298 5220 0
-5298 5221 0
5298 -5220 -5221 0
-5299 5193 0
-5299 5203 0
5299 -5193 -5203 0
-5300 5202 0
-5300 5291 0
5300 -5202 -5291 0
-5318 5217 0
-5318 5340 0
5318 -5217 -5340 0
-5319 5220 0
-5319 5217 0
5319 -5220 -5217 0
-5325 5235 0
-5325 5357 0
5325 -5235 -5357 0
-5326 5235 0
-5326 5358 0
5326 -5235 -5358 0
-5332 5217 0
-5332 5236 0
-5332 5096 0
5332 -5217 -5236 -5096 0
-5333 5217 0
-5333 5358 0
5333 -5217 -5358 0
-5344 5096 0
-5344 5241 0
5344 -5096 -5241 0
-5345 5235 0
-5345 5358 0
5345 -5235 -5358 0
-5346 5096 0
-5346 5357 0
5346 -5096 -5357 0
-5348 5217 0
-5348 5236 0
-5348 5096 0
-5348 5358 0
5348 -5217 -5236 -5096 -5358 0
-5349 5217 0
-5349 5240 0
5349 -5217 -5240 0
-5285 5282 0
-5285 5223 0
-5285 5222 0
5285 -5282 -5223 -5222 0
-5286 5282 0
-5286 5276 0
5286 -5282 -5276 0
-5287 5277 0
-5287 5224 0
5287 -5277 -5224 0
-5303 5282 0
-5303 5276 0
-5303 5342 0
5303 -5282 -5276 -5342 0
-5304 5277 0
-5304 5223 0
5304 -5277 -5223 0
-5305 5224 0
-5305 5223 0
5305 -5224 -5223 0
-5308 5341 0
-5308 5205 0
5308 -5341 -5205 0
-5311 5223 0
-5311 5224 0
-5311 5282 0
-5311 5314 0
5311 -5223 -5224 -5282 -5314 0
-5312 5340 0
-5312 5220 0
-5312 5221 0
5312 -5340 -5220 -5221 0
-5321 5224 0
-5321 5282 0
-5321 5339 0
-5321 5324 0
5321 -5224 -5282 -5339 -5324 0
-5322 5235 0
-5322 5220 0
-5322 5221 0
5322 -5235 -5220 -5221 0
-5328 5358 0
-5328 5096 0
-5328 5236 0
-5328 5218 0
5328 -5358 -5096 -5236 -5218 0
-5329 5241 0
-5329 5220 0
-5329 5221 0
5329 -5241 -5220 -5221 0
-5335 5224 0
-5335 5282 0
-5335 5339 0
-5335 5343 0
5335 -5224 -5282 -5339 -5343 0
-5336 5357 0
-5336 5220 0
-5336 5221 0
5336 -5357 -5220 -5221 0
-5337 5236 0
-5337 5296 0
-5337 5343 0
5337 -5236 -5296 -5343 0
-5351 5235 0
-5351 5236 0
-5351 5355 0
-5351 5218 0
5351 -5235 -5236 -5355 -5218 0
-5352 5361 0
-5352 5220 0
-5352 5221 0
5352 -5361 -5220 -5221 0
-5353 5361 0
-5353 5362 0
5353 -5361 -5362 0
-5364 5246 0
-5364 5239 0
-5364 5013 0
-5364 5367 0
5364 -5246 -5239 -5013 -5367 0
-5365 5016 0
-5365 5245 0
5365 -5016 -5245 0
-5392 5246 0
-5392 5239 0
-5392 5013 0
-5392 5367 0
5392 -5246 -5239 -5013 -5367 0
-5393 5016 0
-5393 5245 0
5393 -5016 -5245 0
-5386 5203 0
-5386 5368 0
-5386 5154 0
5386 -5203 -5368 -5154 0
-5387 5173 0
-5387 5177 0
-5387 5368 0
5387 -5173 -5177 -5368 0
-5371 5368 0
-5371 5028 0
5371 -5368 -5028 0
-5372 5159 0
-5372 5178 0
5372 -5159 -5178 0
-5373 5177 0
-5373 5159 0
5373 -5177 -5159 0
-5376 5036 0
-5376 5202 0
5376 -5036 -5202 0
-5377 5178 0
-5377 5202 0
5377 -5178 -5202 0
-5380 5042 0
-5380 5368 0
-5380 5203 0
5380 -5042 -5368 -5203 0
-5383 5159 0
-5383 5272 0
-5383 5385 0
5383 -5159 -5272 -5385 0
-5389 5272 0
-5389 5263 0
5389 -5272 -5263 0
-5390 5358 0
-5390 5391 0
5390 -5358 -5391 0
-5395 5056 0
-5395 5368 0
5395 -5056 -5368 0
-5398 5059 0
-5398 5060 0
5398 -5059 -5060 0
-5399 5062 0
-5399 5248 0
5399 -5062 -5248 0
-5402 5065 0
-5402 5066 0
5402 -5065 -5066 0
-5403 5068 0
-5403 5296 0
5403 -5068 -5296 0
5243 -5296 0
5243 -5273 0
-5243 5296 5273 0
5244 -5201 0
5244 -5202 0
-5244 5201 5202 0
5210 -5277 0
5210 -5224 0
5210 -5223 0
5210 -5341 0
-5210 5277 5224 5223 5341 0
5211 -5277 0
5211 -5276 0
5211 -5342 0
-5211 5277 5276 5342 0
5214 -5220 0
5214 -5340 0
5214 -5358 0
5214 -5357 0
-5214 5220 5340 5358 5357 0
5215 -5220 0
5215 -5340 0
5215 -5235 0
-5215 5220 5340 5235 0
5216 -5236 0
5216 -5096 0
-5216 5236 5096 0
5219 -5277 0
5219 -5276 0
5219 -5342 0
5219 -5341 0
-5219 5277 5276 5342 5341 0
5186 -5404 0
5186 -5188 0
5186 -5192 0
5186 -5294 0
-5186 5404 5188 5192 5294 0
5187 -5193 0
5187 -5404 0
5187 -5289 0
-5187 5193 5404 5289 0
5198 -5404 0
5198 -5362 0
5198 -5200 0
5198 -5294 0
-5198 5404 5362 5200 5294 0
5199 -5201 0
5199 -5404 0
5199 -5297 0
-5199 5201 5404 5297 0
5232 -5404 0
5232 -5234 0
5232 -5237 0
5232 -5242 0
-5232 5404 5234 5237 5242 0
5233 -5291 0
5233 -5404 0
5233 -5359 0
-5233 5291 5404 5359 0
5256 -5239 0
5256 -5203 0
5256 -5202 0
5256 -5178 0
-5256 5239 5203 5202 5178 0
5257 -5159 0
5257 -5136 0
-5257 5159 5136 0
5258 -5159 0
5258 -5368 0
-5258 5159 5368 0
5264 -5173 0
5264 -5203 0
5264 -5202 0
-5264 5173 5203 5202 0
5265 -5177 0
5265 -5149 0
-5265 5177 5149 0
5266 -5159 0
5266 -5149 0
-5266 5159 5149 0
5261 -5391 0
5261 -5159 0
5261 -5178 0
5261 -5154 0
-5261 5391 5159 5178 5154 0
5262 -5272 0
5262 -5157 0
-5262 5272 5157 0
5269 -5159 0
5269 -5368 0
-5269 5159 5368 0
5270 -5239 0
5270 -5368 0
-5270 5239 5368 0
5271 -5203 0
5271 -5202 0
-5271 5203 5202 0
5251 -5239 0
5251 -5203 0
5251 -5202 0
5251 -5178 0
-5251 5239 5203 5202 5178 0
5252 -5173 0
5252 -5177 0
5252 -5368 0
-5252 5173 5177 5368 0
5253 -5177 0
5253 -5178 0
5253 -5179 0
-5253 5177 5178 5179 0
5301 5241 0
5301 5235 0
5301 5236 0
5301 5278 0
-5301 -5241 -5235 -5236 -5278 0
5410 5186 0
5410 5187 0
-5410 -5186 -5187 0
5188 5241 0
5188 5235 0
5188 5236 0
-5188 -5241 -5235 -5236 0
5192 5193 0
5192 5203 0
5192 5239 0
5192 5240 0
-5192 -5193 -5203 -5239 -5240 0
5412 5198 0
5412 5199 0
-5412 -5198 -5199 0
5200 5201 0
5200 5202 0
5200 5203 0
5200 5239 0
-5200 -5201 -5202 -5203 -5239 0
5205 5342 0
5205 5276 0
5205 5282 0
-5205 -5342 -5276 -5282 0
5309 5210 0
5309 5211 0
5309 5217 0
-5309 -5210 -5211 -5217 0
5323 5214 0
5323 5215 0
5323 5216 0
5323 5217 0
-5323 -5214 -5215 -5216 -5217 0
5218 5219 0
5218 5220 0
-5218 -5219 -5220 0
5221 5222 0
5221 5223 0
5221 5224 0
5221 5282 0
-5221 -5222 -5223 -5224 -5282 0
5362 5240 0
5362 5241 0
5362 5235 0
5362 5236 0
-5362 -5240 -5241 -5235 -5236 0
5428 5232 0
5428 5233 0
-5428 -5232 -5233 0
5234 5235 0
5234 5236 0
-5234 -5235 -5236 0
5237 5291 0
5237 5239 0
5237 5240 0
5237 5241 0
-5237 -5291 -5239 -5240 -5241 0
5242 5243 0
5242 5244 0
-5242 -5243 -5244 0
5245 5246 0
5245 5247 0
5245 5248 0
5245 5367 0
-5245 -5246 -5247 -5248 -5367 0
5378 5251 0
5378 5252 0
5378 5253 0
5378 5272 0
-5378 -5251 -5252 -5253 -5272 0
5381 5256 0
5381 5257 0
5381 5258 0
5381 5272 0
-5381 -5256 -5257 -5258 -5272 0
5384 5261 0
5384 5262 0
-5384 -5261 -5262 0
5263 5264 0
5263 5265 0
5263 5266 0
5263 5368 0
-5263 -5264 -5265 -5266 -5368 0
5396 5269 0
5396 5270 0
5396 5271 0
5396 5272 0
-5396 -5269 -5270 -5271 -5272 0
-5273 -5341 0
-5273 -5342 0
-5273 -5276 0
-5273 -5277 0
5273 5341 5342 5276 5277 0
-5278 -5361 0
-5278 -5357 0
5278 5361 5357 0
-5406 -5282 0
-5406 -5404 0
5406 5282 5404 0
-5408 -5285 0
-5408 -5286 0
-5408 -5287 0
-5408 -5404 0
5408 5285 5286 5287 5404 0
-5289 -5290 0
-5289 -5291 0
-5289 -5361 0
-5289 -5362 0
5289 5290 5291 5361 5362 0
-5294 -5295 0
-5294 -5296 0
5294 5295 5296 0
-5297 -5298 0
-5297 -5299 0
-5297 -5300 0
-5297 -5301 0
5297 5298 5299 5300 5301 0
-5414 -5303 0
-5414 -5304 0
-5414 -5305 0
-5414 -5404 0
5414 5303 5304 5305 5404 0
-5416 -5308 0
-5416 -5309 0
5416 5308 5309 0
-5418 -5311 0
-5418 -5312 0
-5418 -5317 0
5418 5311 5312 5317 0
-5314 -5340 0
-5314 -5341 0
5314 5340 5341 0
-5317 -5318 0
-5317 -5319 0
5317 5318 5319 0
-5420 -5321 0
-5420 -5322 0
-5420 -5323 0
5420 5321 5322 5323 0
-5324 -5325 0
-5324 -5326 0
5324 5325 5326 0
-5422 -5328 0
-5422 -5329 0
-5422 -5331 0
5422 5328 5329 5331 0
-5331 -5332 0
-5331 -5333 0
5331 5332 5333 0
-5424 -5335 0
-5424 -5336 0
-5424 -5337 0
-5424 -5347 0
5424 5335 5336 5337 5347 0
-5339 -5340 0
-5339 -5341 0
-5339 -5342 0
5339 5340 5341 5342 0
-5343 -5344 0
-5343 -5345 0
-5343 -5346 0
5343 5344 5345 5346 0
-5347 -5348 0
-5347 -5349 0
5347 5348 5349 0
-5426 -5351 0
-5426 -5352 0
-5426 -5353 0
-5426 -5354 0
5426 5351 5352 5353 5354 0
-5355 -5361 0
-5355 -5357 0
-5355 -5358 0
5355 5361 5357 5358 0
-5359 -5360 0
-5359 -5361 0
-5359 -5362 0
5359 5360 5361 5362 0
-5430 -5364 0
-5430 -5365 0
-5430 -5404 0
5430 5364 5365 5404 0
-5367 -5368 0
-5367 -5369 0
5367 5368 5369 0
-5432 -5371 0
-5432 -5372 0
-5432 -5373 0
-5432 -5391 0
5432 5371 5372 5373 5391 0
-5434 -5376 0
-5434 -5377 0
-5434 -5378 0
5434 5376 5377 5378 0
-5436 -5380 0
-5436 -5381 0
5436 5380 5381 0
-5438 -5383 0
-5438 -5384 0
5438 5383 5384 0
-5385 -5386 0
-5385 -5387 0
5385 5386 5387 0
-5440 -5389 0
-5440 -5390 0
5440 5389 5390 0
-5391 -5392 0
-5391 -5393 0
5391 5392 5393 0
-5442 -5395 0
-5442 -5396 0
5442 5395 5396 0
-5444 -5398 0
-5444 -5399 0
-5444 -5404 0
5444 5398 5399 5404 0
-5446 -5402 0
-5446 -5403 0
-5446 -5404 0
5446 5402 5403 5404 0
-5406 5950 0
5406 -5950 0
-5408 5944 0
5408 -5944 0
-5410 5870 0
5410 -5870 0
-5412 6036 0
5412 -6036 0
-5414 6010 0
5414 -6010 0
-5416 5890 0
5416 -5890 0
-5418 5904 0
5418 -5904 0
-5420 5764 0
5420 -5764 0
-5422 6026 0
5422 -6026 0
-5424 5908 0
5424 -5908 0
-5426 5907 0
5426 -5907 0
-5428 5871 0
5428 -5871 0
-5430 5486 0
5430 -5486 0
-5432 5496 0
5432 -5496 0
-5434 5847 0
5434 -5847 0
-5436 5804 0
5436 -5804 0
-5438 5822 0
5438 -5822 0
-5440 5817 0
5440 -5817 0
-5442 5538 0
5442 -5538 0
-5444 5916 0
5444 -5916 0
-5446 5964 0
5446 -5964 0
5885 6072 0
-5885 -6072 0
5861 5870 0
-5861 -5870 0
5869 6036 0
-5869 -6036 0
5945 5950 0
-5945 -5950 0
6009 5890 0
-6009 -5890 0
5891 6010 0
-5891 -6010 0
6008 5904 0
-6008 -5904 0
5909 6026 0
-5909 -6026 0
5892 5944 0
-5892 -5944 0
6025 5908 0
-6025 -5908 0
5903 5764 0
-5903 -5764 0
5888 5964 0
-5888 -5964 0
6029 5907 0
-6029 -5907 0
6022 5885 0
-6022 -5885 0
5959 5871 0
-5959 -5871 0
5915 5907 0
-5915 -5907 0
6037 5870 0
-6037 -5870 0
5914 5871 0
-5914 -5871 0
5681 5916 0
-5681 -5916 0
5684 5486 0
-5684 -5486 0
5487 5496 0
-5487 -5496 0
5489 5847 0
-5489 -5847 0
5825 6026 0
-5825 -6026 0
5841 5907 0
-5841 -5907 0
5696 5496 0
-5696 -5496 0
5845 5871 0
-5845 -5871 0
5704 5847 0
-5704 -5847 0
5846 6036 0
-5846 -6036 0
5710 5804 0
-5710 -5804 0
5827 5870 0
-5827 -5870 0
5940 6059 0
-5940 -6059 0
5724 5538 0
-5724 -5538 0
5511 5804 0
-5511 -5804 0
5513 5822 0
-5513 -5822 0
5727 5730 0
-5727 -5730 0
5728 5916 0
-5728 -5916 0
5522 5520 0
-5522 -5520 0
5730 5522 0
-5730 -5522 0
5733 5736 0
-5733 -5736 0
5734 5964 0
-5734 -5964 0
5530 5528 0
-5530 -5528 0
6072 5530 0
-6072 -5530 0
5534 5532 0
-5534 -5532 0
5736 5534 0
-5736 -5534 0
5535 5817 0
-5535 -5817 0
5537 5538 0
-5537 -5538 0
-6028 5888 0
-6028 5889 0
6028 -5888 -5889 0
-5963 5950 0
-5963 5892 0
-5963 5891 0
-5963 5890 0
5963 -5950 -5892 -5891 -5890 0
-5958 5888 0
-5958 5889 0
5958 -5888 -5889 0
-5966 5888 0
-5966 5889 0
5966 -5888 -5889 0
-5967 5861 0
-5967 5871 0
5967 -5861 -5871 0
-5968 5870 0
-5968 5959 0
5968 -5870 -5959 0
-5986 5885 0
-5986 6008 0
5986 -5885 -6008 0
-5987 5888 0
-5987 5885 0
5987 -5888 -5885 0
-5993 5903 0
-5993 6025 0
5993 -5903 -6025 0
-5994 5903 0
-5994 6026 0
5994 -5903 -6026 0
-6000 5885 0
-6000 5904 0
-6000 5764 0
6000 -5885 -5904 -5764 0
-6001 5885 0
-6001 6026 0
6001 -5885 -6026 0
-6012 5764 0
-6012 5909 0
6012 -5764 -5909 0
-6013 5903 0
-6013 6026 0
6013 -5903 -6026 0
-6014 5764 0
-6014 6025 0
6014 -5764 -6025 0
-6016 5885 0
-6016 5904 0
-6016 5764 0
-6016 6026 0
6016 -5885 -5904 -5764 -6026 0
-6017 5885 0
-6017 5908 0
6017 -5885 -5908 0
-5953 5950 0
-5953 5891 0
-5953 5890 0
5953 -5950 -5891 -5890 0
-5954 5950 0
-5954 5944 0
5954 -5950 -5944 0
-5955 5945 0
-5955 5892 0
5955 -5945 -5892 0
-5971 5950 0
-5971 5944 0
-5971 6010 0
5971 -5950 -5944 -6010 0
-5972 5945 0
-5972 5891 0
5972 -5945 -5891 0
-5973 5892 0
-5973 5891 0
5973 -5892 -5891 0
-5976 6009 0
-5976 5873 0
5976 -6009 -5873 0
-5979 5891 0
-5979 5892 0
-5979 5950 0
-5979 5982 0
5979 -5891 -5892 -5950 -5982 0
-5980 6008 0
-5980 5888 0
-5980 5889 0
5980 -6008 -5888 -5889 0
-5989 5892 0
-5989 5950 0
-5989 6007 0
-5989 5992 0
5989 -5892 -5950 -6007 -5992 0
-5990 5903 0
-5990 5888 0
-5990 5889 0
5990 -5903 -5888 -5889 0
-5996 6026 0
-5996 5764 0
-5996 5904 0
-5996 5886 0
5996 -6026 -5764 -5904 -5886 0
-5997 5909 0
-5997 5888 0
-5997 5889 0
5997 -5909 -5888 -5889 0
-6003 5892 0
-6003 5950 0
-6003 6007 0
-6003 6011 0
6003 -5892 -5950 -6007 -6011 0
-6004 6025 0
-6004 5888 0
-6004 5889 0
6004 -6025 -5888 -5889 0
-6005 5904 0
-6005 5964 0
-6005 6011 0
6005 -5904 -5964 -6011 0
-6019 5903 0
-6019 5904 0
-6019 6023 0
-6019 5886 0
6019 -5903 -5904 -6023 -5886 0
-6020 6029 0
-6020 5888 0
-6020 5889 0
6020 -6029 -5888 -5889 0
-6021 6029 0
-6021 6030 0
6021 -6029 -6030 0
-6032 5914 0
-6032 5907 0
-6032 5681 0
-6032 6035 0
6032 -5914 -5907 -5681 -6035 0
-6033 5684 0
-6033 5913 0
6033 -5684 -5913 0
-6060 5914 0
-6060 5907 0
-6060 5681 0
-6060 6035 0
6060 -5914 -5907 -5681 -6035 0
-6061 5684 0
-6061 5913 0
6061 -5684 -5913 0
-6054 5871 0
-6054 6036 0
-6054 5822 0
6054 -5871 -6036 -5822 0
-6055 5841 0
-6055 5845 0
-6055 6036 0
6055 -5841 -5845 -6036 0
-6039 6036 0
-6039 5696 0
6039 -6036 -5696 0
-6040 5827 0
-6040 5846 0
6040 -5827 -5846 0
-6041 5845 0
-6041 5827 0
6041 -5845 -5827 0
-6044 5704 0
-6044 5870 0
6044 -5704 -5870 0
-6045 5846 0
-6045 5870 0
6045 -5846 -5870 0
-6048 5710 0
-6048 6036 0
-6048 5871 0
6048 -5710 -6036 -5871 0
-6051 5827 0
-6051 5940 0
-6051 6053 0
6051 -5827 -5940 -6053 0
-6057 5940 0
-6057 5931 0
6057 -5940 -5931 0
-6058 6026 0
-6058 6059 0
6058 -6026 -6059 0
-6063 5724 0
-6063 6036 0
6063 -5724 -6036 0
-6066 5727 0
-6066 5728 0
6066 -5727 -5728 0
-6067 5730 0
-6067 5916 0
6067 -5730 -5916 0
-6070 5733 0
-6070 5734 0
6070 -5733 -5734 0
-6071 5736 0
-6071 5964 0
6071 -5736 -5964 0
5911 -5964 0
5911 -5941 0
-5911 5964 5941 0
5912 -5869 0
5912 -5870 0
-5912 5869 5870 0
5878 -5945 0
5878 -5892 0
5878 -5891 0
5878 -6009 0
-5878 5945 5892 5891 6009 0
5879 -5945 0
5879 -5944 0
5879 -6010 0
-5879 5945 5944 6010 0
5882 -5888 0
5882 -6008 0
5882 -6026 0
5882 -6025 0
-5882 5888 6008 6026 6025 0
5883 -5888 0
5883 -6008 0
5883 -5903 0
-5883 5888 6008 5903 0
5884 -5904 0
5884 -5764 0
-5884 5904 5764 0
5887 -5945 0
5887 -5944 0
5887 -6010 0
5887 -6009 0
-5887 5945 5944 6010 6009 0
5854 -6072 0
5854 -5856 0
5854 -5860 0
5854 -5962 0
-5854 6072 5856 5860 5962 0
5855 -5861 0
5855 -6072 0
5855 -5957 0
-5855 5861 6072 5957 0
5866 -6072 0
5866 -6030 0
5866 -5868 0
5866 -5962 0
-5866 6072 6030 5868 5962 0
5867 -5869 0
5867 -6072 0
5867 -5965 0
-5867 5869 6072 5965 0
5900 -6072 0
5900 -5902 0
5900 -5905 0
5900 -5910 0
-5900 6072 5902 5905 5910 0
5901 -5959 0
5901 -6072 0
5901 -6027 0
-5901 5959 6072 6027 0
5924 -5907 0
5924 -5871 0
5924 -5870 0
5924 -5846 0
-5924 5907 5871 5870 5846 0
5925 -5827 0
5925 -5804 0
-5925 5827 5804 0
5926 -5827 0
5926 -6036 0
-5926 5827 6036 0
5932 -5841 0
5932 -5871 0
5932 -5870 0
-5932 5841 5871 5870 0
5933 -5845 0
5933 -5817 0
-5933 5845 5817 0
5934 -5827 0
5934 -5817 0
-5934 5827 5817 0
5929 -6059 0
5929 -5827 0
5929 -5846 0
5929 -5822 0
-5929 6059 5827 5846 5822 0
5930 -5940 0
5930 -5825 0
-5930 5940 5825 0
5937 -5827 0
5937 -6036 0
-5937 5827 6036 0
5938 -5907 0
5938 -6036 0
-5938 5907 6036 0
5939 -5871 0
5939 -5870 0
-5939 5871 5870 0
5919 -5907 0
5919 -5871 0
5919 -5870 0
5919 -5846 0
-5919 5907 5871 5870 5846 0
5920 -5841 0
5920 -5845 0
5920 -6036 0
-5920 5841 5845 6036 0
5921 -5845 0
5921 -5846 0
5921 -5847 0
-5921 5845 5846 5847 0
5969 5909 0
5969 5903 0
5969 5904 0
5969 5946 0
-5969 -5909 -5903 -5904 -5946 0
6078 5854 0
6078 5855 0
-6078 -5854 -5855 0
5856 5909 0
5856 5903 0
5856 5904 0
-5856 -5909 -5903 -5904 0
5860 5861 0
5860 5871 0
5860 5907 0
5860 5908 0
-5860 -5861 -5871 -5907 -5908 0
6080 5866 0
6080 5867 0
-6080 -5866 -5867 0
5868 5869 0
5868 5870 0
5868 5871 0
5868 5907 0
-5868 -5869 -5870 -5871 -5907 0
5873 6010 0
5873 5944 0
5873 5950 0
-5873 -6010 -5944 -5950 0
5977 5878 0
5977 5879 0
5977 5885 0
-5977 -5878 -5879 -5885 0
5991 5882 0
5991 5883 0
5991 5884 0
5991 5885 0
-5991 -5882 -5883 -5884 -5885 0
5886 5887 0
5886 5888 0
-5886 -5887 -5888 0
5889 5890 0
5889 5891 0
5889 5892 0
5889 5950 0
-5889 -5890 -5891 -5892 -5950 0
6030 5908 0
6030 5909 0
6030 5903 0
6030 5904 0
-6030 -5908 -5909 -5903 -5904 0
6096 5900 0
6096 5901 0
-6096 -5900 -5901 0
5902 5903 0
5902 5904 0
-5902 -5903 -5904 0
5905 5959 0
5905 5907 0
5905 5908 0
5905 5909 0
-5905 -5959 -5907 -5908 -5909 0
5910 5911 0
5910 5912 0
-5910 -5911 -5912 0
5913 5914 0
5913 5915 0
5913 5916 0
5913 6035 0
-5913 -5914 -5915 -5916 -6035 0
6046 5919 0
6046 5920 0
6046 5921 0
6046 5940 0
-6046 -5919 -5920 -5921 -5940 0
6049 5924 0
6049 5925 0
6049 5926 0
6049 5940 0
-6049 -5924 -5925 -5926 -5940 0
6052 5929 0
6052 5930 0
-6052 -5929 -5930 0
5931 5932 0
5931 5933 0
5931 5934 0
5931 6036 0
-5931 -5932 -5933 -5934 -6036 0
6064 5937 0
6064 5938 0
6064 5939 0
6064 5940 0
-6064 -5937 -5938 -5939 -5940 0
-5941 -6009 0
-5941 -6010 0
-5941 -5944 0
-5941 -5945 0
5941 6009 6010 5944 5945 0
-5946 -6029 0
-5946 -6025 0
5946 6029 6025 0
-6074 -5950 0
-6074 -6072 0
6074 5950 6072 0
-6076 -5953 0
-6076 -5954 0
-6076 -5955 0
-6076 -6072 0
6076 5953 5954 5955 6072 0
-5957 -5958 0
-5957 -5959 0
-5957 -6029 0
-5957 -6030 0
5957 5958 5959 6029 6030 0
-5962 -5963 0
-5962 -5964 0
5962 5963 5964 0
-5965 -5966 0
-5965 -5967 0
-5965 -5968 0
-5965 -5969 0
5965 5966 5967 5968 5969 0
-6082 -5971 0
-6082 -5972 0
-6082 -5973 0
-6082 -6072 0
6082 5971 5972 5973 6072 0
-6084 -5976 0
-6084 -5977 0
6084 5976 5977 0
-6086 -5979 0
-6086 -5980 0
-6086 -5985 0
6086 5979 5980 5985 0
-5982 -6008 0
-5982 -6009 0
5982 6008 6009 0
-5985 -5986 0
-5985 -5987 0
5985 5986 5987 0
-6088 -5989 0
-6088 -5990 0
-6088 -5991 0
6088 5989 5990 5991 0
-5992 -5993 0
-5992 -5994 0
5992 5993 5994 0
-6090 -5996 0
-6090 -5997 0
-6090 -5999 0
6090 5996 5997 5999 0
-5999 -6000 0
-5999 -6001 0
5999 6000 6001 0
-6092 -6003 0
-6092 -6004 0
-6092 -6005 0
-6092 -6015 0
6092 6003 6004 6005 6015 0
-6007 -6008 0
-6007 -6009 0
-6007 -6010 0
6007 6008 6009 6010 0
-6011 -6012 0
-6011 -6013 0
-6011 -6014 0
6011 6012 6013 6014 0
-6015 -6016 0
-6015 -6017 0
6015 6016 6017 0
-6094 -6019 0
-6094 -6020 0
-6094 -6021 0
-6094 -6022 0
6094 6019 6020 6021 6022 0
-6023 -6029 0
-6023 -6025 0
-6023 -6026 0
6023 6029 6025 6026 0
-6027 -6028 0
-6027 -6029 0
-6027 -6030 0
6027 6028 6029 6030 0
-6098 -6032 0
-6098 -6033 0
-6098 -6072 0
6098 6032 6033 6072 0
-6035 -6036 0
-6035 -6037 0
6035 6036 6037 0
-6100 -6039 0
-6100 -6040 0
-6100 -6041 0
-6100 -6059 0
6100 6039 6040 6041 6059 0
-6102 -6044 0
-6102 -6045 0
-6102 -6046 0
6102 6044 6045 6046 0
-6104 -6048 0
-6104 -6049 0
6104 6048 6049 0
-6106 -6051 0
-6106 -6052 0
6106 6051 6052 0
-6053 -6054 0
-6053 -6055 0
6053 6054 6055 0
-6108 -6057 0
-6108 -6058 0
6108 6057 6058 0
-6059 -6060 0
-6059 -6061 0
6059 6060 6061 0
-6110 -6063 0
-6110 -6064 0
6110 6063 6064 0
-6112 -6066 0
-6112 -6067 0
-6112 -6072 0
6112 6066 6067 6072 0
-6114 -6070 0
-6114 -6071 0
-6114 -6072 0
6114 6070 6071 6072 0
-6074 6618 0
6074 -6618 0
-6076 6612 0
6076 -6612 0
-6078 6538 0
6078 -6538 0
-6080 6704 0
6080 -6704 0
-6082 6678 0
6082 -6678 0
-6084 6558 0
6084 -6558 0
-6086 6572 0
6086 -6572 0
-6088 6432 0
6088 -6432 0
-6090 6694 0
6090 -6694 0
-6092 6576 0
6092 -6576 0
-6094 6575 0
6094 -6575 0
-6096 6539 0
6096 -6539 0
-6098 6154 0
6098 -6154 0
-6100 6164 0
6100 -6164 0
-6102 6515 0
6102 -6515 0
-6104 6472 0
6104 -6472 0
-6106 6490 0
6106 -6490 0
-6108 6485 0
6108 -6485 0
-6110 6206 0
6110 -6206 0
-6112 6584 0
6112 -6584 0
-6114 6632 0
6114 -6632 0
6553 6740 0
-6553 -6740 0
6529 6538 0
-6529 -6538 0
6537 6704 0
-6537 -6704 0
6613 6618 0
-6613 -6618 0
6677 6558 0
-6677 -6558 0
6559 6678 0
-6559 -6678 0
6676 6572 0
-6676 -6572 0
6577 6694 0
-6577 -6694 0
6560 6612 0
-6560 -6612 0
6693 6576 0
-6693 -6576 0
6571 6432 0
-6571 -6432 0
6556 6632 0
-6556 -6632 0
6697 6575 0
-6697 -6575 0
6690 6553 0
-6690 -6553 0
6627 6539 0
-6627 -6539 0
6583 6575 0
-6583 -6575 0
6705 6538 0
-6705 -6538 0
6582 6539 0
-6582 -6539 0
6349 6584 0
-6349 -6584 0
6352 6154 0
-6352 -6154 0
6155 6164 0
-6155 -6164 0
6157 6515 0
-6157 -6515 0
6493 6694 0
-6493 -6694 0
6509 6575 0
-6509 -6575 0
6364 6164 0
-6364 -6164 0
6513 6539 0
-6513 -6539 0
6372 6515 0
-6372 -6515 0
6514 6704 0
-6514 -6704 0
6378 6472 0
-6378 -6472 0
6495 6538 0
-6495 -6538 0
6608 6727 0
-6608 -6727 0
6392 6206 0
-6392 -6206 0
6179 6472 0
-6179 -6472 0
6181 6490 0
-6181 -6490 0
6395 6398 0
-6395 -6398 0
6396 6584 0
-6396 -6584 0
6190 6188 0
-6190 -6188 0
6398 6190 0
-6398 -6190 0
6401 6404 0
-6401 -6404 0
6402 6632 0
-6402 -6632 0
6198 6196 0
-6198 -6196 0
6740 6198 0
-6740 -6198 0
6202 6200 0
-6202 -6200 0
6404 6202 0
-6404 -6202 0
6203 6485 0
-6203 -6485 0
6205 6206 0
-6205 -6206 0
-6696 6556 0
-6696 6557 0
6696 -6556 -6557 0
-6631 6618 0
-6631 6560 0
-6631 6559 0
-6631 6558 0
6631 -6618 -6560 -6559 -6558 0
-6626 6556 0
-6626 6557 0
6626 -6556 -6557 0
-6634 6556 0
-6634 6557 0
6634 -6556 -6557 0
-6635 6529 0
-6635 6539 0
6635 -6529 -6539 0
-6636 6538 0
-6636 6627 0
6636 -6538 -6627 0
-6654 6553 0
-6654 6676 0
6654 -6553 -6676 0
-6655 6556 0
-6655 6553 0
6655 -6556 -6553 0
-6661 6571 0
-6661 6693 0
6661 -6571 -6693 0
-6662 6571 0
-6662 6694 0
6662 -6571 -6694 0
-6668 6553 0
-6668 6572 0
-6668 6432 0
6668 -6553 -6572 -6432 0
-6669 6553 0
-6669 6694 0
6669 -6553 -6694 0
-6680 6432 0
-6680 6577 0
6680 -6432 -6577 0
-6681 6571 0
-6681 6694 0
6681 -6571 -6694 0
-6682 6432 0
-6682 6693 0
6682 -6432 -6693 0
-6684 6553 0
-6684 6572 0
-6684 6432 0
-6684 6694 0
6684 -6553 -6572 -6432 -6694 0
-6685 6553 0
-6685 6576 0
6685 -6553 -6576 0
-6621 6618 0
-6621 6559 0
-6621 6558 0
6621 -6618 -6559 -6558 0
-6622 6618 0
-6622 6612 0
6622 -6618 -6612 0
-6623 6613 0
-6623 6560 0
6623 -6613 -6560 0
-6639 6618 0
-6639 6612 0
-6639 6678 0
6639 -6618 -6612 -6678 0
-6640 6613 0
-6640 6559 0
6640 -6613 -6559 0
-6641 6560 0
-6641 6559 0
6641 -6560 -6559 0
-6644 6677 0
-6644 6541 0
6644 -6677 -6541 0
-6647 6559 0
-6647 6560 0
-6647 6618 0
-6647 6650 0
6647 -6559 -6560 -6618 -6650 0
-6648 6676 0
-6648 6556 0
-6648 6557 0
6648 -6676 -6556 -6557 0
-6657 6560 0
-6657 6618 0
-6657 6675 0
-6657 6660 0
6657 -6560 -6618 -6675 -6660 0
-6658 6571 0
-6658 6556 0
-6658 6557 0
6658 -6571 -6556 -6557 0
-6664 6694 0
-6664 6432 0
-6664 6572 0
-6664 6554 0
6664 -6694 -6432 -6572 -6554 0
-6665 6577 0
-6665 6556 0
-6665 6557 0
6665 -6577 -6556 -6557 0
-6671 6560 0
-6671 6618 0
-6671 6675 0
-6671 6679 0
6671 -6560 -6618 -6675 -6679 0
-6672 6693 0
-6672 6556 0
-6672 6557 0
6672 -6693 -6556 -6557 0
-6673 6572 0
-6673 6632 0
-6673 6679 0
6673 -6572 -6632 -6679 0
-6687 6571 0
-6687 6572 0
-6687 6691 0
-6687 6554 0
6687 -6571 -6572 -6691 -6554 0
-6688 6697 0
-6688 6556 0
-6688 6557 0
6688 -6697 -6556 -6557 0
-6689 6697 0
-6689 6698 0
6689 -6697 -6698 0
-6700 6582 0
-6700 6575 0
-6700 6349 0
-6700 6703 0
6700 -6582 -6575 -6349 -6703 0
-6701 6352 0
-6701 6581 0
6701 -6352 -6581 0
-6728 6582 0
-6728 6575 0
-6728 6349 0
-6728 6703 0
6728 -6582 -6575 -6349 -6703 0
-6729 6352 0
-6729 6581 0
6729 -6352 -6581 0
-6722 6539 0
-6722 6704 0
-6722 6490 0
6722 -6539 -6704 -6490 0
-6723 6509 0
-6723 6513 0
-6723 6704 0
6723 -6509 -6513 -6704 0
-6707 6704 0
-6707 6364 0
6707 -6704 -6364 0
-6708 6495 0
-6708 6514 0
6708 -6495 -6514 0
-6709 6513 0
-6709 6495 0
6709 -6513 -6495 0
-6712 6372 0
-6712 6538 0
6712 -6372 -6538 0
-6713 6514 0
-6713 6538 0
6713 -6514 -6538 0
-6716 6378 0
-6716 6704 0
-6716 6539 0
6716 -6378 -6704 -6539 0
-6719 6495 0
-6719 6608 0
-6719 6721 0
6719 -6495 -6608 -6721 0
-6725 6608 0
-6725 6599 0
6725 -6608 -6599 0
-6726 6694 0
-6726 6727 0
6726 -6694 -6727 0
-6731 6392 0
-6731 6704 0
6731 -6392 -6704 0
-6734 6395 0
-6734 6396 0
6734 -6395 -6396 0
-6735 6398 0
-6735 6584 0
6735 -6398 -6584 0
-6738 6401 0
-6738 6402 0
6738 -6401 -6402 0
-6739 6404 0
-6739 6632 0
6739 -6404 -6632 0
6579 -6632 0
6579 -6609 0
-6579 6632 6609 0
6580 -6537 0
6580 -6538 0
-6580 6537 6538 0
6546 -6613 0
6546 -6560 0
6546 -6559 0
6546 -6677 0
-6546 6613 6560 6559 6677 0
6547 -6613 0
6547 -6612 0
6547 -6678 0
-6547 6613 6612 6678 0
6550 -6556 0
6550 -6676 0
6550 -6694 0
6550 -6693 0
-6550 6556 6676 6694 6693 0
6551 -6556 0
6551 -6676 0
6551 -6571 0
-6551 6556 6676 6571 0
6552 -6572 0
6552 -6432 0
-6552 6572 6432 0
6555 -6613 0
6555 -6612 0
6555 -6678 0
6555 -6677 0
-6555 6613 6612 6678 6677 0
6522 -6740 0
6522 -6524 0
6522 -6528 0
6522 -6630 0
-6522 6740 6524 6528 6630 0
6523 -6529 0
6523 -6740 0
6523 -6625 0
-6523 6529 6740 6625 0
6534 -6740 0
6534 -6698 0
6534 -6536 0
6534 -6630 0
-6534 6740 6698 6536 6630 0
6535 -6537 0
6535 -6740 0
6535 -6633 0
-6535 6537 6740 6633 0
6568 -6740 0
6568 -6570 0
6568 -6573 0
6568 -6578 0
-6568 6740 6570 6573 6578 0
6569 -6627 0
6569 -6740 0
6569 -6695 0
-6569 6627 6740 6695 0
6592 -6575 0
6592 -6539 0
6592 -6538 0
6592 -6514 0
-6592 6575 6539 6538 6514 0
6593 -6495 0
6593 -6472 0
-6593 6495 6472 0
6594 -6495 0
6594 -6704 0
-6594 6495 6704 0
6600 -6509 0
6600 -6539 0
6600 -6538 0
-6600 6509 6539 6538 0
6601 -6513 0
6601 -6485 0
-6601 6513 6485 0
6602 -6495 0
6602 -6485 0
-6602 6495 6485 0
6597 -6727 0
6597 -6495 0
6597 -6514 0
6597 -6490 0
-6597 6727 6495 6514 6490 0
6598 -6608 0
6598 -6493 0
-6598 6608 6493 0
6605 -6495 0
6605 -6704 0
-6605 6495 6704 0
6606 -6575 0
6606 -6704 0
-6606 6575 6704 0
6607 -6539 0
6607 -6538 0
-6607 6539 6538 0
6587 -6575 0
6587 -6539 0
6587 -6538 0
6587 -6514 0
-6587 6575 6539 6538 6514 0
6588 -6509 0
6588 -6513 0
6588 -6704 0
-6588 6509 6513 6704 0
6589 -6513 0
6589 -6514 0
6589 -6515 0
-6589 6513 6514 6515 0
6637 6577 0
6637 6571 0
6637 6572 0
6637 6614 0
-6637 -6577 -6571 -6572 -6614 0
6746 6522 0
6746 6523 0
-6746 -6522 -6523 0
6524 6577 0
6524 6571 0
6524 6572 0
-6524 -6577 -6571 -6572 0
6528 6529 0
6528 6539 0
6528 6575 0
6528 6576 0
-6528 -6529 -6539 -6575 -6576 0
6748 6534 0
6748 6535 0
-6748 -6534 -6535 0
6536 6537 0
6536 6538 0
6536 6539 0
6536 6575 0
-6536 -6537 -6538 -6539 -6575 0
6541 6678 0
6541 6612 0
6541 6618 0
-6541 -6678 -6612 -6618 0
6645 6546 0
6645 6547 0
6645 6553 0
-6645 -6546 -6547 -6553 0
6659 6550 0
6659 6551 0
6659 6552 0
6659 6553 0
-6659 -6550 -6551 -6552 -6553 0
6554 6555 0
6554 6556 0
-6554 -6555 -6556 0
6557 6558 0
6557 6559 0
6557 6560 0
6557 6618 0
-6557 -6558 -6559 -6560 -6618 0
6698 6576 0
6698 6577 0
6698 6571 0
6698 6572 0
-6698 -6576 -6577 -6571 -6572 0
6764 6568 0
6764 6569 0
-6764 -6568 -6569 0
6570 6571 0
6570 6572 0
-6570 -6571 -6572 0
6573 6627 0
6573 6575 0
6573 6576 0
6573 6577 0
-6573 -6627 -6575 -6576 -6577 0
6578 6579 0
6578 6580 0
-6578 -6579 -6580 0
6581 6582 0
6581 6583 0
6581 6584 0
6581 6703 0
-6581 -6582 -6583 -6584 -6703 0
6714 6587 0
6714 6588 0
6714 6589 0
6714 6608 0
-6714 -6587 -6588 -6589 -6608 0
6717 6592 0
6717 6593 0
6717 6594 0
6717 6608 0
-6717 -6592 -6593 -6594 -6608 0
6720 6597 0
6720 6598 0
-6720 -6597 -6598 0
6599 6600 0
6599 6601 0
6599 6602 0
6599 6704 0
-6599 -6600 -6601 -6602 -6704 0
6732 6605 0
6732 6606 0
6732 6607 0
6732 6608 0
-6732 -6605 -6606 -6607 -6608 0
-6609 -6677 0
-6609 -6678 0
-6609 -6612 0
-6609 -6613 0
6609 6677 6678 6612 6613 0
-6614 -6697 0
-6614 -6693 0
6614 6697 6693 0
-6742 -6618 0
-6742 -6740 0
6742 6618 6740 0
-6744 -6621 0
-6744 -6622 0
-6744 -6623 0
-6744 -6740 0
6744 6621 6622 6623 6740 0
-6625 -6626 0
-6625 -6627 0
-6625 -6697 0
-6625 -6698 0
6625 6626 6627 6697 6698 0
-6630 -6631 0
-6630 -6632 0
6630 6631 6632 0
-6633 -6634 0
-6633 -6635 0
-6633 -6636 0
-6633 -6637 0
6633 6634 6635 6636 6637 0
-6750 -6639 0
-6750 -6640 0
-6750 -6641 0
-6750 -6740 0
6750 6639 6640 6641 6740 0
-6752 -6644 0
-6752 -6645 0
6752 6644 6645 0
-6754 -6647 0
-6754 -6648 0
-6754 -6653 0
6754 6647 6648 6653 0
-6650 -6676 0
-6650 -6677 0
6650 6676 6677 0
-6653 -6654 0
-6653 -6655 0
6653 6654 6655 0
-6756 -6657 0
-6756 -6658 0
-6756 -6659 0
6756 6657 6658 6659 0
-6660 -6661 0
-6660 -6662 0
6660 6661 6662 0
-6758 -6664 0
-6758 -6665 0
-6758 -6667 0
6758 6664 6665 6667 0
-6667 -6668 0
-6667 -6669 0
6667 6668 6669 0
-6760 -6671 0
-6760 -6672 0
-6760 -6673 0
-6760 -6683 0
6760 6671 6672 6673 6683 0
-6675 -6676 0
-6675 -6677 0
-6675 -6678 0
6675 6676 6677 6678 0
-6679 -6680 0
-6679 -6681 0
-6679 -6682 0
6679 6680 6681 6682 0
-6683 -6684 0
-6683 -6685 0
6683 6684 6685 0
-6762 -6687 0
-6762 -6688 0
-6762 -6689 0
-6762 -6690 0
6762 6687 6688 6689 6690 0
-6691 -6697 0
-6691 -6693 0
-6691 -6694 0
6691 6697 6693 6694 0
-6695 -6696 0
-6695 -6697 0
-6695 -6698 0
6695 6696 6697 6698 0
-6766 -6700 0
-6766 -6701 0
-6766 -6740 0
6766 6700 6701 6740 0
-6703 -6704 0
-6703 -6705 0
6703 6704 6705 0
-6768 -6707 0
-6768 -6708 0
-6768 -6709 0
-6768 -6727 0
6768 6707 6708 6709 6727 0
-6770 -6712 0
-6770 -6713 0
-6770 -6714 0
6770 6712 6713 6714 0
-6772 -6716 0
-6772 -6717 0
6772 6716 6717 0
-6774 -6719 0
-6774 -6720 0
6774 6719 6720 0
-6721 -6722 0
-6721 -6723 0
6721 6722 6723 0
-6776 -6725 0
-6776 -6726 0
6776 6725 6726 0
-6727 -6728 0
-6727 -6729 0
6727 6728 6729 0
-6778 -6731 0
-6778 -6732 0
6778 6731 6732 0
-6780 -6734 0
-6780 -6735 0
-6780 -6740 0
6780 6734 6735 6740 0
-6782 -6738 0
-6782 -6739 0
-6782 -6740 0
6782 6738 6739 6740 0
-6742 7286 0
6742 -7286 0
-6744 7280 0
6744 -7280 0
-6746 7206 0
6746 -7206 0
-6748 7372 0
6748 -7372 0
-6750 7346 0
6750 -7346 0
-6752 7226 0
6752 -7226 0
-6754 7240 0
6754 -7240 0
-6756 7100 0
6756 -7100 0
-6758 7362 0
6758 -7362 0
-6760 7244 0
6760 -7244 0
-6762 7243 0
6762 -7243 0
-6764 7207 0
6764 -7207 0
-6766 6822 0
6766 -6822 0
-6768 6832 0
6768 -6832 0
-6770 7183 0
6770 -7183 0
-6772 7140 0
6772 -7140 0
-6774 7158 0
6774 -7158 0
-6776 7153 0
6776 -7153 0
-6778 6874 0
6778 -6874 0
-6780 7252 0
6780 -7252 0
-6782 7300 0
6782 -7300 0
7221 7408 0
-7221 -7408 0
7197 7206 0
-7197 -7206 0
7205 7372 0
-7205 -7372 0
7281 7286 0
-7281 -7286 0
7345 7226 0
-7345 -7226 0
7227 7346 0
-7227 -7346 0
7344 7240 0
-7344 -7240 0
7245 7362 0
-7245 -7362 0
7228 7280 0
-7228 -7280 0
7361 7244 0
-7361 -7244 0
7239 7100 0
-7239 -7100 0
7224 7300 0
-7224 -7300 0
7365 7243 0
-7365 -7243 0
7358 7221 0
-7358 -7221 0
7295 7207 0
-7295 -7207 0
7251 7243 0
-7251 -7243 0
7373 7206 0
-7373 -7206 0
7250 7207 0
-7250 -7207 0
7017 7252 0
-7017 -7252 0
7020 6822 0
-7020 -6822 0
6823 6832 0
-6823 -6832 0
6825 7183 0
-6825 -7183 0
7161 7362 0
-7161 -7362 0
7177 7243 0
-7177 -7243 0
7032 6832 0
-7032 -6832 0
7181 7207 0
-7181 -7207 0
7040 7183 0
-7040 -7183 0
7182 7372 0
-7182 -7372 0
7046 7140 0
-7046 -7140 0
7163 7206 0
-7163 -7206 0
7276 7395 0
-7276 -7395 0
7060 6874 0
-7060 -6874 0
6847 7140 0
-6847 -7140 0
6849 7158 0
-6849 -7158 0
7063 7066 0
-7063 -7066 0
7064 7252 0
-7064 -7252 0
6858 6856 0
-6858 -6856 0
7066 6858 0
-7066 -6858 0
7069 7072 0
-7069 -7072 0
7070 7300 0
-7070 -7300 0
6866 6864 0
-6866 -6864 0
7408 6866 0
-7408 -6866 0
6870 6868 0
-6870 -6868 0
7072 6870 0
-7072 -6870 0
6871 7153 0
-6871 -7153 0
6873 6874 0
-6873 -6874 0
-7364 7224 0
-7364 7225 0
7364 -7224 -7225 0
-7299 7286 0
-7299 7228 0
-7299 7227 0
-7299 7226 0
7299 -7286 -7228 -7227 -7226 0
-7294 7224 0
-7294 7225 0
7294 -7224 -7225 0
-7302 7224 0
-7302 7225 0
7302 -7224 -7225 0
-7303 7197 0
-7303 7207 0
7303 -7197 -7207 0
-7304 7206 0
-7304 7295 0
7304 -7206 -7295 0
-7322 7221 0
-7322 7344 0
7322 -7221 -7344 0
-7323 7224 0
-7323 7221 0
7323 -7224 -7221 0
-7329 7239 0
-7329 7361 0
7329 -7239 -7361 0
-7330 7239 0
-7330 7362 0
7330 -7239 -7362 0
-7336 7221 0
-7336 7240 0
-7336 7100 0
7336 -7221 -7240 -7100 0
-7337 7221 0
-7337 7362 0
7337 -7221 -7362 0
-7348 7100 0
-7348 7245 0
7348 -7100 -7245 0
-7349 7239 0
-7349 7362 0
7349 -7239 -7362 0
-7350 7100 0
-7350 7361 0
7350 -7100 -7361 0
-7352 7221 0
-7352 7240 0
-7352 7100 0
-7352 7362 0
7352 -7221 -7240 -7100 -7362 0
-7353 7221 0
-7353 7244 0
7353 -7221 -7244 0
-7289 7286 0
-7289 7227 0
-7289 7226 0
7289 -7286 -7227 -7226 0
-7290 7286 0
-7290 7280 0
7290 -7286 -7280 0
-7291 7281 0
-7291 7228 0
7291 -7281 -7228 0
-7307 7286 0
-7307 7280 0
-7307 7346 0
7307 -7286 -7280 -7346 0
-7308 7281 0
-7308 7227 0
7308 -7281 -7227 0
-7309 7228 0
-7309 7227 0
7309 -7228 -7227 0
-7312 7345 0
-7312 7209 0
7312 -7345 -7209 0
-7315 7227 0
-7315 7228 0
-7315 7286 0
-7315 7318 0
7315 -7227 -7228 -7286 -7318 0
-7316 7344 0
-7316 7224 0
-7316 7225 0
7316 -7344 -7224 -7225 0
-7325 7228 0
-7325 7286 0
-7325 7343 0
-7325 7328 0
7325 -7228 -7286 -7343 -7328 0
-7326 7239 0
-7326 7224 0
-7326 7225 0
7326 -7239 -7224 -7225 0
-7332 7362 0
-7332 7100 0
-7332 7240 0
-7332 7222 0
7332 -7362 -7100 -7240 -7222 0
-7333 7245 0
-7333 7224 0
-7333 7225 0
7333 -7245 -7224 -7225 0
-7339 7228 0
-7339 7286 0
-7339 7343 0
-7339 7347 0
7339 -7228 -7286 -7343 -7347 0
-7340 7361 0
-7340 7224 0
-7340 7225 0
7340 -7361 -7224 -7225 0
-7341 7240 0
-7341 7300 0
-7341 7347 0
7341 -7240 -7300 -7347 0
-7355 7239 0
-7355 7240 0
-7355 7359 0
-7355 7222 0
7355 -7239 -7240 -7359 -7222 0
-7356 7365 0
-7356 7224 0
-7356 7225 0
7356 -7365 -7224 -7225 0
-7357 7365 0
-7357 7366 0
7357 -7365 -7366 0
-7368 7250 0
-7368 7243 0
-7368 7017 0
-7368 7371 0
7368 -7250 -7243 -7017 -7371 0
-7369 7020 0
-7369 7249 0
7369 -7020 -7249 0
-7396 7250 0
-7396 7243 0
-7396 7017 0
-7396 7371 0
7396 -7250 -7243 -7017 -7371 0
-7397 7020 0
-7397 7249 0
7397 -7020 -7249 0
-7390 7207 0
-7390 7372 0
-7390 7158 0
7390 -7207 -7372 -7158 0
-7391 7177 0
-7391 7181 0
-7391 7372 0
7391 -7177 -7181 -7372 0
-7375 7372 0
-7375 7032 0
7375 -7372 -7032 0
-7376 7163 0
-7376 7182 0
7376 -7163 -7182 0
-7377 7181 0
-7377 7163 0
7377 -7181 -7163 0
-7380 7040 0
-7380 7206 0
7380 -7040 -7206 0
-7381 7182 0
-7381 7206 0
7381 -7182 -7206 0
-7384 7046 0
-7384 7372 0
-7384 7207 0
7384 -7046 -7372 -7207 0
-7387 7163 0
-7387 7276 0
-7387 7389 0
7387 -7163 -7276 -7389 0
-7393 7276 0
-7393 7267 0
7393 -7276 -7267 0
-7394 7362 0
-7394 7395 0
7394 -7362 -7395 0
-7399 7060 0
-7399 7372 0
7399 -7060 -7372 0
-7402 7063 0
-7402 7064 0
7402 -7063 -7064 0
-7403 7066 0
-7403 7252 0
7403 -7066 -7252 0
-7406 7069 0
-7406 7070 0
7406 -7069 -7070 0
-7407 7072 0
-7407 7300 0
7407 -7072 -7300 0
7247 -7300 0
7247 -7277 0
-7247 7300 7277 0
7248 -7205 0
7248 -7206 0
-7248 7205 7206 0
7214 -7281 0
7214 -7228 0
7214 -7227 0
7214 -7345 0
-7214 7281 7228 7227 7345 0
7215 -7281 0
7215 -7280 0
7215 -7346 0
-7215 7281 7280 7346 0
7218 -7224 0
7218 -7344 0
7218 -7362 0
7218 -7361 0
-7218 7224 7344 7362 7361 0
7219 -7224 0
7219 -7344 0
7219 -7239 0
-7219 7224 7344 7239 0
7220 -7240 0
7220 -7100 0
-7220 7240 7100 0
7223 -7281 0
7223 -7280 0
7223 -7346 0
7223 -7345 0
-7223 7281 7280 7346 7345 0
7190 -7408 0
7190 -7192 0
7190 -7196 0
7190 -7298 0
-7190 7408 7192 7196 7298 0
7191 -7197 0
7191 -7408 0
7191 -7293 0
-7191 7197 7408 7293 0
7202 -7408 0
7202 -7366 0
7202 -7204 0
7202 -7298 0
-7202 7408 7366 7204 7298 0
7203 -7205 0
7203 -7408 0
7203 -7301 0
-7203 7205 7408 7301 0
7236 -7408 0
7236 -7238 0
7236 -7241 0
7236 -7246 0
-7236 7408 7238 7241 7246 0
7237 -7295 0
7237 -7408 0
7237 -7363 0
-7237 7295 7408 7363 0
7260 -7243 0
7260 -7207 0
7260 -7206 0
7260 -7182 0
-7260 7243 7207 7206 7182 0
7261 -7163 0
7261 -7140 0
-7261 7163 7140 0
7262 -7163 0
7262 -7372 0
-7262 7163 7372 0
7268 -7177 0
7268 -7207 0
7268 -7206 0
-7268 7177 7207 7206 0
7269 -7181 0
7269 -7153 0
-7269 7181 7153 0
7270 -7163 0
7270 -7153 0
-7270 7163 7153 0
7265 -7395 0
7265 -7163 0
7265 -7182 0
7265 -7158 0
-7265 7395 7163 7182 7158 0
7266 -7276 0
7266 -7161 0
-7266 7276 7161 0
7273 -7163 0
7273 -7372 0
-7273 7163 7372 0
7274 -7243 0
7274 -7372 0
-7274 7243 7372 0
7275 -7207 0
7275 -7206 0
-7275 7207 7206 0
7255 -7243 0
7255 -7207 0
7255 -7206 0
7255 -7182 0
-7255 7243 7207 7206 7182 0
7256 -7177 0
7256 -7181 0
7256 -7372 0
-7256 7177 7181 7372 0
7257 -7181 0
7257 -7182 0
7257 -7183 0
-7257 7181 7182 7183 0
7305 7245 0
7305 7239 0
7305 7240 0
7305 7282 0
-7305 -7245 -7239 -7240 -7282 0
7414 7190 0
7414 7191 0
-7414 -7190 -7191 0
7192 7245 0
7192 7239 0
7192 7240 0
-7192 -7245 -7239 -7240 0
7196 7197 0
7196 7207 0
7196 7243 0
7196 7244 0
-7196 -7197 -7207 -7243 -7244 0
7416 7202 0
7416 7203 0
-7416 -7202 -7203 0
7204 7205 0
7204 7206 0
7204 7207 0
7204 7243 0
-7204 -7205 -7206 -7207 -7243 0
7209 7346 0
7209 7280 0
7209 7286 0
-7209 -7346 -7280 -7286 0
7313 7214 0
7313 7215 0
7313 7221 0
-7313 -7214 -7215 -7221 0
7327 7218 0
7327 7219 0
7327 7220 0
7327 7221 0
-7327 -7218 -7219 -7220 -7221 0
7222 7223 0
7222 7224 0
-7222 -7223 -7224 0
7225 7226 0
7225 7227 0
7225 7228 0
7225 7286 0
-7225 -7226 -7227 -7228 -7286 0
7366 7244 0
7366 7245 0
7366 7239 0
7366 7240 0
-7366 -7244 -7245 -7239 -7240 0
7432 7236 0
7432 7237 0
-7432 -7236 -7237 0
7238 7239 0
7238 7240 0
-7238 -7239 -7240 0
7241 7295 0
7241 7243 0
7241 7244 0
7241 7245 0
-7241 -7295 -7243 -7244 -7245 0
7246 7247 0
7246 7248 0
-7246 -7247 -7248 0
7249 7250 0
7249 7251 0
7249 7252 0
7249 7371 0
-7249 -7250 -7251 -7252 -7371 0
7382 7255 0
7382 7256 0
7382 7257 0
7382 7276 0
-7382 -7255 -7256 -7257 -7276 0
7385 7260 0
7385 7261 0
7385 7262 0
7385 7276 0
-7385 -7260 -7261 -7262 -7276 0
7388 7265 0
7388 7266 0
-7388 -7265 -7266 0
7267 7268 0
7267 7269 0
7267 7270 0
7267 7372 0
-7267 -7268 -7269 -7270 -7372 0
7400 7273 0
7400 7274 0
7400 7275 0
7400 7276 0
-7400 -7273 -7274 -7275 -7276 0
-7277 -7345 0
-7277 -7346 0
-7277 -7280 0
-7277 -7281 0
7277 7345 7346 7280 7281 0
-7282 -7365 0
-7282 -7361 0
7282 7365 7361 0
-7410 -7286 0
-7410 -7408 0
7410 7286 7408 0
-7412 -7289 0
-7412 -7290 0
-7412 -7291 0
-7412 -7408 0
7412 7289 7290 7291 7408 0
-7293 -7294 0
-7293 -7295 0
-7293 -7365 0
-7293 -7366 0
7293 7294 7295 7365 7366 0
-7298 -7299 0
-7298 -7300 0
7298 7299 7300 0
-7301 -7302 0
-7301 -7303 0
-7301 -7304 0
-7301 -7305 0
7301 7302 7303 7304 7305 0
-7418 -7307 0
-7418 -7308 0
-7418 -7309 0
-7418 -7408 0
7418 7307 7308 7309 7408 0
-7420 -7312 0
-7420 -7313 0
7420 7312 7313 0
-7422 -7315 0
-7422 -7316 0
-7422 -7321 0
7422 7315 7316 7321 0
-7318 -7344 0
-7318 -7345 0
7318 7344 7345 0
-7321 -7322 0
-7321 -7323 0
7321 7322 7323 0
-7424 -7325 0
-7424 -7326 0
-7424 -7327 0
7424 7325 7326 7327 0
-7328 -7329 0
-7328 -7330 0
7328 7329 7330 0
-7426 -7332 0
-7426 -7333 0
-7426 -7335 0
7426 7332 7333 7335 0
-7335 -7336 0
-7335 -7337 0
7335 7336 7337 0
-7428 -7339 0
-7428 -7340 0
-7428 -7341 0
-7428 -7351 0
7428 7339 7340 7341 7351 0
-7343 -7344 0
-7343 -7345 0
-7343 -7346 0
7343 7344 7345 7346 0
-7347 -7348 0
-7347 -7349 0
-7347 -7350 0
7347 7348 7349 7350 0
-7351 -7352 0
-7351 -7353 0
7351 7352 7353 0
-7430 -7355 0
-7430 -7356 0
-7430 -7357 0
-7430 -7358 0
7430 7355 7356 7357 7358 0
-7359 -7365 0
-7359 -7361 0
-7359 -7362 0
7359 7365 7361 7362 0
-7363 -7364 0
-7363 -7365 0
-7363 -7366 0
7363 7364 7365 7366 0
-7434 -7368 0
-7434 -7369 0
-7434 -7408 0
7434 7368 7369 7408 0
-7371 -7372 0
-7371 -7373 0
7371 7372 7373 0
-7436 -7375 0
-7436 -7376 0
-7436 -7377 0
-7436 -7395 0
7436 7375 7376 7377 7395 0
-7438 -7380 0
-7438 -7381 0
-7438 -7382 0
7438 7380 7381 7382 0
-7440 -7384 0
-7440 -7385 0
7440 7384 7385 0
-7442 -7387 0
-7442 -7388 0
7442 7387 7388 0
-7389 -7390 0
-7389 -7391 0
7389 7390 7391 0
-7444 -7393 0
-7444 -7394 0
7444 7393 7394 0
-7395 -7396 0
-7395 -7397 0
7395 7396 7397 0
-7446 -7399 0
-7446 -7400 0
7446 7399 7400 0
-7448 -7402 0
-7448 -7403 0
-7448 -7408 0
7448 7402 7403 7408 0
-7450 -7406 0
-7450 -7407 0
-7450 -7408 0
7450 7406 7407 7408 0
-7410 7954 0
7410 -7954 0
-7412 7948 0
7412 -7948 0
-7414 7874 0
7414 -7874 0
-7416 8040 0
7416 -8040 0
-7418 8014 0
7418 -8014 0
-7420 7894 0
7420 -7894 0
-7422 7908 0
7422 -7908 0
-7424 7768 0
7424 -7768 0
-7426 8030 0
7426 -8030 0
-7428 7912 0
7428 -7912 0
-7430 7911 0
7430 -7911 0
-7432 7875 0
7432 -7875 0
-7434 7490 0
7434 -7490 0
-7436 7500 0
7436 -7500 0
-7438 7851 0
7438 -7851 0
-7440 7808 0
7440 -7808 0
-7442 7826 0
7442 -7826 0
-7444 7821 0
7444 -7821 0
-7446 7542 0
7446 -7542 0
-7448 7920 0
7448 -7920 0
-7450 7968 0
7450 -7968 0
7889 8076 0
-7889 -8076 0
7865 7874 0
-7865 -7874 0
7873 8040 0
-7873 -8040 0
7949 7954 0
-7949 -7954 0
8013 7894 0
-8013 -7894 0
7895 8014 0
-7895 -8014 0
8012 7908 0
-8012 -7908 0
7913 8030 0
-7913 -8030 0
7896 7948 0
-7896 -7948 0
8029 7912 0
-8029 -7912 0
7907 7768 0
-7907 -7768 0
7892 7968 0
-7892 -7968 0
8033 7911 0
-8033 -7911 0
8026 7889 0
-8026 -7889 0
7963 7875 0
-7963 -7875 0
7919 7911 0
-7919 -7911 0
8041 7874 0
-8041 -7874 0
7918 7875 0
-7918 -7875 0
7685 7920 0
-7685 -7920 0
7688 7490 0
-7688 -7490 0
7491 7500 0
-7491 -7500 0
7493 7851 0
-7493 -7851 0
7829 8030 0
-7829 -8030 0
7845 7911 0
-7845 -7911 0
7700 7500 0
-7700 -7500 0
7849 7875 0
-7849 -7875 0
7708 7851 0
-7708 -7851 0
7850 8040 0
-7850 -8040 0
7714 7808 0
-7714 -7808 0
7831 7874 0
-7831 -7874 0
7944 8063 0
-7944 -8063 0
7728 7542 0
-7728 -7542 0
7515 7808 0
-7515 -7808 0
7517 7826 0
-7517 -7826 0
7731 7734 0
-7731 -7734 0
7732 7920 0
-7732 -7920 0
7526 7524 0
-7526 -7524 0
7734 7526 0
-7734 -7526 0
7737 7740 0
-7737 -7740 0
7738 7968 0
-7738 -7968 0
7534 7532 0
-7534 -7532 0
8076 7534 0
-8076 -7534 0
7538 7536 0
-7538 -7536 0
7740 7538 0
-7740 -7538 0
7539 7821 0
-7539 -7821 0
7541 7542 0
-7541 -7542 0
-8032 7892 0
-8032 7893 0
8032 -7892 -7893 0
-7967 7954 0
-7967 7896 0
-7967 7895 0
-7967 7894 0
7967 -7954 -7896 -7895 -7894 0
-7962 7892 0
-7962 7893 0
7962 -7892 -7893 0
-7970 7892 0
-7970 7893 0
7970 -7892 -7893 0
-7971 7865 0
-7971 7875 0
7971 -7865 -7875 0
-7972 7874 0
-7972 7963 0
7972 -7874 -7963 0
-7990 7889 0
-7990 8012 0
7990 -7889 -8012 0
-7991 7892 0
-7991 7889 0
7991 -7892 -7889 0
-7997 7907 0
-7997 8029 0
7997 -7907 -8029 0
-7998 7907 0
-7998 8030 0
7998 -7907 -8030 0
-8004 7889 0
-8004 7908 0
-8004 7768 0
8004 -7889 -7908 -7768 0
-8005 7889 0
-8005 8030 0
8005 -7889 -8030 0
-8016 7768 0
-8016 7913 0
8016 -7768 -7913 0
-8017 7907 0
-8017 8030 0
8017 -7907 -8030 0
-8018 7768 0
-8018 8029 0
8018 -7768 -8029 0
-8020 7889 0
-8020 7908 0
-8020 7768 0
-8020 8030 0
8020 -7889 -7908 -7768 -8030 0
-8021 7889 0
-8021 7912 0
8021 -7889 -7912 0
-7957 7954 0
-7957 7895 0
-7957 7894 0
7957 -7954 -7895 -7894 0
-7958 7954 0
-7958 7948 0
7958 -7954 -7948 0
-7959 7949 0
-7959 7896 0
7959 -7949 -7896 0
-7975 7954 0
-7975 7948 0
-7975 8014 0
7975 -7954 -7948 -8014 0
-7976 7949 0
-7976 7895 0
7976 -7949 -7895 0
-7977 7896 0
-7977 7895 0
7977 -7896 -7895 0
-7980 8013 0
-7980 7877 0
7980 -8013 -7877 0
-7983 7895 0
-7983 7896 0
-7983 7954 0
-7983 7986 0
7983 -7895 -7896 -7954 -7986 0
-7984 8012 0
-7984 7892 0
-7984 7893 0
7984 -8012 -7892 -7893 0
-7993 7896 0
-7993 7954 0
-7993 8011 0
-7993 7996 0
7993 -7896 -7954 -8011 -7996 0
-7994 7907 0
-7994 7892 0
-7994 7893 0
7994 -7907 -7892 -7893 0
-8000 8030 0
-8000 7768 0
-8000 7908 0
-8000 7890 0
8000 -8030 -7768 -7908 -7890 0
-8001 7913 0
-8001 7892 0
-8001 7893 0
8001 -7913 -7892 -7893 0
-8007 7896 0
-8007 7954 0
-8007 8011 0
-8007 8015 0
8007 -7896 -7954 -8011 -8015 0
-8008 8029 0
-8008 7892 0
-8008 7893 0
8008 -8029 -7892 -7893 0
-8009 7908 0
-8009 7968 0
-8009 8015 0
8009 -7908 -7968 -8015 0
-8023 7907 0
-8023 7908 0
-8023 8027 0
-8023 7890 0
8023 -7907 -7908 -8027 -7890 0
-8024 8033 0
-8024 7892 0
-8024 7893 0
8024 -8033 -7892 -7893 0
-8025 8033 0
-8025 8034 0
8025 -8033 -8034 0
-8036 7918 0
-8036 7911 0
-8036 7685 0
-8036 8039 0
8036 -7918 -7911 -7685 -8039 0
-8037 7688 0
-8037 7917 0
8037 -7688 -7917 0
-8064 7918 0
-8064 7911 0
-8064 7685 0
-8064 8039 0
8064 -7918 -7911 -7685 -8039 0
-8065 7688 0
-8065 7917 0
8065 -7688 -7917 0
-8058 7875 0
-8058 8040 0
-8058 7826 0
8058 -7875 -8040 -7826 0
-8059 7845 0
-8059 7849 0
-8059 8040 0
8059 -7845 -7849 -8040 0
-8043 8040 0
-8043 7700 0
8043 -8040 -7700 0
-8044 7831 0
-8044 7850 0
8044 -7831 -7850 0
-8045 7849 0
-8045 7831 0
8045 -7849 -7831 0
-8048 7708 0
-8048 7874 0
8048 -7708 -7874 0
-8049 7850 0
-8049 7874 0
8049 -7850 -7874 0
-8052 7714 0
-8052 8040 0
-8052 7875 0
8052 -7714 -8040 -7875 0
-8055 7831 0
-8055 7944 0
-8055 8057 0
8055 -7831 -7944 -8057 0
-8061 7944 0
-8061 7935 0
8061 -7944 -7935 0
-8062 8030 0
-8062 8063 0
8062 -8030 -8063 0
-8067 7728 0
-8067 8040 0
8067 -7728 -8040 0
-8070 7731 0
-8070 7732 0
8070 -7731 -7732 0
-8071 7734 0
-8071 7920 0
8071 -7734 -7920 0
-8074 7737 0
-8074 7738 0
8074 -7737 -7738 0
-8075 7740 0
-8075 7968 0
8075 -7740 -7968 0
7915 -7968 0
7915 -7945 0
-7915 7968 7945 0
7916 -7873 0
7916 -7874 0
-7916 7873 7874 0
7882 -7949 0
7882 -7896 0
7882 -7895 0
7882 -8013 0
-7882 7949 7896 7895 8013 0
7883 -7949 0
7883 -7948 0
7883 -8014 0
-7883 7949 7948 8014 0
7886 -7892 0
7886 -8012 0
7886 -8030 0
7886 -8029 0
-7886 7892 8012 8030 8029 0
7887 -7892 0
7887 -8012 0
7887 -7907 0
-7887 7892 8012 7907 0
7888 -7908 0
7888 -7768 0
-7888 7908 7768 0
7891 -7949 0
7891 -7948 0
7891 -8014 0
7891 -8013 0
-7891 7949 7948 8014 8013 0
7858 -8076 0
7858 -7860 0
7858 -7864 0
7858 -7966 0
-7858 8076 7860 7864 7966 0
7859 -7865 0
7859 -8076 0
7859 -7961 0
-7859 7865 8076 7961 0
7870 -8076 0
7870 -8034 0
7870 -7872 0
7870 -7966 0
-7870 8076 8034 7872 7966 0
7871 -7873 0
7871 -8076 0
7871 -7969 0
-7871 7873 8076 7969 0
7904 -8076 0
7904 -7906 0
7904 -7909 0
7904 -7914 0
-7904 8076 7906 7909 7914 0
7905 -7963 0
7905 -8076 0
7905 -8031 0
-7905 7963 8076 8031 0
7928 -7911 0
7928 -7875 0
7928 -7874 0
7928 -7850 0
-7928 7911 7875 7874 7850 0
7929 -7831 0
7929 -7808 0
-7929 7831 7808 0
7930 -7831 0
7930 -8040 0
-7930 7831 8040 0
7936 -7845 0
7936 -7875 0
7936 -7874 0
-7936 7845 7875 7874 0
7937 -7849 0
7937 -7821 0
-7937 7849 7821 0
7938 -7831 0
7938 -7821 0
-7938 7831 7821 0
7933 -8063 0
7933 -7831 0
7933 -7850 0
7933 -7826 0
-7933 8063 7831 7850 7826 0
7934 -7944 0
7934 -7829 0
-7934 7944 7829 0
7941 -7831 0
7941 -8040 0
-7941 7831 8040 0
7942 -7911 0
7942 -8040 0
-7942 7911 8040 0
7943 -7875 0
7943 -7874 0
-7943 7875 7874 0
7923 -7911 0
7923 -7875 0
7923 -7874 0
7923 -7850 0
-7923 7911 7875 7874 7850 0
7924 -7845 0
7924 -7849 0
7924 -8040 0
-7924 7845 7849 8040 0
7925 -7849 0
7925 -7850 0
7925 -7851 0
-7925 7849 7850 7851 0
7973 7913 0
7973 7907 0
7973 7908 0
7973 7950 0
-7973 -7913 -7907 -7908 -7950 0
8082 7858 0
8082 7859 0
-8082 -7858 -7859 0
7860 7913 0
7860 7907 0
7860 7908 0
-7860 -7913 -7907 -7908 0
7864 7865 0
7864 7875 0
7864 7911 0
7864 7912 0
-7864 -7865 -7875 -7911 -7912 0
8084 7870 0
8084 7871 0
-8084 -7870 -7871 0
7872 7873 0
7872 7874 0
7872 7875 0
7872 7911 0
-7872 -7873 -7874 -7875 -7911 0
7877 8014 0
7877 7948 0
7877 7954 0
-7877 -8014 -7948 -7954 0
7981 7882 0
7981 7883 0
7981 7889 0
-7981 -7882 -7883 -7889 0
7995 7886 0
7995 7887 0
7995 7888 0
7995 7889 0
-7995 -7886 -7887 -7888 -7889 0
7890 7891 0
7890 7892 0
-7890 -7891 -7892 0
7893 7894 0
7893 7895 0
7893 7896 0
7893 7954 0
-7893 -7894 -7895 -7896 -7954 0
8034 7912 0
8034 7913 0
8034 7907 0
8034 7908 0
-8034 -7912 -7913 -7907 -7908 0
8100 7904 0
8100 7905 0
-8100 -7904 -7905 0
7906 7907 0
7906 7908 0
-7906 -7907 -7908 0
7909 7963 0
7909 7911 0
7909 7912 0
7909 7913 0
-7909 -7963 -7911 -7912 -7913 0
7914 7915 0
7914 7916 0
-7914 -7915 -7916 0
7917 7918 0
7917 7919 0
7917 7920 0
7917 8039 0
-7917 -7918 -7919 -7920 -8039 0
8050 7923 0
8050 7924 0
8050 7925 0
8050 7944 0
-8050 -7923 -7924 -7925 -7944 0
8053 7928 0
8053 7929 0
8053 7930 0
8053 7944 0
-8053 -7928 -7929 -7930 -7944 0
8056 7933 0
8056 7934 0
-8056 -7933 -7934 0
7935 7936 0
7935 7937 0
7935 7938 0
7935 8040 0
-7935 -7936 -7937 -7938 -8040 0
8068 7941 0
8068 7942 0
8068 7943 0
8068 7944 0
-8068 -7941 -7942 -7943 -7944 0
-7945 -8013 0
-7945 -8014 0
-7945 -7948 0
-7945 -7949 0
7945 8013 8014 7948 7949 0
-7950 -8033 0
-7950 -8029 0
7950 8033 8029 0
-8078 -7954 0
-8078 -8076 0
8078 7954 8076 0
-8080 -7957 0
-8080 -7958 0
-8080 -7959 0
-8080 -8076 0
8080 7957 7958 7959 8076 0
-7961 -7962 0
-7961 -7963 0
-7961 -8033 0
-7961 -8034 0
7961 7962 7963 8033 8034 0
-7966 -7967 0
-7966 -7968 0
7966 7967 7968 0
-7969 -7970 0
-7969 -7971 0
-7969 -7972 0
-7969 -7973 0
7969 7970 7971 7972 7973 0
-8086 -7975 0
-8086 -7976 0
-8086 -7977 0
-8086 -8076 0
8086 7975 7976 7977 8076 0
-8088 -7980 0
-8088 -7981 0
8088 7980 7981 0
-8090 -7983 0
-8090 -7984 0
-8090 -7989 0
8090 7983 7984 7989 0
-7986 -8012 0
-7986 -8013 0
7986 8012 8013 0
-7989 -7990 0
-7989 -7991 0
7989 7990 7991 0
-8092 -7993 0
-8092 -7994 0
-8092 -7995 0
8092 7993 7994 7995 0
-7996 -7997 0
-7996 -7998 0
7996 7997 7998 0
-8094 -8000 0
-8094 -8001 0
-8094 -8003 0
8094 8000 8001 8003 0
-8003 -8004 0
-8003 -8005 0
8003 8004 8005 0
-8096 -8007 0
-8096 -8008 0
-8096 -8009 0
-8096 -8019 0
8096 8007 8008 8009 8019 0
-8011 -8012 0
-8011 -8013 0
-8011 -8014 0
8011 8012 8013 8014 0
-8015 -8016 0
-8015 -8017 0
-8015 -8018 0
8015 8016 8017 8018 0
-8019 -8020 0
-8019 -8021 0
8019 8020 8021 0
-8098 -8023 0
-8098 -8024 0
-8098 -8025 0
-8098 -8026 0
8098 8023 8024 8025 8026 0
-8027 -8033 0
-8027 -8029 0
-8027 -8030 0
8027 8033 8029 8030 0
-8031 -8032 0
-8031 -8033 0
-8031 -8034 0
8031 8032 8033 8034 0
-8102 -8036 0
-8102 -8037 0
-8102 -8076 0
8102 8036 8037 8076 0
-8039 -8040 0
-8039 -8041 0
8039 8040 8041 0
-8104 -8043 0
-8104 -8044 0
-8104 -8045 0
-8104 -8063 0
8104 8043 8044 8045 8063 0
-8106 -8048 0
-8106 -8049 0
-8106 -8050 0
8106 8048 8049 8050 0
-8108 -8052 0
-8108 -8053 0
8108 8052 8053 0
-8110 -8055 0
-8110 -8056 0
8110 8055 8056 0
-8057 -8058 0
-8057 -8059 0
8057 8058 8059 0
-8112 -8061 0
-8112 -8062 0
8112 8061 8062 0
-8063 -8064 0
-8063 -8065 0
8063 8064 8065 0
-8114 -8067 0
-8114 -8068 0
8114 8067 8068 0
-8116 -8070 0
-8116 -8071 0
-8116 -8076 0
8116 8070 8071 8076 0
-8118 -8074 0
-8118 -8075 0
-8118 -8076 0
8118 8074 8075 8076 0
-8078 8622 0
8078 -8622 0
-8080 8616 0
8080 -8616 0
-8082 8542 0
8082 -8542 0
-8084 8708 0
8084 -8708 0
-8086 8682 0
8086 -8682 0
-8088 8562 0
8088 -8562 0
-8090 8576 0
8090 -8576 0
-8092 8436 0
8092 -8436 0
-8094 8698 0
8094 -8698 0
-8096 8580 0
8096 -8580 0
-8098 8579 0
8098 -8579 0
-8100 8543 0
8100 -8543 0
-8102 8158 0
8102 -8158 0
-8104 8168 0
8104 -8168 0
-8106 8519 0
8106 -8519 0
-8108 8476 0
8108 -8476 0
-8110 8494 0
8110 -8494 0
-8112 8489 0
8112 -8489 0
-8114 8210 0
8114 -8210 0
-8116 8588 0
8116 -8588 0
-8118 8636 0
8118 -8636 0
8557 8744 0
-8557 -8744 0
8533 8542 0
-8533 -8542 0
8541 8708 0
-8541 -8708 0
8617 8622 0
-8617 -8622 0
8681 8562 0
-8681 -8562 0
8563 8682 0
-8563 -8682 0
8680 8576 0
-8680 -8576 0
8581 8698 0
-8581 -8698 0
8564 8616 0
-8564 -8616 0
8697 8580 0
-8697 -8580 0
8575 8436 0
-8575 -8436 0
8560 8636 0
-8560 -8636 0
8701 8579 0
-8701 -8579 0
8694 8557 0
-8694 -8557 0
8631 8543 0
-8631 -8543 0
8587 8579 0
-8587 -8579 0
8709 8542 0
-8709 -8542 0
8586 8543 0
-8586 -8543 0
8353 8588 0
-8353 -8588 0
8356 8158 0
-8356 -8158 0
8159 8168 0
-8159 -8168 0
8161 8519 0
-8161 -8519 0
8497 8698 0
-8497 -8698 0
8513 8579 0
-8513 -8579 0
8368 8168 0
-8368 -8168 0
8517 8543 0
-8517 -8543 0
8376 8519 0
-8376 -8519 0
8518 8708 0
-8518 -8708 0
8382 8476 0
-8382 -8476 0
8499 8542 0
-8499 -8542 0
8612 8731 0
-8612 -8731 0
8396 8210 0
-8396 -8210 0
8183 8476 0
-8183 -8476 0
8185 8494 0
-8185 -8494 0
8399 8402 0
-8399 -8402 0
8400 8588 0
-8400 -8588 0
8194 8192 0
-8194 -8192 0
8402 8194 0
-8402 -8194 0
8405 8408 0
-8405 -8408 0
8406 8636 0
-8406 -8636 0
8202 8200 0
-8202 -8200 0
8744 8202 0
-8744 -8202 0
8206 8204 0
-8206 -8204 0
8408 8206 0
-8408 -8206 0
8207 8489 0
-8207 -8489 0
8209 8210 0
-8209 -8210 0
-8700 8560 0
-8700 8561 0
8700 -8560 -8561 0
-8635 8622 0
-8635 8564 0
-8635 8563 0
-8635 8562 0
8635 -8622 -8564 -8563 -8562 0
-8630 8560 0
-8630 8561 0
8630 -8560 -8561 0
-8638 8560 0
-8638 8561 0
8638 -8560 -8561 0
-8639 8533 0
-8639 8543 0
8639 -8533 -8543 0
-8640 8542 0
-8640 8631 0
8640 -8542 -8631 0
-8658 8557 0
-8658 8680 0
8658 -8557 -8680 0
-8659 8560 0
-8659 8557 0
8659 -8560 -8557 0
-8665 8575 0
-8665 8697 0
8665 -8575 -8697 0
-8666 8575 0
-8666 8698 0
8666 -8575 -8698 0
-8672 8557 0
-8672 8576 0
-8672 8436 0
8672 -8557 -8576 -8436 0
-8673 8557 0
-8673 8698 0
8673 -8557 -8698 0
-8684 8436 0
-8684 8581 0
8684 -8436 -8581 0
-8685 8575 0
-8685 8698 0
8685 -8575 -8698 0
-8686 8436 0
-8686 8697 0
8686 -8436 -8697 0
-8688 8557 0
-8688 8576 0
-8688 8436 0
-8688 8698 0
8688 -8557 -8576 -8436 -8698 0
-8689 8557 0
-8689 8580 0
8689 -8557 -8580 0
-8625 8622 0
-8625 8563 0
-8625 8562 0
8625 -8622 -8563 -8562 0
-8626 8622 0
-8626 8616 0
8626 -8622 -8616 0
-8627 8617 0
-8627 8564 0
8627 -8617 -8564 0
-8643 8622 0
-8643 8616 0
-8643 8682 0
8643 -8622 -8616 -8682 0
-8644 8617 0
-8644 8563 0
8644 -8617 -8563 0
-8645 8564 0
-8645 8563 0
8645 -8564 -8563 0
-8648 8681 0
-8648 8545 0
8648 -8681 -8545 0
-8651 8563 0
-8651 8564 0
-8651 8622 0
-8651 8654 0
8651 -8563 -8564 -8622 -8654 0
-8652 8680 0
-8652 8560 0
-8652 8561 0
8652 -8680 -8560 -8561 0
-8661 8564 0
-8661 8622 0
-8661 8679 0
-8661 8664 0
8661 -8564 -8622 -8679 -8664 0
-8662 8575 0
-8662 8560 0
-8662 8561 0
8662 -8575 -8560 -8561 0
-8668 8698 0
-8668 8436 0
-8668 8576 0
-8668 8558 0
8668 -8698 -8436 -8576 -8558 0
-8669 8581 0
-8669 8560 0
-8669 8561 0
8669 -8581 -8560 -8561 0
-8675 8564 0
-8675 8622 0
-8675 8679 0
-8675 8683 0
8675 -8564 -8622 -8679 -8683 0
-8676 8697 0
-8676 8560 0
-8676 8561 0
8676 -8697 -8560 -8561 0
-8677 8576 0
-8677 8636 0
-8677 8683 0
8677 -8576 -8636 -8683 0
-8691 8575 0
-8691 8576 0
-8691 8695 0
-8691 8558 0
8691 -8575 -8576 -8695 -8558 0
-8692 8701 0
-8692 8560 0
-8692 8561 0
8692 -8701 -8560 -8561 0
-8693 8701 0
-8693 8702 0
8693 -8701 -8702 0
-8704 8586 0
-8704 8579 0
-8704 8353 0
-8704 8707 0
8704 -8586 -8579 -8353 -8707 0
-8705 8356 0
-8705 8585 0
8705 -8356 -8585 0
-8732 8586 0
-8732 8579 0
-8732 8353 0
-8732 8707 0
8732 -8586 -8579 -8353 -8707 0
-8733 8356 0
-8733 8585 0
8733 -8356 -8585 0
-8726 8543 0
-8726 8708 0
-8726 8494 0
8726 -8543 -8708 -8494 0
-8727 8513 0
-8727 8517 0
-8727 8708 0
8727 -8513 -8517 -8708 0
-8711 8708 0
-8711 8368 0
8711 -8708 -8368 0
-8712 8499 0
-8712 8518 0
8712 -8499 -8518 0
-8713 8517 0
-8713 8499 0
8713 -8517 -8499 0
-8716 8376 0
-8716 8542 0
8716 -8376 -8542 0
-8717 8518 0
-8717 8542 0
8717 -8518 -8542 0
-8720 8382 0
-8720 8708 0
-8720 8543 0
8720 -8382 -8708 -8543 0
-8723 8499 0
-8723 8612 0
-8723 8725 0
8723 -8499 -8612 -8725 0
-8729 8612 0
-8729 8603 0
8729 -8612 -8603 0
-8730 8698 0
-8730 8731 0
8730 -8698 -8731 0
-8735 8396 0
-8735 8708 0
8735 -8396 -8708 0
-8738 8399 0
-8738 8400 0
8738 -8399 -8400 0
-8739 8402 0
-8739 8588 0
8739 -8402 -8588 0
-8742 8405 0
-8742 8406 0
8742 -8405 -8406 0
-8743 8408 0
-8743 8636 0
8743 -8408 -8636 0
8583 -8636 0
8583 -8613 0
-8583 8636 8613 0
8584 -8541 0
8584 -8542 0
-8584 8541 8542 0
8550 -8617 0
8550 -8564 0
8550 -8563 0
8550 -8681 0
-8550 8617 8564 8563 8681 0
8551 -8617 0
8551 -8616 0
8551 -8682 0
-8551 8617 8616 8682 0
8554 -8560 0
8554 -8680 0
8554 -8698 0
8554 -8697 0
-8554 8560 8680 8698 8697 0
8555 -8560 0
8555 -8680 0
8555 -8575 0
-8555 8560 8680 8575 0
8556 -8576 0
8556 -8436 0
-8556 8576 8436 0
8559 -8617 0
8559 -8616 0
8559 -8682 0
8559 -8681 0
-8559 8617 8616 8682 8681 0
8526 -8744 0
8526 -8528 0
8526 -8532 0
8526 -8634 0
-8526 8744 8528 8532 8634 0
8527 -8533 0
8527 -8744 0
8527 -8629 0
-8527 8533 8744 8629 0
8538 -8744 0
8538 -8702 0
8538 -8540 0
8538 -8634 0
-8538 8744 8702 8540 8634 0
8539 -8541 0
8539 -8744 0
8539 -8637 0
-8539 8541 8744 8637 0
8572 -8744 0
8572 -8574 0
8572 -8577 0
8572 -8582 0
-8572 8744 8574 8577 8582 0
8573 -8631 0
8573 -8744 0
8573 -8699 0
-8573 8631 8744 8699 0
8596 -8579 0
8596 -8543 0
8596 -8542 0
8596 -8518 0
-8596 8579 8543 8542 8518 0
8597 -8499 0
8597 -8476 0
-8597 8499 8476 0
8598 -8499 0
8598 -8708 0
-8598 8499 8708 0
8604 -8513 0
8604 -8543 0
8604 -8542 0
-8604 8513 8543 8542 0
8605 -8517 0
8605 -8489 0
-8605 8517 8489 0
8606 -8499 0
8606 -8489 0
-8606 8499 8489 0
8601 -8731 0
8601 -8499 0
8601 -8518 0
8601 -8494 0
-8601 8731 8499 8518 8494 0
8602 -8612 0
8602 -8497 0
-8602 8612 8497 0
8609 -8499 0
8609 -8708 0
-8609 8499 8708 0
8610 -8579 0
8610 -8708 0
-8610 8579 8708 0
8611 -8543 0
8611 -8542 0
-8611 8543 8542 0
8591 -8579 0
8591 -8543 0
8591 -8542 0
8591 -8518 0
-8591 8579 8543 8542 8518 0
8592 -8513 0
8592 -8517 0
8592 -8708 0
-8592 8513 8517 8708 0
8593 -8517 0
8593 -8518 0
8593 -8519 0
-8593 8517 8518 8519 0
8641 8581 0
8641 8575 0
8641 8576 0
8641 8618 0
-8641 -8581 -8575 -8576 -8618 0
8750 8526 0
8750 8527 0
-8750 -8526 -8527 0
8528 8581 0
8528 8575 0
8528 8576 0
-8528 -8581 -8575 -8576 0
8532 8533 0
8532 8543 0
8532 8579 0
8532 8580 0
-8532 -8533 -8543 -8579 -8580 0
8752 8538 0
8752 8539 0
-8752 -8538 -8539 0
8540 8541 0
8540 8542 0
8540 8543 0
8540 8579 0
-8540 -8541 -8542 -8543 -8579 0
8545 8682 0
8545 8616 0
8545 8622 0
-8545 -8682 -8616 -8622 0
8649 8550 0
8649 8551 0
8649 8557 0
-8649 -8550 -8551 -8557 0
8663 8554 0
8663 8555 0
8663 8556 0
8663 8557 0
-8663 -8554 -8555 -8556 -8557 0
8558 8559 0
8558 8560 0
-8558 -8559 -8560 0
8561 8562 0
8561 8563 0
8561 8564 0
8561 8622 0
-8561 -8562 -8563 -8564 -8622 0
8702 8580 0
8702 8581 0
8702 8575 0
8702 8576 0
-8702 -8580 -8581 -8575 -8576 0
8768 8572 0
8768 8573 0
-8768 -8572 -8573 0
8574 8575 0
8574 8576 0
-8574 -8575 -8576 0
8577 8631 0
8577 8579 0
8577 8580 0
8577 8581 0
-8577 -8631 -8579 -8580 -8581 0
8582 8583 0
8582 8584 0
-8582 -8583 -8584 0
8585 8586 0
8585 8587 0
8585 8588 0
8585 8707 0
-8585 -8586 -8587 -8588 -8707 0
8718 8591 0
8718 8592 0
8718 8593 0
8718 8612 0
-8718 -8591 -8592 -8593 -8612 0
8721 8596 0
8721 8597 0
8721 8598 0
8721 8612 0
-8721 -8596 -8597 -8598 -8612 0
8724 8601 0
8724 8602 0
-8724 -8601 -8602 0
8603 8604 0
8603 8605 0
8603 8606 0
8603 8708 0
-8603 -8604 -8605 -8606 -8708 0
8736 8609 0
8736 8610 0
8736 8611 0
8736 8612 0
-8736 -8609 -8610 -8611 -8612 0
-8613 -8681 0
-8613 -8682 0
-8613 -8616 0
-8613 -8617 0
8613 8681 8682 8616 8617 0
-8618 -8701 0
-8618 -8697 0
8618 8701 8697 0
-8746 -8622 0
-8746 -8744 0
8746 8622 8744 0
-8748 -8625 0
-8748 -8626 0
-8748 -8627 0
-8748 -8744 0
8748 8625 8626 8627 8744 0
-8629 -8630 0
-8629 -8631 0
-8629 -8701 0
-8629 -8702 0
8629 8630 8631 8701 8702 0
-8634 -8635 0
-8634 -8636 0
8634 8635 8636 0
-8637 -8638 0
-8637 -8639 0
-8637 -8640 0
-8637 -8641 0
8637 8638 8639 8640 8641 0
-8754 -8643 0
-8754 -8644 0
-8754 -8645 0
-8754 -8744 0
8754 8643 8644 8645 8744 0
-8756 -8648 0
-8756 -8649 0
8756 8648 8649 0
-8758 -8651 0
-8758 -8652 0
-8758 -8657 0
8758 8651 8652 8657 0
-8654 -8680 0
-8654 -8681 0
8654 8680 8681 0
-8657 -8658 0
-8657 -8659 0
8657 8658 8659 0
-8760 -8661 0
-8760 -8662 0
-8760 -8663 0
8760 8661 8662 8663 0
-8664 -8665 0
-8664 -8666 0
8664 8665 8666 0
-8762 -8668 0
-8762 -8669 0
-8762 -8671 0
8762 8668 8669 8671 0
-8671 -8672 0
-8671 -8673 0
8671 8672 8673 0
-8764 -8675 0
-8764 -8676 0
-8764 -8677 0
-8764 -8687 0
8764 8675 8676 8677 8687 0
-8679 -8680 0
-8679 -8681 0
-8679 -8682 0
8679 8680 8681 8682 0
-8683 -8684 0
-8683 -8685 0
-8683 -8686 0
8683 8684 8685 8686 0
-8687 -8688 0
-8687 -8689 0
8687 8688 8689 0
-8766 -8691 0
-8766 -8692 0
-8766 -8693 0
-8766 -8694 0
8766 8691 8692 8693 8694 0
-8695 -8701 0
-8695 -8697 0
-8695 -8698 0
8695 8701 8697 8698 0
-8699 -8700 0
-8699 -8701 0
-8699 -8702 0
8699 8700 8701 8702 0
-8770 -8704 0
-8770 -8705 0
-8770 -8744 0
8770 8704 8705 8744 0
-8707 -8708 0
-8707 -8709 0
8707 8708 8709 0
-8772 -8711 0
-8772 -8712 0
-8772 -8713 0
-8772 -8731 0
8772 8711 8712 8713 8731 0
-8774 -8716 0
-8774 -8717 0
-8774 -8718 0
8774 8716 8717 8718 0
-8776 -8720 0
-8776 -8721 0
8776 8720 8721 0
-8778 -8723 0
-8778 -8724 0
8778 8723 8724 0
-8725 -8726 0
-8725 -8727 0
8725 8726 8727 0
-8780 -8729 0
-8780 -8730 0
8780 8729 8730 0
-8731 -8732 0
-8731 -8733 0
8731 8732 8733 0
-8782 -8735 0
-8782 -8736 0
8782 8735 8736 0
-8784 -8738 0
-8784 -8739 0
-8784 -8744 0
8784 8738 8739 8744 0
-8786 -8742 0
-8786 -8743 0
-8786 -8744 0
8786 8742 8743 8744 0
-8746 9290 0
8746 -9290 0
-8748 9284 0
8748 -9284 0
-8750 9210 0
8750 -9210 0
-8752 9376 0
8752 -9376 0
-8754 9350 0
8754 -9350 0
-8756 9230 0
8756 -9230 0
-8758 9244 0
8758 -9244 0
-8760 9104 0
8760 -9104 0
-8762 9366 0
8762 -9366 0
-8764 9248 0
8764 -9248 0
-8766 9247 0
8766 -9247 0
-8768 9211 0
8768 -9211 0
-8770 8826 0
8770 -8826 0
-8772 8836 0
8772 -8836 0
-8774 9187 0
8774 -9187 0
-8776 9144 0
8776 -9144 0
-8778 9162 0
8778 -9162 0
-8780 9157 0
8780 -9157 0
-8782 8878 0
8782 -8878 0
-8784 9256 0
8784 -9256 0
-8786 9304 0
8786 -9304 0
9225 9412 0
-9225 -9412 0
9201 9210 0
-9201 -9210 0
9209 9376 0
-9209 -9376 0
9285 9290 0
-9285 -9290 0
9349 9230 0
-9349 -9230 0
9231 9350 0
-9231 -9350 0
9348 9244 0
-9348 -9244 0
9249 9366 0
-9249 -9366 0
9232 9284 0
-9232 -9284 0
9365 9248 0
-9365 -9248 0
9243 9104 0
-9243 -9104 0
9228 9304 0
-9228 -9304 0
9369 9247 0
-9369 -9247 0
9362 9225 0
-9362 -9225 0
9299 9211 0
-9299 -9211 0
9255 9247 0
-9255 -9247 0
9377 9210 0
-9377 -9210 0
9254 9211 0
-9254 -9211 0
9021 9256 0
-9021 -9256 0
9024 8826 0
-9024 -8826 0
8827 8836 0
-8827 -8836 0
8829 9187 0
-8829 -9187 0
9165 9366 0
-9165 -9366 0
9181 9247 0
-9181 -9247 0
9036 8836 0
-9036 -8836 0
9185 9211 0
-9185 -9211 0
9044 9187 0
-9044 -9187 0
9186 9376 0
-9186 -9376 0
9050 9144 0
-9050 -9144 0
9167 9210 0
-9167 -9210 0
9280 9399 0
-9280 -9399 0
9064 8878 0
-9064 -8878 0
8851 9144 0
-8851 -9144 0
8853 9162 0
-8853 -9162 0
9067 9070 0
-9067 -9070 0
9068 9256 0
-9068 -9256 0
8862 8860 0
-8862 -8860 0
9070 8862 0
-9070 -8862 0
9073 9076 0
-9073 -9076 0
9074 9304 0
-9074 -9304 0
8870 8868 0
-8870 -8868 0
9412 8870 0
-9412 -8870 0
8874 8872 0
-8874 -8872 0
9076 8874 0
-9076 -8874 0
8875 9157 0
-8875 -9157 0
8877 8878 0
-8877 -8878 0
-9368 9228 0
-9368 9229 0
9368 -9228 -9229 0
-9303 9290 0
-9303 9232 0
-9303 9231 0
-9303 9230 0
9303 -9290 -9232 -9231 -9230 0
-9298 9228 0
-9298 9229 0
9298 -9228 -9229 0
-9306 9228 0
-9306 9229 0
9306 -9228 -9229 0
-9307 9201 0
-9307 9211 0
9307 -9201 -9211 0
-9308 9210 0
-9308 9299 0
9308 -9210 -9299 0
-9326 9225 0
-9326 9348 0
9326 -9225 -9348 0
-9327 9228 0
-9327 9225 0
9327 -9228 -9225 0
-9333 9243 0
-9333 9365 0
9333 -9243 -9365 0
-9334 9243 0
-9334 9366 0
9334 -9243 -9366 0
-9340 9225 0
-9340 9244 0
-9340 9104 0
9340 -9225 -9244 -9104 0
-9341 9225 0
-9341 9366 0
9341 -9225 -9366 0
-9352 9104 0
-9352 9249 0
9352 -9104 -9249 0
-9353 9243 0
-9353 9366 0
9353 -9243 -9366 0
-9354 9104 0
-9354 9365 0
9354 -9104 -9365 0
-9356 9225 0
-9356 9244 0
-9356 9104 0
-9356 9366 0
9356 -9225 -9244 -9104 -9366 0
-9357 9225 0
-9357 9248 0
9357 -9225 -9248 0
-9293 9290 0
-9293 9231 0
-9293 9230 0
9293 -9290 -9231 -9230 0
-9294 9290 0
-9294 9284 0
9294 -9290 -9284 0
-9295 9285 0
-9295 9232 0
9295 -9285 -9232 0
-9311 9290 0
-9311 9284 0
-9311 9350 0
9311 -9290 -9284 -9350 0
-9312 9285 0
-9312 9231 0
9312 -9285 -9231 0
-9313 9232 0
-9313 9231 0
9313 -9232 -9231 0
-9316 9349 0
-9316 9213 0
9316 -9349 -9213 0
-9319 9231 0
-9319 9232 0
-9319 9290 0
-9319 9322 0
9319 -9231 -9232 -9290 -9322 0
-9320 9348 0
-9320 9228 0
-9320 9229 0
9320 -9348 -9228 -9229 0
-9329 9232 0
-9329 9290 0
-9329 9347 0
-9329 9332 0
9329 -9232 -9290 -9347 -9332 0
-9330 9243 0
-9330 9228 0
-9330 9229 0
9330 -9243 -9228 -9229 0
-9336 9366 0
-9336 9104 0
-9336 9244 0
-9336 9226 0
9336 -9366 -9104 -9244 -9226 0
-9337 9249 0
-9337 9228 0
-9337 9229 0
9337 -9249 -9228 -9229 0
-9343 9232 0
-9343 9290 0
-9343 9347 0
-9343 9351 0
9343 -9232 -9290 -9347 -9351 0
-9344 9365 0
-9344 9228 0
-9344 9229 0
9344 -9365 -9228 -9229 0
-9345 9244 0
-9345 9304 0
-9345 9351 0
9345 -9244 -9304 -9351 0
-9359 9243 0
-9359 9244 0
-9359 9363 0
-9359 9226 0
9359 -9243 -9244 -9363 -9226 0
-9360 9369 0
-9360 9228 0
-9360 9229 0
9360 -9369 -9228 -9229 0
-9361 9369 0
-9361 9370 0
9361 -9369 -9370 0
-9372 9254 0
-9372 9247 0
-9372 9021 0
-9372 9375 0
9372 -9254 -9247 -9021 -9375 0
-9373 9024 0
-9373 9253 0
9373 -9024 -9253 0
-9400 9254 0
-9400 9247 0
-9400 9021 0
-9400 9375 0
9400 -9254 -9247 -9021 -9375 0
-9401 9024 0
-9401 9253 0
9401 -9024 -9253 0
-9394 9211 0
-9394 9376 0
-9394 9162 0
9394 -9211 -9376 -9162 0
-9395 9181 0
-9395 9185 0
-9395 9376 0
9395 -9181 -9185 -9376 0
-9379 9376 0
-9379 9036 0
9379 -9376 -9036 0
-9380 9167 0
-9380 9186 0
9380 -9167 -9186 0
-9381 9185 0
-9381 9167 0
9381 -9185 -9167 0
-9384 9044 0
-9384 9210 0
9384 -9044 -9210 0
-9385 9186 0
-9385 9210 0
9385 -9186 -9210 0
-9388 9050 0
-9388 9376 0
-9388 9211 0
9388 -9050 -9376 -9211 0
-9391 9167 0
-9391 9280 0
-9391 9393 0
9391 -9167 -9280 -9393 0
-9397 9280 0
-9397 9271 0
9397 -9280 -9271 0
-9398 9366 0
-9398 9399 0
9398 -9366 -9399 0
-9403 9064 0
-9403 9376 0
9403 -9064 -9376 0
-9406 9067 0
-9406 9068 0
9406 -9067 -9068 0
-9407 9070 0
-9407 9256 0
9407 -9070 -9256 0
-9410 9073 0
-9410 9074 0
9410 -9073 -9074 0
-9411 9076 0
-9411 9304 0
9411 -9076 -9304 0
9251 -9304 0
9251 -9281 0
-9251 9304 9281 0
9252 -9209 0
9252 -9210 0
-9252 9209 9210 0
9218 -9285 0
9218 -9232 0
9218 -9231 0
9218 -9349 0
-9218 9285 9232 9231 9349 0
9219 -9285 0
9219 -9284 0
9219 -9350 0
-9219 9285 9284 9350 0
9222 -9228 0
9222 -9348 0
9222 -9366 0
9222 -9365 0
-9222 9228 9348 9366 9365 0
9223 -9228 0
9223 -9348 0
9223 -9243 0
-9223 9228 9348 9243 0
9224 -9244 0
9224 -9104 0
-9224 9244 9104 0
9227 -9285 0
9227 -9284 0
9227 -9350 0
9227 -9349 0
-9227 9285 9284 9350 9349 0
9194 -9412 0
9194 -9196 0
9194 -9200 0
9194 -9302 0
-9194 9412 9196 9200 9302 0
9195 -9201 0
9195 -9412 0
9195 -9297 0
-9195 9201 9412 9297 0
9206 -9412 0
9206 -9370 0
9206 -9208 0
9206 -9302 0
-9206 9412 9370 9208 9302 0
9207 -9209 0
9207 -9412 0
9207 -9305 0
-9207 9209 9412 9305 0
9240 -9412 0
9240 -9242 0
9240 -9245 0
9240 -9250 0
-9240 9412 9242 9245 9250 0
9241 -9299 0
9241 -9412 0
9241 -9367 0
-9241 9299 9412 9367 0
9264 -9247 0
9264 -9211 0
9264 -9210 0
9264 -9186 0
-9264 9247 9211 9210 9186 0
9265 -9167 0
9265 -9144 0
-9265 9167 9144 0
9266 -9167 0
9266 -9376 0
-9266 9167 9376 0
9272 -9181 0
9272 -9211 0
9272 -9210 0
-9272 9181 9211 9210 0
9273 -9185 0
9273 -9157 0
-9273 9185 9157 0
9274 -9167 0
9274 -9157 0
-9274 9167 9157 0
9269 -9399 0
9269 -9167 0
9269 -9186 0
9269 -9162 0
-9269 9399 9167 9186 9162 0
9270 -9280 0
9270 -9165 0
-9270 9280 9165 0
9277 -9167 0
9277 -9376 0
-9277 9167 9376 0
9278 -9247 0
9278 -9376 0
-9278 9247 9376 0
9279 -9211 0
9279 -9210 0
-9279 9211 9210 0
9259 -9247 0
9259 -9211 0
9259 -9210 0
9259 -9186 0
-9259 9247 9211 9210 9186 0
9260 -9181 0
9260 -9185 0
9260 -9376 0
-9260 9181 9185 9376 0
9261 -9185 0
9261 -9186 0
9261 -9187 0
-9261 9185 9186 9187 0
9309 9249 0
9309 9243 0
9309 9244 0
9309 9286 0
-9309 -9249 -9243 -9244 -9286 0
9418 9194 0
9418 9195 0
-9418 -9194 -9195 0
9196 9249 0
9196 9243 0
9196 9244 0
-9196 -9249 -9243 -9244 0
9200 9201 0
9200 9211 0
9200 9247 0
9200 9248 0
-9200 -9201 -9211 -9247 -9248 0
9420 9206 0
9420 9207 0
-9420 -9206 -9207 0
9208 9209 0
9208 9210 0
9208 9211 0
9208 9247 0
-9208 -9209 -9210 -9211 -9247 0
9213 9350 0
9213 9284 0
9213 9290 0
-9213 -9350 -9284 -9290 0
9317 9218 0
9317 9219 0
9317 9225 0
-9317 -9218 -9219 -9225 0
9331 9222 0
9331 9223 0
9331 9224 0
9331 9225 0
-9331 -9222 -9223 -9224 -9225 0
9226 9227 0
9226 9228 0
-9226 -9227 -9228 0
9229 9230 0
9229 9231 0
9229 9232 0
9229 9290 0
-9229 -9230 -9231 -9232 -9290 0
9370 9248 0
9370 9249 0
9370 9243 0
9370 9244 0
-9370 -9248 -9249 -9243 -9244 0
9436 9240 0
9436 9241 0
-9436 -9240 -9241 0
9242 9243 0
9242 9244 0
-9242 -9243 -9244 0
9245 9299 0
9245 9247 0
9245 9248 0
9245 9249 0
-9245 -9299 -9247 -9248 -9249 0
9250 9251 0
9250 9252 0
-9250 -9251 -9252 0
9253 9254 0
9253 9255 0
9253 9256 0
9253 9375 0
-9253 -9254 -9255 -9256 -9375 0
9386 9259 0
9386 9260 0
9386 9261 0
9386 9280 0
-9386 -9259 -9260 -9261 -9280 0
9389 9264 0
9389 9265 0
9389 9266 0
9389 9280 0
-9389 -9264 -9265 -9266 -9280 0
9392 9269 0
9392 9270 0
-9392 -9269 -9270 0
9271 9272 0
9271 9273 0
9271 9274 0
9271 9376 0
-9271 -9272 -9273 -9274 -9376 0
9404 9277 0
9404 9278 0
9404 9279 0
9404 9280 0
-9404 -9277 -9278 -9279 -9280 0
-9281 -9349 0
-9281 -9350 0
-9281 -9284 0
-9281 -9285 0
9281 9349 9350 9284 9285 0
-9286 -9369 0
-9286 -9365 0
9286 9369 9365 0
-9414 -9290 0
-9414 -9412 0
9414 9290 9412 0
-9416 -9293 0
-9416 -9294 0
-9416 -9295 0
-9416 -9412 0
9416 9293 9294 9295 9412 0
-9297 -9298 0
-9297 -9299 0
-9297 -9369 0
-9297 -9370 0
9297 9298 9299 9369 9370 0
-9302 -9303 0
-9302 -9304 0
9302 9303 9304 0
-9305 -9306 0
-9305 -9307 0
-9305 -9308 0
-9305 -9309 0
9305 9306 9307 9308 9309 0
-9422 -9311 0
-9422 -9312 0
-9422 -9313 0
-9422 -9412 0
9422 9311 9312 9313 9412 0
-9424 -9316 0
-9424 -9317 0
9424 9316 9317 0
-9426 -9319 0
-9426 -9320 0
-9426 -9325 0
9426 9319 9320 9325 0
-9322 -9348 0
-9322 -9349 0
9322 9348 9349 0
-9325 -9326 0
-9325 -9327 0
9325 9326 9327 0
-9428 -9329 0
-9428 -9330 0
-9428 -9331 0
9428 9329 9330 9331 0
-9332 -9333 0
-9332 -9334 0
9332 9333 9334 0
-9430 -9336 0
-9430 -9337 0
-9430 -9339 0
9430 9336 9337 9339 0
-9339 -9340 0
-9339 -9341 0
9339 9340 9341 0
-9432 -9343 0
-9432 -9344 0
-9432 -9345 0
-9432 -9355 0
9432 9343 9344 9345 9355 0
-9347 -9348 0
-9347 -9349 0
-9347 -9350 0
9347 9348 9349 9350 0
-9351 -9352 0
-9351 -9353 0
-9351 -9354 0
9351 9352 9353 9354 0
-9355 -9356 0
-9355 -9357 0
9355 9356 9357 0
-9434 -9359 0
-9434 -9360 0
-9434 -9361 0
-9434 -9362 0
9434 9359 9360 9361 9362 0
-9363 -9369 0
-9363 -9365 0
-9363 -9366 0
9363 9369 9365 9366 0
-9367 -9368 0
-9367 -9369 0
-9367 -9370 0
9367 9368 9369 9370 0
-9438 -9372 0
-9438 -9373 0
-9438 -9412 0
9438 9372 9373 9412 0
-9375 -9376 0
-9375 -9377 0
9375 9376 9377 0
-9440 -9379 0
-9440 -9380 0
-9440 -9381 0
-9440 -9399 0
9440 9379 9380 9381 9399 0
-9442 -9384 0
-9442 -9385 0
-9442 -9386 0
9442 9384 9385 9386 0
-9444 -9388 0
-9444 -9389 0
9444 9388 9389 0
-9446 -9391 0
-9446 -9392 0
9446 9391 9392 0
-9393 -9394 0
-9393 -9395 0
9393 9394 9395 0
-9448 -9397 0
-9448 -9398 0
9448 9397 9398 0
-9399 -9400 0
-9399 -9401 0
9399 9400 9401 0
-9450 -9403 0
-9450 -9404 0
9450 9403 9404 0
-9452 -9406 0
-9452 -9407 0
-9452 -9412 0
9452 9406 9407 9412 0
-9454 -9410 0
-9454 -9411 0
-9454 -9412 0
9454 9410 9411 9412 0
-9414 9958 0
9414 -9958 0
-9416 9952 0
9416 -9952 0
-9418 9878 0
9418 -9878 0
-9420 10044 0
9420 -10044 0
-9422 10018 0
9422 -10018 0
-9424 9898 0
9424 -9898 0
-9426 9912 0
9426 -9912 0
-9428 9772 0
9428 -9772 0
-9430 10034 0
9430 -10034 0
-9432 9916 0
9432 -9916 0
-9434 9915 0
9434 -9915 0
-9436 9879 0
9436 -9879 0
-9438 9494 0
9438 -9494 0
-9440 9504 0
9440 -9504 0
-9442 9855 0
9442 -9855 0
-9444 9812 0
9444 -9812 0
-9446 9830 0
9446 -9830 0
-9448 9825 0
9448 -9825 0
-9450 9546 0
9450 -9546 0
-9452 9924 0
9452 -9924 0
-9454 9972 0
9454 -9972 0
9893 10080 0
-9893 -10080 0
9869 9878 0
-9869 -9878 0
9877 10044 0
-9877 -10044 0
9953 9958 0
-9953 -9958 0
10017 9898 0
-10017 -9898 0
9899 10018 0
-9899 -10018 0
10016 9912 0
-10016 -9912 0
9917 10034 0
-9917 -10034 0
9900 9952 0
-9900 -9952 0
10033 9916 0
-10033 -9916 0
9911 9772 0
-9911 -9772 0
9896 9972 0
-9896 -9972 0
10037 9915 0
-10037 -9915 0
10030 9893 0
-10030 -9893 0
9967 9879 0
-9967 -9879 0
9923 9915 0
-9923 -9915 0
10045 9878 0
-10045 -9878 0
9922 9879 0
-9922 -9879 0
9689 9924 0
-9689 -9924 0
9692 9494 0
-9692 -9494 0
9495 9504 0
-9495 -9504 0
9497 9855 0
-9497 -9855 0
9833 10034 0
-9833 -10034 0
9849 9915 0
-9849 -9915 0
9704 9504 0
-9704 -9504 0
9853 9879 0
-9853 -9879 0
9712 9855 0
-9712 -9855 0
9854 10044 0
-9854 -10044 0
9718 9812 0
-9718 -9812 0
9835 9878 0
-9835 -9878 0
9948 10067 0
-9948 -10067 0
9732 9546 0
-9732 -9546 0
9519 9812 0
-9519 -9812 0
9521 9830 0
-9521 -9830 0
9735 9738 0
-9735 -9738 0
9736 9924 0
-9736 -9924 0
9530 9528 0
-9530 -9528 0
9738 9530 0
-9738 -9530 0
9741 9744 0
-9741 -9744 0
9742 9972 0
-9742 -9972 0
9538 9536 0
-9538 -9536 0
10080 9538 0
-10080 -9538 0
9542 9540 0
-9542 -9540 0
9744 9542 0
-9744 -9542 0
9543 9825 0
-9543 -9825 0
9545 9546 0
-9545 -9546 0
-10036 9896 0
-10036 9897 0
10036 -9896 -9897 0
-9971 9958 0
-9971 9900 0
-9971 9899 0
-9971 9898 0
9971 -9958 -9900 -9899 -9898 0
-9966 9896 0
-9966 9897 0
9966 -9896 -9897 0
-9974 9896 0
-9974 9897 0
9974 -9896 -9897 0
-9975 9869 0
-9975 9879 0
9975 -9869 -9879 0
-9976 9878 0
-9976 9967 0
9976 -9878 -9967 0
-9994 9893 0
-9994 10016 0
9994 -9893 -10016 0
-9995 9896 0
-9995 9893 0
9995 -9896 -9893 0
-10001 9911 0
-10001 10033 0
10001 -9911 -10033 0
-10002 9911 0
-10002 10034 0
10002 -9911 -10034 0
-10008 9893 0
-10008 9912 0
-10008 9772 0
10008 -9893 -9912 -9772 0
-10009 9893 0
-10009 10034 0
10009 -9893 -10034 0
-10020 9772 0
-10020 9917 0
10020 -9772 -9917 0
-10021 9911 0
-10021 10034 0
10021 -9911 -10034 0
-10022 9772 0
-10022 10033 0
10022 -9772 -10033 0
-10024 9893 0
-10024 9912 0
-10024 9772 0
-10024 10034 0
10024 -9893 -9912 -9772 -10034 0
-10025 9893 0
-10025 9916 0
10025 -9893 -9916 0
-9961 9958 0
-9961 9899 0
-9961 9898 0
9961 -9958 -9899 -9898 0
-9962 9958 0
-9962 9952 0
9962 -9958 -9952 0
-9963 9953 0
-9963 9900 0
9963 -9953 -9900 0
-9979 9958 0
-9979 9952 0
-9979 10018 0
9979 -9958 -9952 -10018 0
-9980 9953 0
-9980 9899 0
9980 -9953 -9899 0
-9981 9900 0
-9981 9899 0
9981 -9900 -9899 0
-9984 10017 0
-9984 9881 0
9984 -10017 -9881 0
-9987 9899 0
-9987 9900 0
-9987 9958 0
-9987 9990 0
9987 -9899 -9900 -9958 -9990 0
-9988 10016 0
-9988 9896 0
-9988 9897 0
9988 -10016 -9896 -9897 0
-9997 9900 0
-9997 9958 0
-9997 10015 0
-9997 10000 0
9997 -9900 -9958 -10015 -10000 0
-9998 9911 0
-9998 9896 0
-9998 9897 0
9998 -9911 -9896 -9897 0
-10004 10034 0
-10004 9772 0
-10004 9912 0
-10004 9894 0
10004 -10034 -9772 -9912 -9894 0
-10005 9917 0
-10005 9896 0
-10005 9897 0
10005 -9917 -9896 -9897 0
-10011 9900 0
-10011 9958 0
-10011 10015 0
-10011 10019 0
10011 -9900 -9958 -10015 -10019 0
-10012 10033 0
-10012 9896 0
-10012 9897 0
10012 -10033 -9896 -9897 0
-10013 9912 0
-10013 9972 0
-10013 10019 0
10013 -9912 -9972 -10019 0
-10027 9911 0
-10027 9912 0
-10027 10031 0
-10027 9894 0
10027 -9911 -9912 -10031 -9894 0
-10028 10037 0
-10028 9896 0
-10028 9897 0
10028 -10037 -9896 -9897 0
-10029 10037 0
-10029 10038 0
10029 -10037 -10038 0
-10040 9922 0
-10040 9915 0
-10040 9689 0
-10040 10043 0
10040 -9922 -9915 -9689 -10043 0
-10041 9692 0
-10041 9921 0
10041 -9692 -9921 0
-10068 9922 0
-10068 9915 0
-10068 9689 0
-10068 10043 0
10068 -9922 -9915 -9689 -10043 0
-10069 9692 0
-10069 9921 0
10069 -9692 -9921 0
-10062 9879 0
-10062 10044 0
-10062 9830 0
10062 -9879 -10044 -9830 0
-10063 9849 0
-10063 9853 0
-10063 10044 0
10063 -9849 -9853 -10044 0
-10047 10044 0
-10047 9704 0
10047 -10044 -9704 0
-10048 9835 0
-10048 9854 0
10048 -9835 -9854 0
-10049 9853 0
-10049 9835 0
10049 -9853 -9835 0
-10052 9712 0
-10052 9878 0
10052 -9712 -9878 0
-10053 9854 0
-10053 9878 0
10053 -9854 -9878 0
-10056 9718 0
-10056 10044 0
-10056 9879 0
10056 -9718 -10044 -9879 0
-10059 9835 0
-10059 9948 0
-10059 10061 0
10059 -9835 -9948 -10061 0
-10065 9948 0
-10065 9939 0
10065 -9948 -9939 0
-10066 10034 0
-10066 10067 0
10066 -10034 -10067 0
-10071 9732 0
-10071 10044 0
10071 -9732 -10044 0
-10074 9735 0
-10074 9736 0
10074 -9735 -9736 0
-10075 9738 0
-10075 9924 0
10075 -9738 -9924 0
-10078 9741 0
-10078 9742 0
10078 -9741 -9742 0
-10079 9744 0
-10079 9972 0
10079 -9744 -9972 0
9919 -9972 0
9919 -9949 0
-9919 9972 9949 0
9920 -9877 0
9920 -9878 0
-9920 9877 9878 0
9886 -9953 0
9886 -9900 0
9886 -9899 0
9886 -10017 0
-9886 9953 9900 9899 10017 0
9887 -9953 0
9887 -9952 0
9887 -10018 0
-9887 9953 9952 10018 0
9890 -9896 0
9890 -10016 0
9890 -10034 0
9890 -10033 0
-9890 9896 10016 10034 10033 0
9891 -9896 0
9891 -10016 0
9891 -9911 0
-9891 9896 10016 9911 0
9892 -9912 0
9892 -9772 0
-9892 9912 9772 0
9895 -9953 0
9895 -9952 0
9895 -10018 0
9895 -10017 0
-9895 9953 9952 10018 10017 0
9862 -10080 0
9862 -9864 0
9862 -9868 0
9862 -9970 0
-9862 10080 9864 9868 9970 0
9863 -9869 0
9863 -10080 0
9863 -9965 0
-9863 9869 10080 9965 0
9874 -10080 0
9874 -10038 0
9874 -9876 0
9874 -9970 0
-9874 10080 10038 9876 9970 0
9875 -9877 0
9875 -10080 0
9875 -9973 0
-9875 9877 10080 9973 0
9908 -10080 0
9908 -9910 0
9908 -9913 0
9908 -9918 0
-9908 10080 9910 9913 9918 0
9909 -9967 0
9909 -10080 0
9909 -10035 0
-9909 9967 10080 10035 0
9932 -9915 0
9932 -9879 0
9932 -9878 0
9932 -9854 0
-9932 9915 9879 9878 9854 0
9933 -9835 0
9933 -9812 0
-9933 9835 9812 0
9934 -9835 0
9934 -10044 0
-9934 9835 10044 0
9940 -9849 0
9940 -9879 0
9940 -9878 0
-9940 9849 9879 9878 0
9941 -9853 0
9941 -9825 0
-9941 9853 9825 0
9942 -9835 0
9942 -9825 0
-9942 9835 9825 0
9937 -10067 0
9937 -9835 0
9937 -9854 0
9937 -9830 0
-9937 10067 9835 9854 9830 0
9938 -9948 0
9938 -9833 0
-9938 9948 9833 0
9945 -9835 0
9945 -10044 0
-9945 9835 10044 0
9946 -9915 0
9946 -10044 0
-9946 9915 10044 0
9947 -9879 0
9947 -9878 0
-9947 9879 9878 0
9927 -9915 0
9927 -9879 0
9927 -9878 0
9927 -9854 0
-9927 9915 9879 9878 9854 0
9928 -9849 0
9928 -9853 0
9928 -10044 0
-9928 9849 9853 10044 0
9929 -9853 0
9929 -9854 0
9929 -9855 0
-9929 9853 9854 9855 0
9977 9917 0
9977 9911 0
9977 9912 0
9977 9954 0
-9977 -9917 -9911 -9912 -9954 0
10086 9862 0
10086 9863 0
-10086 -9862 -9863 0
9864 9917 0
9864 9911 0
9864 9912 0
-9864 -9917 -9911 -9912 0
9868 9869 0
9868 9879 0
9868 9915 0
9868 9916 0
-9868 -9869 -9879 -9915 -9916 0
10088 9874 0
10088 9875 0
-10088 -9874 -9875 0
9876 9877 0
9876 9878 0
9876 9879 0
9876 9915 0
-9876 -9877 -9878 -9879 -9915 0
9881 10018 0
9881 9952 0
9881 9958 0
-9881 -10018 -9952 -9958 0
9985 9886 0
9985 9887 0
9985 9893 0
-9985 -9886 -9887 -9893 0
9999 9890 0
9999 9891 0
9999 9892 0
9999 9893 0
-9999 -9890 -9891 -9892 -9893 0
9894 9895 0
9894 9896 0
-9894 -9895 -9896 0
9897 9898 0
9897 9899 0
9897 9900 0
9897 9958 0
-9897 -9898 -9899 -9900 -9958 0
10038 9916 0
10038 9917 0
10038 9911 0
10038 9912 0
-10038 -9916 -9917 -9911 -9912 0
10104 9908 0
10104 9909 0
-10104 -9908 -9909 0
9910 9911 0
9910 9912 0
-9910 -9911 -9912 0
9913 9967 0
9913 9915 0
9913 9916 0
9913 9917 0
-9913 -9967 -9915 -9916 -9917 0
9918 9919 0
9918 9920 0
-9918 -9919 -9920 0
9921 9922 0
9921 9923 0
9921 9924 0
9921 10043 0
-9921 -9922 -9923 -9924 -10043 0
10054 9927 0
10054 9928 0
10054 9929 0
10054 9948 0
-10054 -9927 -9928 -9929 -9948 0
10057 9932 0
10057 9933 0
10057 9934 0
10057 9948 0
-10057 -9932 -9933 -9934 -9948 0
10060 9937 0
10060 9938 0
-10060 -9937 -9938 0
9939 9940 0
9939 9941 0
9939 9942 0
9939 10044 0
-9939 -9940 -9941 -9942 -10044 0
10072 9945 0
10072 9946 0
10072 9947 0
10072 9948 0
-10072 -9945 -9946 -9947 -9948 0
-9949 -10017 0
-9949 -10018 0
-9949 -9952 0
-9949 -9953 0
9949 10017 10018 9952 9953 0
-9954 -10037 0
-9954 -10033 0
9954 10037 10033 0
-10082 -9958 0
-10082 -10080 0
10082 9958 10080 0
-10084 -9961 0
-10084 -9962 0
-10084 -9963 0
-10084 -10080 0
10084 9961 9962 9963 10080 0
-9965 -9966 0
-9965 -9967 0
-9965 -10037 0
-9965 -10038 0
9965 9966 9967 10037 10038 0
-9970 -9971 0
-9970 -9972 0
9970 9971 9972 0
-9973 -9974 0
-9973 -9975 0
-9973 -9976 0
-9973 -9977 0
9973 9974 9975 9976 9977 0
-10090 -9979 0
-10090 -9980 0
-10090 -9981 0
-10090 -10080 0
10090 9979 9980 9981 10080 0
-10092 -9984 0
-10092 -9985 0
10092 9984 9985 0
-10094 -9987 0
-10094 -9988 0
-10094 -9993 0
10094 9987 9988 9993 0
-9990 -10016 0
-9990 -10017 0
9990 10016 10017 0
-9993 -9994 0
-9993 -9995 0
9993 9994 9995 0
-10096 -9997 0
-10096 -9998 0
-10096 -9999 0
10096 9997 9998 9999 0
-10000 -10001 0
-10000 -10002 0
10000 10001 10002 0
-10098 -10004 0
-10098 -10005 0
-10098 -10007 0
10098 10004 10005 10007 0
-10007 -10008 0
-10007 -10009 0
10007 10008 10009 0
-10100 -10011 0
-10100 -10012 0
-10100 -10013 0
-10100 -10023 0
10100 10011 10012 10013 10023 0
-10015 -10016 0
-10015 -10017 0
-10015 -10018 0
10015 10016 10017 10018 0
-10019 -10020 0
-10019 -10021 0
-10019 -10022 0
10019 10020 10021 10022 0
-10023 -10024 0
-10023 -10025 0
10023 10024 10025 0
-10102 -10027 0
-10102 -10028 0
-10102 -10029 0
-10102 -10030 0
10102 10027 10028 10029 10030 0
-10031 -10037 0
-10031 -10033 0
-10031 -10034 0
10031 10037 10033 10034 0
-10035 -10036 0
-10035 -10037 0
-10035 -10038 0
10035 10036 10037 10038 0
-10106 -10040 0
-10106 -10041 0
-10106 -10080 0
10106 10040 10041 10080 0
-10043 -10044 0
-10043 -10045 0
10043 10044 10045 0
-10108 -10047 0
-10108 -10048 0
-10108 -10049 0
-10108 -10067 0
10108 10047 10048 10049 10067 0
-10110 -10052 0
-10110 -10053 0
-10110 -10054 0
10110 10052 10053 10054 0
-10112 -10056 0
-10112 -10057 0
10112 10056 10057 0
-10114 -10059 0
-10114 -10060 0
10114 10059 10060 0
-10061 -10062 0
-10061 -10063 0
10061 10062 10063 0
-10116 -10065 0
-10116 -10066 0
10116 10065 10066 0
-10067 -10068 0
-10067 -10069 0
10067 10068 10069 0
-10118 -10071 0
-10118 -10072 0
10118 10071 10072 0
-10120 -10074 0
-10120 -10075 0
-10120 -10080 0
10120 10074 10075 10080 0
-10122 -10078 0
-10122 -10079 0
-10122 -10080 0
10122 10078 10079 10080 0
-10082 10626 0
10082 -10626 0
-10084 10620 0
10084 -10620 0
-10086 10546 0
10086 -10546 0
-10088 10712 0
10088 -10712 0
-10090 10686 0
10090 -10686 0
-10092 10566 0
10092 -10566 0
-10094 10580 0
10094 -10580 0
-10096 10440 0
10096 -10440 0
-10098 10702 0
10098 -10702 0
-10100 10584 0
10100 -10584 0
-10102 10583 0
10102 -10583 0
-10104 10547 0
10104 -10547 0
-10106 10162 0
10106 -10162 0
-10108 10172 0
10108 -10172 0
-10110 10523 0
10110 -10523 0
-10112 10480 0
10112 -10480 0
-10114 10498 0
10114 -10498 0
-10116 10493 0
10116 -10493 0
-10118 10214 0
10118 -10214 0
-10120 10592 0
10120 -10592 0
-10122 10640 0
10122 -10640 0
10561 10748 0
-10561 -10748 0
10537 10546 0
-10537 -10546 0
10545 10712 0
-10545 -10712 0
10621 10626 0
-10621 -10626 0
10685 10566 0
-10685 -10566 0
10567 10686 0
-10567 -10686 0
10684 10580 0
-10684 -10580 0
10585 10702 0
-10585 -10702 0
10568 10620 0
-10568 -10620 0
10701 10584 0
-10701 -10584 0
10579 10440 0
-10579 -10440 0
10564 10640 0
-10564 -10640 0
10705 10583 0
-10705 -10583 0
10698 10561 0
-10698 -10561 0
10635 10547 0
-10635 -10547 0
10591 10583 0
-10591 -10583 0
10713 10546 0
-10713 -10546 0
10590 10547 0
-10590 -10547 0
10357 10592 0
-10357 -10592 0
10360 10162 0
-10360 -10162 0
10163 10172 0
-10163 -10172 0
10165 10523 0
-10165 -10523 0
10501 10702 0
-10501 -10702 0
10517 10583 0
-10517 -10583 0
10372 10172 0
-10372 -10172 0
10521 10547 0
-10521 -10547 0
10380 10523 0
-10380 -10523 0
10522 10712 0
-10522 -10712 0
10386 10480 0
-10386 -10480 0
10503 10546 0
-10503 -10546 0
10616 10735 0
-10616 -10735 0
10400 10214 0
-10400 -10214 0
10187 10480 0
-10187 -10480 0
10189 10498 0
-10189 -10498 0
10403 10406 0
-10403 -10406 0
10404 10592 0
-10404 -10592 0
10198 10196 0
-10198 -10196 0
10406 10198 0
-10406 -10198 0
10409 10412 0
-10409 -10412 0
10410 10640 0
-10410 -10640 0
10206 10204 0
-10206 -10204 0
10748 10206 0
-10748 -10206 0
10210 10208 0
-10210 -10208 0
10412 10210 0
-10412 -10210 0
10211 10493 0
-10211 -10493 0
10213 10214 0
-10213 -10214 0
-10704 10564 0
-10704 10565 0
10704 -10564 -10565 0
-10639 10626 0
-10639 10568 0
-10639 10567 0
-10639 10566 0
10639 -10626 -10568 -10567 -10566 0
-10634 10564 0
-10634 10565 0
10634 -10564 -10565 0
-10642 10564 0
-10642 10565 0
10642 -10564 -10565 0
-10643 10537 0
-10643 10547 0
10643 -10537 -10547 0
-10644 10546 0
-10644 10635 0
10644 -10546 -10635 0
-10662 10561 0
-10662 10684 0
10662 -10561 -10684 0
-10663 10564 0
-10663 10561 0
10663 -10564 -10561 0
-10669 10579 0
-10669 10701 0
10669 -10579 -10701 0
-10670 10579 0
-10670 10702 0
10670 -10579 -10702 0
-10676 10561 0
-10676 10580 0
-10676 10440 0
10676 -10561 -10580 -10440 0
-10677 10561 0
-10677 10702 0
10677 -10561 -10702 0
-10688 10440 0
-10688 10585 0
10688 -10440 -10585 0
-10689 10579 0
-10689 10702 0
10689 -10579 -10702 0
-10690 10440 0
-10690 10701 0
10690 -10440 -10701 0
-10692 10561 0
-10692 10580 0
-10692 10440 0
-10692 10702 0
10692 -10561 -10580 -10440 -10702 0
-10693 10561 0
-10693 10584 0
10693 -10561 -10584 0
-10629 10626 0
-10629 10567 0
-10629 10566 0
10629 -10626 -10567 -10566 0
-10630 10626 0
-10630 10620 0
10630 -10626 -10620 0
-10631 10621 0
-10631 10568 0
10631 -10621 -10568 0
-10647 10626 0
-10647 10620 0
-10647 10686 0
10647 -10626 -10620 -10686 0
-10648 10621 0
-10648 10567 0
10648 -10621 -10567 0
-10649 10568 0
-10649 10567 0
10649 -10568 -10567 0
-10652 10685 0
-10652 10549 0
10652 -10685 -10549 0
-10655 10567 0
-10655 10568 0
-10655 10626 0
-10655 10658 0
10655 -10567 -10568 -10626 -10658 0
-10656 10684 0
-10656 10564 0
-10656 10565 0
10656 -10684 -10564 -10565 0
-10665 10568 0
-10665 10626 0
-10665 10683 0
-10665 10668 0
10665 -10568 -10626 -10683 -10668 0
-10666 10579 0
-10666 10564 0
-10666 10565 0
10666 -10579 -10564 -10565 0
-10672 10702 0
-10672 10440 0
-10672 10580 0
-10672 10562 0
10672 -10702 -10440 -10580 -10562 0
-10673 10585 0
-10673 10564 0
-10673 10565 0
10673 -10585 -10564 -10565 0
-10679 10568 0
-10679 10626 0
-10679 10683 0
-10679 10687 0
10679 -10568 -10626 -10683 -10687 0
-10680 10701 0
-10680 10564 0
-10680 10565 0
10680 -10701 -10564 -10565 0
-10681 10580 0
-10681 10640 0
-10681 10687 0
10681 -10580 -10640 -10687 0
-10695 10579 0
-10695 10580 0
-10695 10699 0
-10695 10562 0
10695 -10579 -10580 -10699 -10562 0
-10696 10705 0
-10696 10564 0
-10696 10565 0
10696 -10705 -10564 -10565 0
-10697 10705 0
-10697 10706 0
10697 -10705 -10706 0
-10708 10590 0
-10708 10583 0
-10708 10357 0
-10708 10711 0
10708 -10590 -10583 -10357 -10711 0
-10709 10360 0
-10709 10589 0
10709 -10360 -10589 0
-10736 10590 0
-10736 10583 0
-10736 10357 0
-10736 10711 0
10736 -10590 -10583 -10357 -10711 0
-10737 10360 0
-10737 10589 0
10737 -10360 -10589 0
-10730 10547 0
-10730 10712 0
-10730 10498 0
10730 -10547 -10712 -10498 0
-10731 10517 0
-10731 10521 0
-10731 10712 0
10731 -10517 -10521 -10712 0
-10715 10712 0
-10715 10372 0
10715 -10712 -10372 0
-10716 10503 0
-10716 10522 0
10716 -10503 -10522 0
-10717 10521 0
-10717 10503 0
10717 -10521 -10503 0
-10720 10380 0
-10720 10546 0
10720 -10380 -10546 0
-10721 10522 0
-10721 10546 0
10721 -10522 -10546 0
-10724 10386 0
-10724 10712 0
-10724 10547 0
10724 -10386 -10712 -10547 0
-10727 10503 0
-10727 10616 0
-10727 10729 0
10727 -10503 -10616 -10729 0
-10733 10616 0
-10733 10607 0
10733 -10616 -10607 0
-10734 10702 0
-10734 10735 0
10734 -10702 -10735 0
-10739 10400 0
-10739 10712 0
10739 -10400 -10712 0
-10742 10403 0
-10742 10404 0
10742 -10403 -10404 0
-10743 10406 0
-10743 10592 0
10743 -10406 -10592 0
-10746 10409 0
-10746 10410 0
10746 -10409 -10410 0
-10747 10412 0
-10747 10640 0
10747 -10412 -10640 0
10587 -10640 0
10587 -10617 0
-10587 10640 10617 0
10588 -10545 0
10588 -10546 0
-10588 10545 10546 0
10554 -10621 0
10554 -10568 0
10554 -10567 0
10554 -10685 0
-10554 10621 10568 10567 10685 0
10555 -10621 0
10555 -10620 0
10555 -10686 0
-10555 10621 10620 10686 0
10558 -10564 0
10558 -10684 0
10558 -10702 0
10558 -10701 0
-10558 10564 10684 10702 10701 0
10559 -10564 0
10559 -10684 0
10559 -10579 0
-10559 10564 10684 10579 0
10560 -10580 0
10560 -10440 0
-10560 10580 10440 0
10563 -10621 0
10563 -10620 0
10563 -10686 0
10563 -10685 0
-10563 10621 10620 10686 10685 0
10530 -10748 0
10530 -10532 0
10530 -10536 0
10530 -10638 0
-10530 10748 10532 10536 10638 0
10531 -10537 0
10531 -10748 0
10531 -10633 0
-10531 10537 10748 10633 0
10542 -10748 0
10542 -10706 0
10542 -10544 0
10542 -10638 0
-10542 10748 10706 10544 10638 0
10543 -10545 0
10543 -10748 0
10543 -10641 0
-10543 10545 10748 10641 0
10576 -10748 0
10576 -10578 0
10576 -10581 0
10576 -10586 0
-10576 10748 10578 10581 10586 0
10577 -10635 0
10577 -10748 0
10577 -10703 0
-10577 10635 10748 10703 0
10600 -10583 0
10600 -10547 0
10600 -10546 0
10600 -10522 0
-10600 10583 10547 10546 10522 0
10601 -10503 0
10601 -10480 0
-10601 10503 10480 0
10602 -10503 0
10602 -10712 0
-10602 10503 10712 0
10608 -10517 0
10608 -10547 0
10608 -10546 0
-10608 10517 10547 10546 0
10609 -10521 0
10609 -10493 0
-10609 10521 10493 0
10610 -10503 0
10610 -10493 0
-10610 10503 10493 0
10605 -10735 0
10605 -10503 0
10605 -10522 0
10605 -10498 0
-10605 10735 10503 10522 10498 0
10606 -10616 0
10606 -10501 0
-10606 10616 10501 0
10613 -10503 0
10613 -10712 0
-10613 10503 10712 0
10614 -10583 0
10614 -10712 0
-10614 10583 10712 0
10615 -10547 0
10615 -10546 0
-10615 10547 10546 0
10595 -10583 0
10595 -10547 0
10595 -10546 0
10595 -10522 0
-10595 10583 10547 10546 10522 0
10596 -10517 0
10596 -10521 0
10596 -10712 0
-10596 10517 10521 10712 0
10597 -10521 0
10597 -10522 0
10597 -10523 0
-10597 10521 10522 10523 0
10645 10585 0
10645 10579 0
10645 10580 0
10645 10622 0
-10645 -10585 -10579 -10580 -10622 0
10754 10530 0
10754 10531 0
-10754 -10530 -10531 0
10532 10585 0
10532 10579 0
10532 10580 0
-10532 -10585 -10579 -10580 0
10536 10537 0
10536 10547 0
10536 10583 0
10536 10584 0
-10536 -10537 -10547 -10583 -10584 0
10756 10542 0
10756 10543 0
-10756 -10542 -10543 0
10544 10545 0
10544 10546 0
10544 10547 0
10544 10583 0
-10544 -10545 -10546 -10547 -10583 0
10549 10686 0
10549 10620 0
10549 10626 0
-10549 -10686 -10620 -10626 0
10653 10554 0
10653 10555 0
10653 10561 0
-10653 -10554 -10555 -10561 0
10667 10558 0
10667 10559 0
10667 10560 0
10667 10561 0
-10667 -10558 -10559 -10560 -10561 0
10562 10563 0
10562 10564 0
-10562 -10563 -10564 0
10565 10566 0
10565 10567 0
10565 10568 0
10565 10626 0
-10565 -10566 -10567 -10568 -10626 0
10706 10584 0
10706 10585 0
10706 10579 0
10706 10580 0
-10706 -10584 -10585 -10579 -10580 0
10772 10576 0
10772 10577 0
-10772 -10576 -10577 0
10578 10579 0
10578 10580 0
-10578 -10579 -10580 0
10581 10635 0
10581 10583 0
10581 10584 0
10581 10585 0
-10581 -10635 -10583 -10584 -10585 0
10586 10587 0
10586 10588 0
-10586 -10587 -10588 0
10589 10590 0
10589 10591 0
10589 10592 0
10589 10711 0
-10589 -10590 -10591 -10592 -10711 0
10722 10595 0
10722 10596 0
10722 10597 0
10722 10616 0
-10722 -10595 -10596 -10597 -10616 0
10725 10600 0
10725 10601 0
10725 10602 0
10725 10616 0
-10725 -10600 -10601 -10602 -10616 0
10728 10605 0
10728 10606 0
-10728 -10605 -10606 0
10607 10608 0
10607 10609 0
10607 10610 0
10607 10712 0
-10607 -10608 -10609 -10610 -10712 0
10740 10613 0
10740 10614 0
10740 10615 0
10740 10616 0
-10740 -10613 -10614 -10615 -10616 0
-10617 -10685 0
-10617 -10686 0
-10617 -10620 0
-10617 -10621 0
10617 10685 10686 10620 10621 0
-10622 -10705 0
-10622 -10701 0
10622 10705 10701 0
-10750 -10626 0
-10750 -10748 0
10750 10626 10748 0
-10752 -10629 0
-10752 -10630 0
-10752 -10631 0
-10752 -10748 0
10752 10629 10630 10631 10748 0
-10633 -10634 0
-10633 -10635 0
-10633 -10705 0
-10633 -10706 0
10633 10634 10635 10705 10706 0
-10638 -10639 0
-10638 -10640 0
10638 10639 10640 0
-10641 -10642 0
-10641 -10643 0
-10641 -10644 0
-10641 -10645 0
10641 10642 10643 10644 10645 0
-10758 -10647 0
-10758 -10648 0
-10758 -10649 0
-10758 -10748 0
10758 10647 10648 10649 10748 0
-10760 -10652 0
-10760 -10653 0
10760 10652 10653 0
-10762 -10655 0
-10762 -10656 0
-10762 -10661 0
10762 10655 10656 10661 0
-10658 -10684 0
-10658 -10685 0
10658 10684 10685 0
-10661 -10662 0
-10661 -10663 0
10661 10662 10663 0
-10764 -10665 0
-10764 -10666 0
-10764 -10667 0
10764 10665 10666 10667 0
-10668 -10669 0
-10668 -10670 0
10668 10669 10670 0
-10766 -10672 0
-10766 -10673 0
-10766 -10675 0
10766 10672 10673 10675 0
-10675 -10676 0
-10675 -10677 0
10675 10676 10677 0
-10768 -10679 0
-10768 -10680 0
-10768 -10681 0
-10768 -10691 0
10768 10679 10680 10681 10691 0
-10683 -10684 0
-10683 -10685 0
-10683 -10686 0
10683 10684 10685 10686 0
-10687 -10688 0
-10687 -10689 0
-10687 -10690 0
10687 10688 10689 10690 0
-10691 -10692 0
-10691 -10693 0
10691 10692 10693 0
-10770 -10695 0
-10770 -10696 0
-10770 -10697 0
-10770 -10698 0
10770 10695 10696 10697 10698 0
-10699 -10705 0
-10699 -10701 0
-10699 -10702 0
10699 10705 10701 10702 0
-10703 -10704 0
-10703 -10705 0
-10703 -10706 0
10703 10704 10705 10706 0
-10774 -10708 0
-10774 -10709 0
-10774 -10748 0
10774 10708 10709 10748 0
-10711 -10712 0
-10711 -10713 0
10711 10712 10713 0
-10776 -10715 0
-10776 -10716 0
-10776 -10717 0
-10776 -10735 0
10776 10715 10716 10717 10735 0
-10778 -10720 0
-10778 -10721 0
-10778 -10722 0
10778 10720 10721 10722 0
-10780 -10724 0
-10780 -10725 0
10780 10724 10725 0
-10782 -10727 0
-10782 -10728 0
10782 10727 10728 0
-10729 -10730 0
-10729 -10731 0
10729 10730 10731 0
-10784 -10733 0
-10784 -10734 0
10784 10733 10734 0
-10735 -10736 0
-10735 -10737 0
10735 10736 10737 0
-10786 -10739 0
-10786 -10740 0
10786 10739 10740 0
-10788 -10742 0
-10788 -10743 0
-10788 -10748 0
10788 10742 10743 10748 0
-10790 -10746 0
-10790 -10747 0
-10790 -10748 0
10790 10746 10747 10748 0
-10750 11294 0
10750 -11294 0
-10752 11288 0
10752 -11288 0
-10754 11214 0
10754 -11214 0
-10756 11380 0
10756 -11380 0
-10758 11354 0
10758 -11354 0
-10760 11234 0
10760 -11234 0
-10762 11248 0
10762 -11248 0
-10764 11108 0
10764 -11108 0
-10766 11370 0
10766 -11370 0
-10768 11252 0
10768 -11252 0
-10770 11251 0
10770 -11251 0
-10772 11215 0
10772 -11215 0
-10774 10830 0
10774 -10830 0
-10776 10840 0
10776 -10840 0
-10778 11191 0
10778 -11191 0
-10780 11148 0
10780 -11148 0
-10782 11166 0
10782 -11166 0
-10784 11161 0
10784 -11161 0
-10786 10882 0
10786 -10882 0
-10788 11260 0
10788 -11260 0
-10790 11308 0
10790 -11308 0
11229 11416 0
-11229 -11416 0
11205 11214 0
-11205 -11214 0
11213 11380 0
-11213 -11380 0
11289 11294 0
-11289 -11294 0
11353 11234 0
-11353 -11234 0
11235 11354 0
-11235 -11354 0
11352 11248 0
-11352 -11248 0
11253 11370 0
-11253 -11370 0
11236 11288 0
-11236 -11288 0
11369 11252 0
-11369 -11252 0
11247 11108 0
-11247 -11108 0
11232 11308 0
-11232 -11308 0
11373 11251 0
-11373 -11251 0
11366 11229 0
-11366 -11229 0
11303 11215 0
-11303 -11215 0
11259 11251 0
-11259 -11251 0
11381 11214 0
-11381 -11214 0
11258 11215 0
-11258 -11215 0
11025 11260 0
-11025 -11260 0
11028 10830 0
-11028 -10830 0
10831 10840 0
-10831 -10840 0
10833 11191 0
-10833 -11191 0
11169 11370 0
-11169 -11370 0
11185 11251 0
-11185 -11251 0
11040 10840 0
-11040 -10840 0
11189 11215 0
-11189 -11215 0
11048 11191 0
-11048 -11191 0
11190 11380 0
-11190 -11380 0
11054 11148 0
-11054 -11148 0
11171 11214 0
-11171 -11214 0
11284 11403 0
-11284 -11403 0
11068 10882 0
-11068 -10882 0
10855 11148 0
-10855 -11148 0
10857 11166 0
-10857 -11166 0
11071 11074 0
-11071 -11074 0
11072 11260 0
-11072 -11260 0
10866 10864 0
-10866 -10864 0
11074 10866 0
-11074 -10866 0
11077 11080 0
-11077 -11080 0
11078 11308 0
-11078 -11308 0
10874 10872 0
-10874 -10872 0
11416 10874 0
-11416 -10874 0
10878 10876 0
-10878 -10876 0
11080 10878 0
-11080 -10878 0
10879 11161 0
-10879 -11161 0
10881 10882 0
-10881 -10882 0
-11372 11232 0
-11372 11233 0
11372 -11232 -11233 0
-11307 11294 0
-11307 11236 0
-11307 11235 0
-11307 11234 0
11307 -11294 -11236 -11235 -11234 0
-11302 11232 0
-11302 11233 0
11302 -11232 -11233 0
-11310 11232 0
-11310 11233 0
11310 -11232 -11233 0
-11311 11205 0
-11311 11215 0
11311 -11205 -11215 0
-11312 11214 0
-11312 11303 0
11312 -11214 -11303 0
-11330 11229 0
-11330 11352 0
11330 -11229 -11352 0
-11331 11232 0
-11331 11229 0
11331 -11232 -11229 0
-11337 11247 0
-11337 11369 0
11337 -11247 -11369 0
-11338 11247 0
-11338 11370 0
11338 -11247 -11370 0
-11344 11229 0
-11344 11248 0
-11344 11108 0
11344 -11229 -11248 -11108 0
-11345 11229 0
-11345 11370 0
11345 -11229 -11370 0
-11356 11108 0
-11356 11253 0
11356 -11108 -11253 0
-11357 11247 0
-11357 11370 0
11357 -11247 -11370 0
-11358 11108 0
-11358 11369 0
11358 -11108 -11369 0
-11360 11229 0
-11360 11248 0
-11360 11108 0
-11360 11370 0
11360 -11229 -11248 -11108 -11370 0
-11361 11229 0
-11361 11252 0
11361 -11229 -11252 0
-11297 11294 0
-11297 11235 0
-11297 11234 0
11297 -11294 -11235 -11234 0
-11298 11294 0
-11298 11288 0
11298 -11294 -11288 0
-11299 11289 0
-11299 11236 0
11299 -11289 -11236 0
-11315 11294 0
-11315 11288 0
-11315 11354 0
11315 -11294 -11288 -11354 0
-11316 11289 0
-11316 11235 0
11316 -11289 -11235 0
-11317 11236 0
-11317 11235 0
11317 -11236 -11235 0
-11320 11353 0
-11320 11217 0
11320 -11353 -11217 0
-11323 11235 0
-11323 11236 0
-11323 11294 0
-11323 11326 0
11323 -11235 -11236 -11294 -11326 0
-11324 11352 0
-11324 11232 0
-11324 11233 0
11324 -11352 -11232 -11233 0
-11333 11236 0
-11333 11294 0
-11333 11351 0
-11333 11336 0
11333 -11236 -11294 -11351 -11336 0
-11334 11247 0
-11334 11232 0
-11334 11233 0
11334 -11247 -11232 -11233 0
-11340 11370 0
-11340 11108 0
-11340 11248 0
-11340 11230 0
11340 -11370 -11108 -11248 -11230 0
-11341 11253 0
-11341 11232 0
-11341 11233 0
11341 -11253 -11232 -11233 0
-11347 11236 0
-11347 11294 0
-11347 11351 0
-11347 11355 0
11347 -11236 -11294 -11351 -11355 0
-11348 11369 0
-11348 11232 0
-11348 11233 0
11348 -11369 -11232 -11233 0
-11349 11248 0
-11349 11308 0
-11349 11355 0
11349 -11248 -11308 -11355 0
-11363 11247 0
-11363 11248 0
-11363 11367 0
-11363 11230 0
11363 -11247 -11248 -11367 -11230 0
-11364 11373 0
-11364 11232 0
-11364 11233 0
11364 -11373 -11232 -11233 0
-11365 11373 0
-11365 11374 0
11365 -11373 -11374 0
-11376 11258 0
-11376 11251 0
-11376 11025 0
-11376 11379 0
11376 -11258 -11251 -11025 -11379 0
-11377 11028 0
-11377 11257 0
11377 -11028 -11257 0
-11404 11258 0
-11404 11251 0
-11404 11025 0
-11404 11379 0
11404 -11258 -11251 -11025 -11379 0
-11405 11028 0
-11405 11257 0
11405 -11028 -11257 0
-11398 11215 0
-11398 11380 0
-11398 11166 0
11398 -11215 -11380 -11166 0
-11399 11185 0
-11399 11189 0
-11399 11380 0
11399 -11185 -11189 -11380 0
-11383 11380 0
-11383 11040 0
11383 -11380 -11040 0
-11384 11171 0
-11384 11190 0
11384 -11171 -11190 0
-11385 11189 0
-11385 11171 0
11385 -11189 -11171 0
-11388 11048 0
-11388 11214 0
11388 -11048 -11214 0
-11389 11190 0
-11389 11214 0
11389 -11190 -11214 0
-11392 11054 0
-11392 11380 0
-11392 11215 0
11392 -11054 -11380 -11215 0
-11395 11171 0
-11395 11284 0
-11395 11397 0
11395 -11171 -11284 -11397 0
-11401 11284 0
-11401 11275 0
11401 -11284 -11275 0
-11402 11370 0
-11402 11403 0
11402 -11370 -11403 0
-11407 11068 0
-11407 11380 0
11407 -11068 -11380 0
-11410 11071 0
-11410 11072 0
11410 -11071 -11072 0
-11411 11074 0
-11411 11260 0
11411 -11074 -11260 0
-11414 11077 0
-11414 11078 0
11414 -11077 -11078 0
-11415 11080 0
-11415 11308 0
11415 -11080 -11308 0
11255 -11308 0
11255 -11285 0
-11255 11308 11285 0
11256 -11213 0
11256 -11214 0
-11256 11213 11214 0
11222 -11289 0
11222 -11236 0
11222 -11235 0
11222 -11353 0
-11222 11289 11236 11235 11353 0
11223 -11289 0
11223 -11288 0
11223 -11354 0
-11223 11289 11288 11354 0
11226 -11232 0
11226 -11352 0
11226 -11370 0
11226 -11369 0
-11226 11232 11352 11370 11369 0
11227 -11232 0
11227 -11352 0
11227 -11247 0
-11227 11232 11352 11247 0
11228 -11248 0
11228 -11108 0
-11228 11248 11108 0
11231 -11289 0
11231 -11288 0
11231 -11354 0
11231 -11353 0
-11231 11289 11288 11354 11353 0
11198 -11416 0
11198 -11200 0
11198 -11204 0
11198 -11306 0
-11198 11416 11200 11204 11306 0
11199 -11205 0
11199 -11416 0
11199 -11301 0
-11199 11205 11416 11301 0
11210 -11416 0
11210 -11374 0
11210 -11212 0
11210 -11306 0
-11210 11416 11374 11212 11306 0
11211 -11213 0
11211 -11416 0
11211 -11309 0
-11211 11213 11416 11309 0
11244 -11416 0
11244 -11246 0
11244 -11249 0
11244 -11254 0
-11244 11416 11246 11249 11254 0
11245 -11303 0
11245 -11416 0
11245 -11371 0
-11245 11303 11416 11371 0
11268 -11251 0
11268 -11215 0
11268 -11214 0
11268 -11190 0
-11268 11251 11215 11214 11190 0
11269 -11171 0
11269 -11148 0
-11269 11171 11148 0
11270 -11171 0
11270 -11380 0
-11270 11171 11380 0
11276 -11185 0
11276 -11215 0
11276 -11214 0
-11276 11185 11215 11214 0
11277 -11189 0
11277 -11161 0
-11277 11189 11161 0
11278 -11171 0
11278 -11161 0
-11278 11171 11161 0
11273 -11403 0
11273 -11171 0
11273 -11190 0
11273 -11166 0
-11273 11403 11171 11190 11166 0
11274 -11284 0
11274 -11169 0
-11274 11284 11169 0
11281 -11171 0
11281 -11380 0
-11281 11171 11380 0
11282 -11251 0
11282 -11380 0
-11282 11251 11380 0
11283 -11215 0
11283 -11214 0
-11283 11215 11214 0
11263 -11251 0
11263 -11215 0
11263 -11214 0
11263 -11190 0
-11263 11251 11215 11214 11190 0
11264 -11185 0
11264 -11189 0
11264 -11380 0
-11264 11185 11189 11380 0
11265 -11189 0
11265 -11190 0
11265 -11191 0
-11265 11189 11190 11191 0
11313 11253 0
11313 11247 0
11313 11248 0
11313 11290 0
-11313 -11253 -11247 -11248 -11290 0
11422 11198 0
11422 11199 0
-11422 -11198 -11199 0
11200 11253 0
11200 11247 0
11200 11248 0
-11200 -11253 -11247 -11248 0
11204 11205 0
11204 11215 0
11204 11251 0
11204 11252 0
-11204 -11205 -11215 -11251 -11252 0
11424 11210 0
11424 11211 0
-11424 -11210 -11211 0
11212 11213 0
11212 11214 0
11212 11215 0
11212 11251 0
-11212 -11213 -11214 -11215 -11251 0
11217 11354 0
11217 11288 0
11217 11294 0
-11217 -11354 -11288 -11294 0
11321 11222 0
11321 11223 0
11321 11229 0
-11321 -11222 -11223 -11229 0
11335 11226 0
11335 11227 0
11335 11228 0
11335 11229 0
-11335 -11226 -11227 -11228 -11229 0
11230 11231 0
11230 11232 0
-11230 -11231 -11232 0
11233 11234 0
11233 11235 0
11233 11236 0
11233 11294 0
-11233 -11234 -11235 -11236 -11294 0
11374 11252 0
11374 11253 0
11374 11247 0
11374 11248 0
-11374 -11252 -11253 -11247 -11248 0
11440 11244 0
11440 11245 0
-11440 -11244 -11245 0
11246 11247 0
11246 11248 0
-11246 -11247 -11248 0
11249 11303 0
11249 11251 0
11249 11252 0
11249 11253 0
-11249 -11303 -11251 -11252 -11253 0
11254 11255 0
11254 11256 0
-11254 -11255 -11256 0
11257 11258 0
11257 11259 0
11257 11260 0
11257 11379 0
-11257 -11258 -11259 -11260 -11379 0
11390 11263 0
11390 11264 0
11390 11265 0
11390 11284 0
-11390 -11263 -11264 -11265 -11284 0
11393 11268 0
11393 11269 0
11393 11270 0
11393 11284 0
-11393 -11268 -11269 -11270 -11284 0
11396 11273 0
11396 11274 0
-11396 -11273 -11274 0
11275 11276 0
11275 11277 0
11275 11278 0
11275 11380 0
-11275 -11276 -11277 -11278 -11380 0
11408 11281 0
11408 11282 0
11408 11283 0
11408 11284 0
-11408 -11281 -11282 -11283 -11284 0
-11285 -11353 0
-11285 -11354 0
-11285 -11288 0
-11285 -11289 0
11285 11353 11354 11288 11289 0
-11290 -11373 0
-11290 -11369 0
11290 11373 11369 0
-11418 -11294 0
-11418 -11416 0
11418 11294 11416 0
-11420 -11297 0
-11420 -11298 0
-11420 -11299 0
-11420 -11416 0
11420 11297 11298 11299 11416 0
-11301 -11302 0
-11301 -11303 0
-11301 -11373 0
-11301 -11374 0
11301 11302 11303 11373 11374 0
-11306 -11307 0
-11306 -11308 0
11306 11307 11308 0
-11309 -11310 0
-11309 -11311 0
-11309 -11312 0
-11309 -11313 0
11309 11310 11311 11312 11313 0
-11426 -11315 0
-11426 -11316 0
-11426 -11317 0
-11426 -11416 0
11426 11315 11316 11317 11416 0
-11428 -11320 0
-11428 -11321 0
11428 11320 11321 0
-11430 -11323 0
-11430 -11324 0
-11430 -11329 0
11430 11323 11324 11329 0
-11326 -11352 0
-11326 -11353 0
11326 11352 11353 0
-11329 -11330 0
-11329 -11331 0
11329 11330 11331 0
-11432 -11333 0
-11432 -11334 0
-11432 -11335 0
11432 11333 11334 11335 0
-11336 -11337 0
-11336 -11338 0
11336 11337 11338 0
-11434 -11340 0
-11434 -11341 0
-11434 -11343 0
11434 11340 11341 11343 0
-11343 -11344 0
-11343 -11345 0
11343 11344 11345 0
-11436 -11347 0
-11436 -11348 0
-11436 -11349 0
-11436 -11359 0
11436 11347 11348 11349 11359 0
-11351 -11352 0
-11351 -11353 0
-11351 -11354 0
11351 11352 11353 11354 0
-11355 -11356 0
-11355 -11357 0
-11355 -11358 0
11355 11356 11357 11358 0
-11359 -11360 0
-11359 -11361 0
11359 11360 11361 0
-11438 -11363 0
-11438 -11364 0
-11438 -11365 0
-11438 -11366 0
11438 11363 11364 11365 11366 0
-11367 -11373 0
-11367 -11369 0
-11367 -11370 0
11367 11373 11369 11370 0
-11371 -11372 0
-11371 -11373 0
-11371 -11374 0
11371 11372 11373 11374 0
-11442 -11376 0
-11442 -11377 0
-11442 -11416 0
11442 11376 11377 11416 0
-11379 -11380 0
-11379 -11381 0
11379 11380 11381 0
-11444 -11383 0
-11444 -11384 0
-11444 -11385 0
-11444 -11403 0
11444 11383 11384 11385 11403 0
-11446 -11388 0
-11446 -11389 0
-11446 -11390 0
11446 11388 11389 11390 0
-11448 -11392 0
-11448 -11393 0
11448 11392 11393 0
-11450 -11395 0
-11450 -11396 0
11450 11395 11396 0
-11397 -11398 0
-11397 -11399 0
11397 11398 11399 0
-11452 -11401 0
-11452 -11402 0
11452 11401 11402 0
-11403 -11404 0
-11403 -11405 0
11403 11404 11405 0
-11454 -11407 0
-11454 -11408 0
11454 11407 11408 0
-11456 -11410 0
-11456 -11411 0
-11456 -11416 0
11456 11410 11411 11416 0
-11458 -11414 0
-11458 -11415 0
-11458 -11416 0
11458 11414 11415 11416 0
-11418 11962 0
11418 -11962 0
-11420 11956 0
11420 -11956 0
-11422 11882 0
11422 -11882 0
-11424 12048 0
11424 -12048 0
-11426 12022 0
11426 -12022 0
-11428 11902 0
11428 -11902 0
-11430 11916 0
11430 -11916 0
-11432 11776 0
11432 -11776 0
-11434 12038 0
11434 -12038 0
-11436 11920 0
11436 -11920 0
-11438 11919 0
11438 -11919 0
-11440 11883 0
11440 -11883 0
-11442 11498 0
11442 -11498 0
-11444 11508 0
11444 -11508 0
-11446 11859 0
11446 -11859 0
-11448 11816 0
11448 -11816 0
-11450 11834 0
11450 -11834 0
-11452 11829 0
11452 -11829 0
-11454 11550 0
11454 -11550 0
-11456 11928 0
11456 -11928 0
-11458 11976 0
11458 -11976 0
11897 12084 0
-11897 -12084 0
11873 11882 0
-11873 -11882 0
11881 12048 0
-11881 -12048 0
11957 11962 0
-11957 -11962 0
12021 11902 0
-12021 -11902 0
11903 12022 0
-11903 -12022 0
12020 11916 0
-12020 -11916 0
11921 12038 0
-11921 -12038 0
11904 11956 0
-11904 -11956 0
12037 11920 0
-12037 -11920 0
11915 11776 0
-11915 -11776 0
11900 11976 0
-11900 -11976 0
12041 11919 0
-12041 -11919 0
12034 11897 0
-12034 -11897 0
11971 11883 0
-11971 -11883 0
11927 11919 0
-11927 -11919 0
12049 11882 0
-12049 -11882 0
11926 11883 0
-11926 -11883 0
11693 11928 0
-11693 -11928 0
11696 11498 0
-11696 -11498 0
11499 11508 0
-11499 -11508 0
11501 11859 0
-11501 -11859 0
11837 12038 0
-11837 -12038 0
11853 11919 0
-11853 -11919 0
11708 11508 0
-11708 -11508 0
11857 11883 0
-11857 -11883 0
11716 11859 0
-11716 -11859 0
11858 12048 0
-11858 -12048 0
11722 11816 0
-11722 -11816 0
11839 11882 0
-11839 -11882 0
11952 12071 0
-11952 -12071 0
11736 11550 0
-11736 -11550 0
11523 11816 0
-11523 -11816 0
11525 11834 0
-11525 -11834 0
11739 11742 0
-11739 -11742 0
11740 11928 0
-11740 -11928 0
11534 11532 0
-11534 -11532 0
11742 11534 0
-11742 -11534 0
11745 11748 0
-11745 -11748 0
11746 11976 0
-11746 -11976 0
11542 11540 0
-11542 -11540 0
12084 11542 0
-12084 -11542 0
11546 11544 0
-11546 -11544 0
11748 11546 0
-11748 -11546 0
11547 11829 0
-11547 -11829 0
11549 11550 0
-11549 -11550 0
-12040 11900 0
-12040 11901 0
12040 -11900 -11901 0
-11975 11962 0
-11975 11904 0
-11975 11903 0
-11975 11902 0
11975 -11962 -11904 -11903 -11902 0
-11970 11900 0
-11970 11901 0
11970 -11900 -11901 0
-11978 11900 0
-11978 11901 0
11978 -11900 -11901 0
-11979 11873 0
-11979 11883 0
11979 -11873 -11883 0
-11980 11882 0
-11980 11971 0
11980 -11882 -11971 0
-11998 11897 0
-11998 12020 0
11998 -11897 -12020 0
-11999 11900 0
-11999 11897 0
11999 -11900 -11897 0
-12005 11915 0
-12005 12037 0
12005 -11915 -12037 0
-12006 11915 0
-12006 12038 0
12006 -11915 -12038 0
-12012 11897 0
-12012 11916 0
-12012 11776 0
12012 -11897 -11916 -11776 0
-12013 11897 0
-12013 12038 0
12013 -11897 -12038 0
-12024 11776 0
-12024 11921 0
12024 -11776 -11921 0
-12025 11915 0
-12025 12038 0
12025 -11915 -12038 0
-12026 11776 0
-12026 12037 0
12026 -11776 -12037 0
-12028 11897 0
-12028 11916 0
-12028 11776 0
-12028 12038 0
12028 -11897 -11916 -11776 -12038 0
-12029 11897 0
-12029 11920 0
12029 -11897 -11920 0
-11965 11962 0
-11965 11903 0
-11965 11902 0
11965 -11962 -11903 -11902 0
-11966 11962 0
-11966 11956 0
11966 -11962 -11956 0
-11967 11957 0
-11967 11904 0
11967 -11957 -11904 0
-11983 11962 0
-11983 11956 0
-11983 12022 0
11983 -11962 -11956 -12022 0
-11984 11957 0
-11984 11903 0
11984 -11957 -11903 0
-11985 11904 0
-11985 11903 0
11985 -11904 -11903 0
-11988 12021 0
-11988 11885 0
11988 -12021 -11885 0
-11991 11903 0
-11991 11904 0
-11991 11962 0
-11991 11994 0
11991 -11903 -11904 -11962 -11994 0
-11992 12020 0
-11992 11900 0
-11992 11901 0
11992 -12020 -11900 -11901 0
-12001 11904 0
-12001 11962 0
-12001 12019 0
-12001 12004 0
12001 -11904 -11962 -12019 -12004 0
-12002 11915 0
-12002 11900 0
-12002 11901 0
12002 -11915 -11900 -11901 0
-12008 12038 0
-12008 11776 0
-12008 11916 0
-12008 11898 0
12008 -12038 -11776 -11916 -11898 0
-12009 11921 0
-12009 11900 0
-12009 11901 0
12009 -11921 -11900 -11901 0
-12015 11904 0
-12015 11962 0
-12015 12019 0
-12015 12023 0
12015 -11904 -11962 -12019 -12023 0
-12016 12037 0
-12016 11900 0
-12016 11901 0
12016 -12037 -11900 -11901 0
-12017 11916 0
-12017 11976 0
-12017 12023 0
12017 -11916 -11976 -12023 0
-12031 11915 0
-12031 11916 0
-12031 12035 0
-12031 11898 0
12031 -11915 -11916 -12035 -11898 0
-12032 12041 0
-12032 11900 0
-12032 11901 0
12032 -12041 -11900 -11901 0
-12033 12041 0
-12033 12042 0
12033 -12041 -12042 0
-12044 11926 0
-12044 11919 0
-12044 11693 0
-12044 12047 0
12044 -11926 -11919 -11693 -12047 0
-12045 11696 0
-12045 11925 0
12045 -11696 -11925 0
-12072 11926 0
-12072 11919 0
-12072 11693 0
-12072 12047 0
12072 -11926 -11919 -11693 -12047 0
-12073 11696 0
-12073 11925 0
12073 -11696 -11925 0
-12066 11883 0
-12066 12048 0
-12066 11834 0
12066 -11883 -12048 -11834 0
-12067 11853 0
-12067 11857 0
-12067 12048 0
12067 -11853 -11857 -12048 0
-12051 12048 0
-12051 11708 0
12051 -12048 -11708 0
-12052 11839 0
-12052 11858 0
12052 -11839 -11858 0
-12053 11857 0
-12053 11839 0
12053 -11857 -11839 0
-12056 11716 0
-12056 11882 0
12056 -11716 -11882 0
-12057 11858 0
-12057 11882 0
12057 -11858 -11882 0
-12060 11722 0
-12060 12048 0
-12060 11883 0
12060 -11722 -12048 -11883 0
-12063 11839 0
-12063 11952 0
-12063 12065 0
12063 -11839 -11952 -12065 0
-12069 11952 0
-12069 11943 0
12069 -11952 -11943 0
-12070 12038 0
-12070 12071 0
12070 -12038 -12071 0
-12075 11736 0
-12075 12048 0
12075 -11736 -12048 0
-12078 11739 0
-12078 11740 0
12078 -11739 -11740 0
-12079 11742 0
-12079 11928 0
12079 -11742 -11928 0
-12082 11745 0
-12082 11746 0
12082 -11745 -11746 0
-12083 11748 0
-12083 11976 0
12083 -11748 -11976 0
11923 -11976 0
11923 -11953 0
-11923 11976 11953 0
11924 -11881 0
11924 -11882 0
-11924 11881 11882 0
11890 -11957 0
11890 -11904 0
11890 -11903 0
11890 -12021 0
-11890 11957 11904 11903 12021 0
11891 -11957 0
11891 -11956 0
11891 -12022 0
-11891 11957 11956 12022 0
11894 -11900 0
11894 -12020 0
11894 -12038 0
11894 -12037 0
-11894 11900 12020 12038 12037 0
11895 -11900 0
11895 -12020 0
11895 -11915 0
-11895 11900 12020 11915 0
11896 -11916 0
11896 -11776 0
-11896 11916 11776 0
11899 -11957 0
11899 -11956 0
11899 -12022 0
11899 -12021 0
-11899 11957 11956 12022 12021 0
11866 -12084 0
11866 -11868 0
11866 -11872 0
11866 -11974 0
-11866 12084 11868 11872 11974 0
11867 -11873 0
11867 -12084 0
11867 -11969 0
-11867 11873 12084 11969 0
11878 -12084 0
11878 -12042 0
11878 -11880 0
11878 -11974 0
-11878 12084 12042 11880 11974 0
11879 -11881 0
11879 -12084 0
11879 -11977 0
-11879 11881 12084 11977 0
11912 -12084 0
11912 -11914 0
11912 -11917 0
11912 -11922 0
-11912 12084 11914 11917 11922 0
11913 -11971 0
11913 -12084 0
11913 -12039 0
-11913 11971 12084 12039 0
11936 -11919 0
11936 -11883 0
11936 -11882 0
11936 -11858 0
-11936 11919 11883 11882 11858 0
11937 -11839 0
11937 -11816 0
-11937 11839 11816 0
11938 -11839 0
11938 -12048 0
-11938 11839 12048 0
11944 -11853 0
11944 -11883 0
11944 -11882 0
-11944 11853 11883 11882 0
11945 -11857 0
11945 -11829 0
-11945 11857 11829 0
11946 -11839 0
11946 -11829 0
-11946 11839 11829 0
11941 -12071 0
11941 -11839 0
11941 -11858 0
11941 -11834 0
-11941 12071 11839 11858 11834 0
11942 -11952 0
11942 -11837 0
-11942 11952 11837 0
11949 -11839 0
11949 -12048 0
-11949 11839 12048 0
11950 -11919 0
11950 -12048 0
-11950 11919 12048 0
11951 -11883 0
11951 -11882 0
-11951 11883 11882 0
11931 -11919 0
11931 -11883 0
11931 -11882 0
11931 -11858 0
-11931 11919 11883 11882 11858 0
11932 -11853 0
11932 -11857 0
11932 -12048 0
-11932 11853 11857 12048 0
11933 -11857 0
11933 -11858 0
11933 -11859 0
-11933 11857 11858 11859 0
11981 11921 0
11981 11915 0
11981 11916 0
11981 11958 0
-11981 -11921 -11915 -11916 -11958 0
12090 11866 0
12090 11867 0
-12090 -11866 -11867 0
11868 11921 0
11868 11915 0
11868 11916 0
-11868 -11921 -11915 -11916 0
11872 11873 0
11872 11883 0
11872 11919 0
11872 11920 0
-11872 -11873 -11883 -11919 -11920 0
12092 11878 0
12092 11879 0
-12092 -11878 -11879 0
11880 11881 0
11880 11882 0
11880 11883 0
11880 11919 0
-11880 -11881 -11882 -11883 -11919 0
11885 12022 0
11885 11956 0
11885 11962 0
-11885 -12022 -11956 -11962 0
11989 11890 0
11989 11891 0
11989 11897 0
-11989 -11890 -11891 -11897 0
12003 11894 0
12003 11895 0
12003 11896 0
12003 11897 0
-12003 -11894 -11895 -11896 -11897 0
11898 11899 0
11898 11900 0
-11898 -11899 -11900 0
11901 11902 0
11901 11903 0
11901 11904 0
11901 11962 0
-11901 -11902 -11903 -11904 -11962 0
12042 11920 0
12042 11921 0
12042 11915 0
12042 11916 0
-12042 -11920 -11921 -11915 -11916 0
12108 11912 0
12108 11913 0
-12108 -11912 -11913 0
11914 11915 0
11914 11916 0
-11914 -11915 -11916 0
11917 11971 0
11917 11919 0
11917 11920 0
11917 11921 0
-11917 -11971 -11919 -11920 -11921 0
11922 11923 0
11922 11924 0
-11922 -11923 -11924 0
11925 11926 0
11925 11927 0
11925 11928 0
11925 12047 0
-11925 -11926 -11927 -11928 -12047 0
12058 11931 0
12058 11932 0
12058 11933 0
12058 11952 0
-12058 -11931 -11932 -11933 -11952 0
12061 11936 0
12061 11937 0
12061 11938 0
12061 11952 0
-12061 -11936 -11937 -11938 -11952 0
12064 11941 0
12064 11942 0
-12064 -11941 -11942 0
11943 11944 0
11943 11945 0
11943 11946 0
11943 12048 0
-11943 -11944 -11945 -11946 -12048 0
12076 11949 0
12076 11950 0
12076 11951 0
12076 11952 0
-12076 -11949 -11950 -11951 -11952 0
-11953 -12021 0
-11953 -12022 0
-11953 -11956 0
-11953 -11957 0
11953 12021 12022 11956 11957 0
-11958 -12041 0
-11958 -12037 0
11958 12041 12037 0
-12086 -11962 0
-12086 -12084 0
12086 11962 12084 0
-12088 -11965 0
-12088 -11966 0
-12088 -11967 0
-12088 -12084 0
12088 11965 11966 11967 12084 0
-11969 -11970 0
-11969 -11971 0
-11969 -12041 0
-11969 -12042 0
11969 11970 11971 12041 12042 0
-11974 -11975 0
-11974 -11976 0
11974 11975 11976 0
-11977 -11978 0
-11977 -11979 0
-11977 -11980 0
-11977 -11981 0
11977 11978 11979 11980 11981 0
-12094 -11983 0
-12094 -11984 0
-12094 -11985 0
-12094 -12084 0
12094 11983 11984 11985 12084 0
-12096 -11988 0
-12096 -11989 0
12096 11988 11989 0
-12098 -11991 0
-12098 -11992 0
-12098 -11997 0
12098 11991 11992 11997 0
-11994 -12020 0
-11994 -12021 0
11994 12020 12021 0
-11997 -11998 0
-11997 -11999 0
11997 11998 11999 0
-12100 -12001 0
-12100 -12002 0
-12100 -12003 0
12100 12001 12002 12003 0
-12004 -12005 0
-12004 -12006 0
12004 12005 12006 0
-12102 -12008 0
-12102 -12009 0
-12102 -12011 0
12102 12008 12009 12011 0
-12011 -12012 0
-12011 -12013 0
12011 12012 12013 0
-12104 -12015 0
-12104 -12016 0
-12104 -12017 0
-12104 -12027 0
12104 12015 12016 12017 12027 0
-12019 -12020 0
-12019 -12021 0
-12019 -12022 0
12019 12020 12021 12022 0
-12023 -12024 0
-12023 -12025 0
-12023 -12026 0
12023 12024 12025 12026 0
-12027 -12028 0
-12027 -12029 0
12027 12028 12029 0
-12106 -12031 0
-12106 -12032 0
-12106 -12033 0
-12106 -12034 0
12106 12031 12032 12033 12034 0
-12035 -12041 0
-12035 -12037 0
-12035 -12038 0
12035 12041 12037 12038 0
-12039 -12040 0
-12039 -12041 0
-12039 -12042 0
12039 12040 12041 12042 0
-12110 -12044 0
-12110 -12045 0
-12110 -12084 0
12110 12044 12045 12084 0
-12047 -12048 0
-12047 -12049 0
12047 12048 12049 0
-12112 -12051 0
-12112 -12052 0
-12112 -12053 0
-12112 -12071 0
12112 12051 12052 12053 12071 0
-12114 -12056 0
-12114 -12057 0
-12114 -12058 0
12114 12056 12057 12058 0
-12116 -12060 0
-12116 -12061 0
12116 12060 12061 0
-12118 -12063 0
-12118 -12064 0
12118 12063 12064 0
-12065 -12066 0
-12065 -12067 0
12065 12066 12067 0
-12120 -12069 0
-12120 -12070 0
12120 12069 12070 0
-12071 -12072 0
-12071 -12073 0
12071 12072 12073 0
-12122 -12075 0
-12122 -12076 0
12122 12075 12076 0
-12124 -12078 0
-12124 -12079 0
-12124 -12084 0
12124 12078 12079 12084 0
-12126 -12082 0
-12126 -12083 0
-12126 -12084 0
12126 12082 12083 12084 0
-12086 12630 0
12086 -12630 0
-12088 12624 0
12088 -12624 0
-12090 12550 0
12090 -12550 0
-12092 12716 0
12092 -12716 0
-12094 12690 0
12094 -12690 0
-12096 12570 0
12096 -12570 0
-12098 12584 0
12098 -12584 0
-12100 12444 0
12100 -12444 0
-12102 12706 0
12102 -12706 0
-12104 12588 0
12104 -12588 0
-12106 12587 0
12106 -12587 0
-12108 12551 0
12108 -12551 0
-12110 12166 0
12110 -12166 0
-12112 12176 0
12112 -12176 0
-12114 12527 0
12114 -12527 0
-12116 12484 0
12116 -12484 0
-12118 12502 0
12118 -12502 0
-12120 12497 0
12120 -12497 0
-12122 12218 0
12122 -12218 0
-12124 12596 0
12124 -12596 0
-12126 12644 0
12126 -12644 0
12565 12752 0
-12565 -12752 0
12541 12550 0
-12541 -12550 0
12549 12716 0
-12549 -12716 0
12625 12630 0
-12625 -12630 0
12689 12570 0
-12689 -12570 0
12571 12690 0
-12571 -12690 0
12688 12584 0
-12688 -12584 0
12589 12706 0
-12589 -12706 0
12572 12624 0
-12572 -12624 0
12705 12588 0
-12705 -12588 0
12583 12444 0
-12583 -12444 0
12568 12644 0
-12568 -12644 0
12709 12587 0
-12709 -12587 0
12702 12565 0
-12702 -12565 0
12639 12551 0
-12639 -12551 0
12595 12587 0
-12595 -12587 0
12717 12550 0
-12717 -12550 0
12594 12551 0
-12594 -12551 0
12361 12596 0
-12361 -12596 0
12364 12166 0
-12364 -12166 0
12167 12176 0
-12167 -12176 0
12169 12527 0
-12169 -12527 0
12505 12706 0
-12505 -12706 0
12521 12587 0
-12521 -12587 0
12376 12176 0
-12376 -12176 0
12525 12551 0
-12525 -12551 0
12384 12527 0
-12384 -12527 0
12526 12716 0
-12526 -12716 0
12390 12484 0
-12390 -12484 0
12507 12550 0
-12507 -12550 0
12620 12739 0
-12620 -12739 0
12404 12218 0
-12404 -12218 0
12191 12484 0
-12191 -12484 0
12193 12502 0
-12193 -12502 0
12407 12410 0
-12407 -12410 0
12408 12596 0
-12408 -12596 0
12202 12200 0
-12202 -12200 0
12410 12202 0
-12410 -12202 0
12413 12416 0
-12413 -12416 0
12414 12644 0
-12414 -12644 0
12210 12208 0
-12210 -12208 0
12752 12210 0
-12752 -12210 0
12214 12212 0
-12214 -12212 0
12416 12214 0
-12416 -12214 0
12215 12497 0
-12215 -12497 0
12217 12218 0
-12217 -12218 0
-12708 12568 0
-12708 12569 0
12708 -12568 -12569 0
-12643 12630 0
-12643 12572 0
-12643 12571 0
-12643 12570 0
12643 -12630 -12572 -12571 -12570 0
-12638 12568 0
-12638 12569 0
12638 -12568 -12569 0
-12646 12568 0
-12646 12569 0
12646 -12568 -12569 0
-12647 12541 0
-12647 12551 0
12647 -12541 -12551 0
-12648 12550 0
-12648 12639 0
12648 -12550 -12639 0
-12666 12565 0
-12666 12688 0
12666 -12565 -12688 0
-12667 12568 0
-12667 12565 0
12667 -12568 -12565 0
-12673 12583 0
-12673 12705 0
12673 -12583 -12705 0
-12674 12583 0
-12674 12706 0
12674 -12583 -12706 0
-12680 12565 0
-12680 12584 0
-12680 12444 0
12680 -12565 -12584 -12444 0
-12681 12565 0
-12681 12706 0
12681 -12565 -12706 0
-12692 12444 0
-12692 12589 0
12692 -12444 -12589 0
-12693 12583 0
-12693 12706 0
12693 -12583 -12706 0
-12694 12444 0
-12694 12705 0
12694 -12444 -12705 0
-12696 12565 0
-12696 12584 0
-12696 12444 0
-12696 12706 0
12696 -12565 -12584 -12444 -12706 0
-12697 12565 0
-12697 12588 0
12697 -12565 -12588 0
-12633 12630 0
-12633 12571 0
-12633 12570 0
12633 -12630 -12571 -12570 0
-12634 12630 0
-12634 12624 0
12634 -12630 -12624 0
-12635 12625 0
-12635 12572 0
12635 -12625 -12572 0
-12651 12630 0
-12651 12624 0
-12651 12690 0
12651 -12630 -12624 -12690 0
-12652 12625 0
-12652 12571 0
12652 -12625 -12571 0
-12653 12572 0
-12653 12571 0
12653 -12572 -12571 0
-12656 12689 0
-12656 12553 0
12656 -12689 -12553 0
-12659 12571 0
-12659 12572 0
-12659 12630 0
-12659 12662 0
12659 -12571 -12572 -12630 -12662 0
-12660 12688 0
-12660 12568 0
-12660 12569 0
12660 -12688 -12568 -12569 0
-12669 12572 0
-12669 12630 0
-12669 12687 0
-12669 12672 0
12669 -12572 -12630 -12687 -12672 0
-12670 12583 0
-12670 12568 0
-12670 12569 0
12670 -12583 -12568 -12569 0
-12676 12706 0
-12676 12444 0
-12676 12584 0
-12676 12566 0
12676 -12706 -12444 -12584 -12566 0
-12677 12589 0
-12677 12568 0
-12677 12569 0
12677 -12589 -12568 -12569 0
-12683 12572 0
-12683 12630 0
-12683 12687 0
-12683 12691 0
12683 -12572 -12630 -12687 -12691 0
-12684 12705 0
-12684 12568 0
-12684 12569 0
12684 -12705 -12568 -12569 0
-12685 12584 0
-12685 12644 0
-12685 12691 0
12685 -12584 -12644 -12691 0
-12699 12583 0
-12699 12584 0
-12699 12703 0
-12699 12566 0
12699 -12583 -12584 -12703 -12566 0
-12700 12709 0
-12700 12568 0
-12700 12569 0
12700 -12709 -12568 -12569 0
-12701 12709 0
-12701 12710 0
12701 -12709 -12710 0
-12712 12594 0
-12712 12587 0
-12712 12361 0
-12712 12715 0
12712 -12594 -12587 -12361 -12715 0
-12713 12364 0
-12713 12593 0
12713 -12364 -12593 0
-12740 12594 0
-12740 12587 0
-12740 12361 0
-12740 12715 0
12740 -12594 -12587 -12361 -12715 0
-12741 12364 0
-12741 12593 0
12741 -12364 -12593 0
-12734 12551 0
-12734 12716 0
-12734 12502 0
12734 -12551 -12716 -12502 0
-12735 12521 0
-12735 12525 0
-12735 12716 0
12735 -12521 -12525 -12716 0
-12719 12716 0
-12719 12376 0
12719 -12716 -12376 0
-12720 12507 0
-12720 12526 0
12720 -12507 -12526 0
-12721 12525 0
-12721 12507 0
12721 -12525 -12507 0
-12724 12384 0
-12724 12550 0
12724 -12384 -12550 0
-12725 12526 0
-12725 12550 0
12725 -12526 -12550 0
-12728 12390 0
-12728 12716 0
-12728 12551 0
12728 -12390 -12716 -12551 0
-12731 12507 0
-12731 12620 0
-12731 12733 0
12731 -12507 -12620 -12733 0
-12737 12620 0
-12737 12611 0
12737 -12620 -12611 0
-12738 12706 0
-12738 12739 0
12738 -12706 -12739 0
-12743 12404 0
-12743 12716 0
12743 -12404 -12716 0
-12746 12407 0
-12746 12408 0
12746 -12407 -12408 0
-12747 12410 0
-12747 12596 0
12747 -12410 -12596 0
-12750 12413 0
-12750 12414 0
12750 -12413 -12414 0
-12751 12416 0
-12751 12644 0
12751 -12416 -12644 0
12591 -12644 0
12591 -12621 0
-12591 12644 12621 0
12592 -12549 0
12592 -12550 0
-12592 12549 12550 0
12558 -12625 0
12558 -12572 0
12558 -12571 0
12558 -12689 0
-12558 12625 12572 12571 12689 0
12559 -12625 0
12559 -12624 0
12559 -12690 0
-12559 12625 12624 12690 0
12562 -12568 0
12562 -12688 0
12562 -12706 0
12562 -12705 0
-12562 12568 12688 12706 12705 0
12563 -12568 0
12563 -12688 0
12563 -12583 0
-12563 12568 12688 12583 0
12564 -12584 0
12564 -12444 0
-12564 12584 12444 0
12567 -12625 0
12567 -12624 0
12567 -12690 0
12567 -12689 0
-12567 12625 12624 12690 12689 0
12534 -12752 0
12534 -12536 0
12534 -12540 0
12534 -12642 0
-12534 12752 12536 12540 12642 0
12535 -12541 0
12535 -12752 0
12535 -12637 0
-12535 12541 12752 12637 0
12546 -12752 0
12546 -12710 0
12546 -12548 0
12546 -12642 0
-12546 12752 12710 12548 12642 0
12547 -12549 0
12547 -12752 0
12547 -12645 0
-12547 12549 12752 12645 0
12580 -12752 0
12580 -12582 0
12580 -12585 0
12580 -12590 0
-12580 12752 12582 12585 12590 0
12581 -12639 0
12581 -12752 0
12581 -12707 0
-12581 12639 12752 12707 0
12604 -12587 0
12604 -12551 0
12604 -12550 0
12604 -12526 0
-12604 12587 12551 12550 12526 0
12605 -12507 0
12605 -12484 0
-12605 12507 12484 0
12606 -12507 0
12606 -12716 0
-12606 12507 12716 0
12612 -12521 0
12612 -12551 0
12612 -12550 0
-12612 12521 12551 12550 0
12613 -12525 0
12613 -12497 0
-12613 12525 12497 0
12614 -12507 0
12614 -12497 0
-12614 12507 12497 0
12609 -12739 0
12609 -12507 0
12609 -12526 0
12609 -12502 0
-12609 12739 12507 12526 12502 0
12610 -12620 0
12610 -12505 0
-12610 12620 12505 0
12617 -12507 0
12617 -12716 0
-12617 12507 12716 0
12618 -12587 0
12618 -12716 0
-12618 12587 12716 0
12619 -12551 0
12619 -12550 0
-12619 12551 12550 0
12599 -12587 0
12599 -12551 0
12599 -12550 0
12599 -12526 0
-12599 12587 12551 12550 12526 0
12600 -12521 0
12600 -12525 0
12600 -12716 0
-12600 12521 12525 12716 0
12601 -12525 0
12601 -12526 0
12601 -12527 0
-12601 12525 12526 12527 0
12649 12589 0
12649 12583 0
12649 12584 0
12649 12626 0
-12649 -12589 -12583 -12584 -12626 0
12758 12534 0
12758 12535 0
-12758 -12534 -12535 0
12536 12589 0
12536 12583 0
12536 12584 0
-12536 -12589 -12583 -12584 0
12540 12541 0
12540 12551 0
12540 12587 0
12540 12588 0
-12540 -12541 -12551 -12587 -12588 0
12760 12546 0
12760 12547 0
-12760 -12546 -12547 0
12548 12549 0
12548 12550 0
12548 12551 0
12548 12587 0
-12548 -12549 -12550 -12551 -12587 0
12553 12690 0
12553 12624 0
12553 12630 0
-12553 -12690 -12624 -12630 0
12657 12558 0
12657 12559 0
12657 12565 0
-12657 -12558 -12559 -12565 0
12671 12562 0
12671 12563 0
12671 12564 0
12671 12565 0
-12671 -12562 -12563 -12564 -12565 0
12566 12567 0
12566 12568 0
-12566 -12567 -12568 0
12569 12570 0
12569 12571 0
12569 12572 0
12569 12630 0
-12569 -12570 -12571 -12572 -12630 0
12710 12588 0
12710 12589 0
12710 12583 0
12710 12584 0
-12710 -12588 -12589 -12583 -12584 0
12776 12580 0
12776 12581 0
-12776 -12580 -12581 0
12582 12583 0
12582 12584 0
-12582 -12583 -12584 0
12585 12639 0
12585 12587 0
12585 12588 0
12585 12589 0
-12585 -12639 -12587 -12588 -12589 0
12590 12591 0
12590 12592 0
-12590 -12591 -12592 0
12593 12594 0
12593 12595 0
12593 12596 0
12593 12715 0
-12593 -12594 -12595 -12596 -12715 0
12726 12599 0
12726 12600 0
12726 12601 0
12726 12620 0
-12726 -12599 -12600 -12601 -12620 0
12729 12604 0
12729 12605 0
12729 12606 0
12729 12620 0
-12729 -12604 -12605 -12606 -12620 0
12732 12609 0
12732 12610 0
-12732 -12609 -12610 0
12611 12612 0
12611 12613 0
12611 12614 0
12611 12716 0
-12611 -12612 -12613 -12614 -12716 0
12744 12617 0
12744 12618 0
12744 12619 0
12744 12620 0
-12744 -12617 -12618 -12619 -12620 0
-12621 -12689 0
-12621 -12690 0
-12621 -12624 0
-12621 -12625 0
12621 12689 12690 12624 12625 0
-12626 -12709 0
-12626 -12705 0
12626 12709 12705 0
-12754 -12630 0
-12754 -12752 0
12754 12630 12752 0
-12756 -12633 0
-12756 -12634 0
-12756 -12635 0
-12756 -12752 0
12756 12633 12634 12635 12752 0
-12637 -12638 0
-12637 -12639 0
-12637 -12709 0
-12637 -12710 0
12637 12638 12639 12709 12710 0
-12642 -12643 0
-12642 -12644 0
12642 12643 12644 0
-12645 -12646 0
-12645 -12647 0
-12645 -12648 0
-12645 -12649 0
12645 12646 12647 12648 12649 0
-12762 -12651 0
-12762 -12652 0
-12762 -12653 0
-12762 -12752 0
12762 12651 12652 12653 12752 0
-12764 -12656 0
-12764 -12657 0
12764 12656 12657 0
-12766 -12659 0
-12766 -12660 0
-12766 -12665 0
12766 12659 12660 12665 0
-12662 -12688 0
-12662 -12689 0
12662 12688 12689 0
-12665 -12666 0
-12665 -12667 0
12665 12666 12667 0
-12768 -12669 0
-12768 -12670 0
-12768 -12671 0
12768 12669 12670 12671 0
-12672 -12673 0
-12672 -12674 0
12672 12673 12674 0
-12770 -12676 0
-12770 -12677 0
-12770 -12679 0
12770 12676 12677 12679 0
-12679 -12680 0
-12679 -12681 0
12679 12680 12681 0
-12772 -12683 0
-12772 -12684 0
-12772 -12685 0
-12772 -12695 0
12772 12683 12684 12685 12695 0
-12687 -12688 0
-12687 -12689 0
-12687 -12690 0
12687 12688 12689 12690 0
-12691 -12692 0
-12691 -12693 0
-12691 -12694 0
12691 12692 12693 12694 0
-12695 -12696 0
-12695 -12697 0
12695 12696 12697 0
-12774 -12699 0
-12774 -12700 0
-12774 -12701 0
-12774 -12702 0
12774 12699 12700 12701 12702 0
-12703 -12709 0
-12703 -12705 0
-12703 -12706 0
12703 12709 12705 12706 0
-12707 -12708 0
-12707 -12709 0
-12707 -12710 0
12707 12708 12709 12710 0
-12778 -12712 0
-12778 -12713 0
-12778 -12752 0
12778 12712 12713 12752 0
-12715 -12716 0
-12715 -12717 0
12715 12716 12717 0
-12780 -12719 0
-12780 -12720 0
-12780 -12721 0
-12780 -12739 0
12780 12719 12720 12721 12739 0
-12782 -12724 0
-12782 -12725 0
-12782 -12726 0
12782 12724 12725 12726 0
-12784 -12728 0
-12784 -12729 0
12784 12728 12729 0
-12786 -12731 0
-12786 -12732 0
12786 12731 12732 0
-12733 -12734 0
-12733 -12735 0
12733 12734 12735 0
-12788 -12737 0
-12788 -12738 0
12788 12737 12738 0
-12739 -12740 0
-12739 -12741 0
12739 12740 12741 0
-12790 -12743 0
-12790 -12744 0
12790 12743 12744 0
-12792 -12746 0
-12792 -12747 0
-12792 -12752 0
12792 12746 12747 12752 0
-12794 -12750 0
-12794 -12751 0
-12794 -12752 0
12794 12750 12751 12752 0
-12754 13298 0
12754 -13298 0
-12756 13292 0
12756 -13292 0
-12758 13218 0
12758 -13218 0
-12760 13384 0
12760 -13384 0
-12762 13358 0
12762 -13358 0
-12764 13238 0
12764 -13238 0
-12766 13252 0
12766 -13252 0
-12768 13112 0
12768 -13112 0
-12770 13374 0
12770 -13374 0
-12772 13256 0
12772 -13256 0
-12774 13255 0
12774 -13255 0
-12776 13219 0
12776 -13219 0
-12778 12834 0
12778 -12834 0
-12780 12844 0
12780 -12844 0
-12782 13195 0
12782 -13195 0
-12784 13152 0
12784 -13152 0
-12786 13170 0
12786 -13170 0
-12788 13165 0
12788 -13165 0
-12790 12886 0
12790 -12886 0
-12792 13264 0
12792 -13264 0
-12794 13312 0
12794 -13312 0
13233 13420 0
-13233 -13420 0
13209 13218 0
-13209 -13218 0
13217 13384 0
-13217 -13384 0
13293 13298 0
-13293 -13298 0
13357 13238 0
-13357 -13238 0
13239 13358 0
-13239 -13358 0
13356 13252 0
-13356 -13252 0
13257 13374 0
-13257 -13374 0
13240 13292 0
-13240 -13292 0
13373 13256 0
-13373 -13256 0
13251 13112 0
-13251 -13112 0
13236 13312 0
-13236 -13312 0
13377 13255 0
-13377 -13255 0
13370 13233 0
-13370 -13233 0
13307 13219 0
-13307 -13219 0
13263 13255 0
-13263 -13255 0
13385 13218 0
-13385 -13218 0
13262 13219 0
-13262 -13219 0
13029 13264 0
-13029 -13264 0
13032 12834 0
-13032 -12834 0
12835 12844 0
-12835 -12844 0
12837 13195 0
-12837 -13195 0
13173 13374 0
-13173 -13374 0
13189 13255 0
-13189 -13255 0
13044 12844 0
-13044 -12844 0
13193 13219 0
-13193 -13219 0
13052 13195 0
-13052 -13195 0
13194 13384 0
-13194 -13384 0
13058 13152 0
-13058 -13152 0
13175 13218 0
-13175 -13218 0
13288 13407 0
-13288 -13407 0
13072 12886 0
-13072 -12886 0
12859 13152 0
-12859 -13152 0
12861 13170 0
-12861 -13170 0
13075 13078 0
-13075 -13078 0
13076 13264 0
-13076 -13264 0
12870 12868 0
-12870 -12868 0
13078 12870 0
-13078 -12870 0
13081 13084 0
-13081 -13084 0
13082 13312 0
-13082 -13312 0
12878 12876 0
-12878 -12876 0
13420 12878 0
-13420 -12878 0
12882 12880 0
-12882 -12880 0
13084 12882 0
-13084 -12882 0
12883 13165 0
-12883 -13165 0
12885 12886 0
-12885 -12886 0
-13376 13236 0
-13376 13237 0
13376 -13236 -13237 0
-13311 13298 0
-13311 13240 0
-13311 13239 0
-13311 13238 0
13311 -13298 -13240 -13239 -13238 0
-13306 13236 0
-13306 13237 0
13306 -13236 -13237 0
-13314 13236 0
-13314 13237 0
13314 -13236 -13237 0
-13315 13209 0
-13315 13219 0
13315 -13209 -13219 0
-13316 13218 0
-13316 13307 0
13316 -13218 -13307 0
-13334 13233 0
-13334 13356 0
13334 -13233 -13356 0
-13335 13236 0
-13335 13233 0
13335 -13236 -13233 0
-13341 13251 0
-13341 13373 0
13341 -13251 -13373 0
-13342 13251 0
-13342 13374 0
13342 -13251 -13374 0
-13348 13233 0
-13348 13252 0
-13348 13112 0
13348 -13233 -13252 -13112 0
-13349 13233 0
-13349 13374 0
13349 -13233 -13374 0
-13360 13112 0
-13360 13257 0
13360 -13112 -13257 0
-13361 13251 0
-13361 13374 0
13361 -13251 -13374 0
-13362 13112 0
-13362 13373 0
13362 -13112 -13373 0
-13364 13233 0
-13364 13252 0
-13364 13112 0
-13364 13374 0
13364 -13233 -13252 -13112 -13374 0
-13365 13233 0
-13365 13256 0
13365 -13233 -13256 0
-13301 13298 0
-13301 13239 0
-13301 13238 0
13301 -13298 -13239 -13238 0
-13302 13298 0
-13302 13292 0
13302 -13298 -13292 0
-13303 13293 0
-13303 13240 0
13303 -13293 -13240 0
-13319 13298 0
-13319 13292 0
-13319 13358 0
13319 -13298 -13292 -13358 0
-13320 13293 0
-13320 13239 0
13320 -13293 -13239 0
-13321 13240 0
-13321 13239 0
13321 -13240 -13239 0
-13324 13357 0
-13324 13221 0
13324 -13357 -13221 0
-13327 13239 0
-13327 13240 0
-13327 13298 0
-13327 13330 0
13327 -13239 -13240 -13298 -13330 0
-13328 13356 0
-13328 13236 0
-13328 13237 0
13328 -13356 -13236 -13237 0
-13337 13240 0
-13337 13298 0
-13337 13355 0
-13337 13340 0
13337 -13240 -13298 -13355 -13340 0
-13338 13251 0
-13338 13236 0
-13338 13237 0
13338 -13251 -13236 -13237 0
-13344 13374 0
-13344 13112 0
-13344 13252 0
-13344 13234 0
13344 -13374 -13112 -13252 -13234 0
-13345 13257 0
-13345 13236 0
-13345 13237 0
13345 -13257 -13236 -13237 0
-13351 13240 0
-13351 13298 0
-13351 13355 0
-13351 13359 0
13351 -13240 -13298 -13355 -13359 0
-13352 13373 0
-13352 13236 0
-13352 13237 0
13352 -13373 -13236 -13237 0
-13353 13252 0
-13353 13312 0
-13353 13359 0
13353 -13252 -13312 -13359 0
-13367 13251 0
-13367 13252 0
-13367 13371 0
-13367 13234 0
13367 -13251 -13252 -13371 -13234 0
-13368 13377 0
-13368 13236 0
-13368 13237 0
13368 -13377 -13236 -13237 0
-13369 13377 0
-13369 13378 0
13369 -13377 -13378 0
-13380 13262 0
-13380 13255 0
-13380 13029 0
-13380 13383 0
13380 -13262 -13255 -13029 -13383 0
-13381 13032 0
-13381 13261 0
13381 -13032 -13261 0
-13408 13262 0
-13408 13255 0
-13408 13029 0
-13408 13383 0
13408 -13262 -13255 -13029 -13383 0
-13409 13032 0
-13409 13261 0
13409 -13032 -13261 0
-13402 13219 0
-13402 13384 0
-13402 13170 0
13402 -13219 -13384 -13170 0
-13403 13189 0
-13403 13193 0
-13403 13384 0
13403 -13189 -13193 -13384 0
-13387 13384 0
-13387 13044 0
13387 -13384 -13044 0
-13388 13175 0
-13388 13194 0
13388 -13175 -13194 0
-13389 13193 0
-13389 13175 0
13389 -13193 -13175 0
-13392 13052 0
-13392 13218 0
13392 -13052 -13218 0
-13393 13194 0
-13393 13218 0
13393 -13194 -13218 0
-13396 13058 0
-13396 13384 0
-13396 13219 0
13396 -13058 -13384 -13219 0
-13399 13175 0
-13399 13288 0
-13399 13401 0
13399 -13175 -13288 -13401 0
-13405 13288 0
-13405 13279 0
13405 -13288 -13279 0
-13406 13374 0
-13406 13407 0
13406 -13374 -13407 0
-13411 13072 0
-13411 13384 0
13411 -13072 -13384 0
-13414 13075 0
-13414 13076 0
13414 -13075 -13076 0
-13415 13078 0
-13415 13264 0
13415 -13078 -13264 0
-13418 13081 0
-13418 13082 0
13418 -13081 -13082 0
-13419 13084 0
-13419 13312 0
13419 -13084 -13312 0
13259 -13312 0
13259 -13289 0
-13259 13312 13289 0
13260 -13217 0
13260 -13218 0
-13260 13217 13218 0
13226 -13293 0
13226 -13240 0
13226 -13239 0
13226 -13357 0
-13226 13293 13240 13239 13357 0
13227 -13293 0
13227 -13292 0
13227 -13358 0
-13227 13293 13292 13358 0
13230 -13236 0
13230 -13356 0
13230 -13374 0
13230 -13373 0
-13230 13236 13356 13374 13373 0
13231 -13236 0
13231 -13356 0
13231 -13251 0
-13231 13236 13356 13251 0
13232 -13252 0
13232 -13112 0
-13232 13252 13112 0
13235 -13293 0
13235 -13292 0
13235 -13358 0
13235 -13357 0
-13235 13293 13292 13358 13357 0
13202 -13420 0
13202 -13204 0
13202 -13208 0
13202 -13310 0
-13202 13420 13204 13208 13310 0
13203 -13209 0
13203 -13420 0
13203 -13305 0
-13203 13209 13420 13305 0
13214 -13420 0
13214 -13378 0
13214 -13216 0
13214 -13310 0
-13214 13420 13378 13216 13310 0
13215 -13217 0
13215 -13420 0
13215 -13313 0
-13215 13217 13420 13313 0
13248 -13420 0
13248 -13250 0
13248 -13253 0
13248 -13258 0
-13248 13420 13250 13253 13258 0
13249 -13307 0
13249 -13420 0
13249 -13375 0
-13249 13307 13420 13375 0
13272 -13255 0
13272 -13219 0
13272 -13218 0
13272 -13194 0
-13272 13255 13219 13218 13194 0
13273 -13175 0
13273 -13152 0
-13273 13175 13152 0
13274 -13175 0
13274 -13384 0
-13274 13175 13384 0
13280 -13189 0
13280 -13219 0
13280 -13218 0
-13280 13189 13219 13218 0
13281 -13193 0
13281 -13165 0
-13281 13193 13165 0
13282 -13175 0
13282 -13165 0
-13282 13175 13165 0
13277 -13407 0
13277 -13175 0
13277 -13194 0
13277 -13170 0
-13277 13407 13175 13194 13170 0
13278 -13288 0
13278 -13173 0
-13278 13288 13173 0
13285 -13175 0
13285 -13384 0
-13285 13175 13384 0
13286 -13255 0
13286 -13384 0
-13286 13255 13384 0
13287 -13219 0
13287 -13218 0
-13287 13219 13218 0
13267 -13255 0
13267 -13219 0
13267 -13218 0
13267 -13194 0
-13267 13255 13219 13218 13194 0
13268 -13189 0
13268 -13193 0
13268 -13384 0
-13268 13189 13193 13384 0
13269 -13193 0
13269 -13194 0
13269 -13195 0
-13269 13193 13194 13195 0
13317 13257 0
13317 13251 0
13317 13252 0
13317 13294 0
-13317 -13257 -13251 -13252 -13294 0
13426 13202 0
13426 13203 0
-13426 -13202 -13203 0
13204 13257 0
13204 13251 0
13204 13252 0
-13204 -13257 -13251 -13252 0
13208 13209 0
13208 13219 0
13208 13255 0
13208 13256 0
-13208 -13209 -13219 -13255 -13256 0
13428 13214 0
13428 13215 0
-13428 -13214 -13215 0
13216 13217 0
13216 13218 0
13216 13219 0
13216 13255 0
-13216 -13217 -13218 -13219 -13255 0
13221 13358 0
13221 13292 0
13221 13298 0
-13221 -13358 -13292 -13298 0
13325 13226 0
13325 13227 0
13325 13233 0
-13325 -13226 -13227 -13233 0
13339 13230 0
13339 13231 0
13339 13232 0
13339 13233 0
-13339 -13230 -13231 -13232 -13233 0
13234 13235 0
13234 13236 0
-13234 -13235 -13236 0
13237 13238 0
13237 13239 0
13237 13240 0
13237 13298 0
-13237 -13238 -13239 -13240 -13298 0
13378 13256 0
13378 13257 0
13378 13251 0
13378 13252 0
-13378 -13256 -13257 -13251 -13252 0
13444 13248 0
13444 13249 0
-13444 -13248 -13249 0
13250 13251 0
13250 13252 0
-13250 -13251 -13252 0
13253 13307 0
13253 13255 0
13253 13256 0
13253 13257 0
-13253 -13307 -13255 -13256 -13257 0
13258 13259 0
13258 13260 0
-13258 -13259 -13260 0
13261 13262 0
13261 13263 0
13261 13264 0
13261 13383 0
-13261 -13262 -13263 -13264 -13383 0
13394 13267 0
13394 13268 0
13394 13269 0
13394 13288 0
-13394 -13267 -13268 -13269 -13288 0
13397 13272 0
13397 13273 0
13397 13274 0
13397 13288 0
-13397 -13272 -13273 -13274 -13288 0
13400 13277 0
13400 13278 0
-13400 -13277 -13278 0
13279 13280 0
13279 13281 0
13279 13282 0
13279 13384 0
-13279 -13280 -13281 -13282 -13384 0
13412 13285 0
13412 13286 0
13412 13287 0
13412 13288 0
-13412 -13285 -13286 -13287 -13288 0
-13289 -13357 0
-13289 -13358 0
-13289 -13292 0
-13289 -13293 0
13289 13357 13358 13292 13293 0
-13294 -13377 0
-13294 -13373 0
13294 13377 13373 0
-13422 -13298 0
-13422 -13420 0
13422 13298 13420 0
-13424 -13301 0
-13424 -13302 0
-13424 -13303 0
-13424 -13420 0
13424 13301 13302 13303 13420 0
-13305 -13306 0
-13305 -13307 0
-13305 -13377 0
-13305 -13378 0
13305 13306 13307 13377 13378 0
-13310 -13311 0
-13310 -13312 0
13310 13311 13312 0
-13313 -13314 0
-13313 -13315 0
-13313 -13316 0
-13313 -13317 0
13313 13314 13315 13316 13317 0
-13430 -13319 0
-13430 -13320 0
-13430 -13321 0
-13430 -13420 0
13430 13319 13320 13321 13420 0
-13432 -13324 0
-13432 -13325 0
13432 13324 13325 0
-13434 -13327 0
-13434 -13328 0
-13434 -13333 0
13434 13327 13328 13333 0
-13330 -13356 0
-13330 -13357 0
13330 13356 13357 0
-13333 -13334 0
-13333 -13335 0
13333 13334 13335 0
-13436 -13337 0
-13436 -13338 0
-13436 -13339 0
13436 13337 13338 13339 0
-13340 -13341 0
-13340 -13342 0
13340 13341 13342 0
-13438 -13344 0
-13438 -13345 0
-13438 -13347 0
13438 13344 13345 13347 0
-13347 -13348 0
-13347 -13349 0
13347 13348 13349 0
-13440 -13351 0
-13440 -13352 0
-13440 -13353 0
-13440 -13363 0
13440 13351 13352 13353 13363 0
-13355 -13356 0
-13355 -13357 0
-13355 -13358 0
13355 13356 13357 13358 0
-13359 -13360 0
-13359 -13361 0
-13359 -13362 0
13359 13360 13361 13362 0
-13363 -13364 0
-13363 -13365 0
13363 13364 13365 0
-13442 -13367 0
-13442 -13368 0
-13442 -13369 0
-13442 -13370 0
13442 13367 13368 13369 13370 0
-13371 -13377 0
-13371 -13373 0
-13371 -13374 0
13371 13377 13373 13374 0
-13375 -13376 0
-13375 -13377 0
-13375 -13378 0
13375 13376 13377 13378 0
-13446 -13380 0
-13446 -13381 0
-13446 -13420 0
13446 13380 13381 13420 0
-13383 -13384 0
-13383 -13385 0
13383 13384 13385 0
-13448 -13387 0
-13448 -13388 0
-13448 -13389 0
-13448 -13407 0
13448 13387 13388 13389 13407 0
-13450 -13392 0
-13450 -13393 0
-13450 -13394 0
13450 13392 13393 13394 0
-13452 -13396 0
-13452 -13397 0
13452 13396 13397 0
-13454 -13399 0
-13454 -13400 0
13454 13399 13400 0
-13401 -13402 0
-13401 -13403 0
13401 13402 13403 0
-13456 -13405 0
-13456 -13406 0
13456 13405 13406 0
-13407 -13408 0
-13407 -13409 0
13407 13408 13409 0
-13458 -13411 0
-13458 -13412 0
13458 13411 13412 0
-13460 -13414 0
-13460 -13415 0
-13460 -13420 0
13460 13414 13415 13420 0
-13462 -13418 0
-13462 -13419 0
-13462 -13420 0
13462 13418 13419 13420 0
-13422 13966 0
13422 -13966 0
-13424 13960 0
13424 -13960 0
-13426 13886 0
13426 -13886 0
-13428 14052 0
13428 -14052 0
-13430 14026 0
13430 -14026 0
-13432 13906 0
13432 -13906 0
-13434 13920 0
13434 -13920 0
-13436 13780 0
13436 -13780 0
-13438 14042 0
13438 -14042 0
-13440 13924 0
13440 -13924 0
-13442 13923 0
13442 -13923 0
-13444 13887 0
13444 -13887 0
-13446 13502 0
13446 -13502 0
-13448 13512 0
13448 -13512 0
-13450 13863 0
13450 -13863 0
-13452 13820 0
13452 -13820 0
-13454 13838 0
13454 -13838 0
-13456 13833 0
13456 -13833 0
-13458 13554 0
13458 -13554 0
-13460 13932 0
13460 -13932 0
-13462 13980 0
13462 -13980 0
13901 14088 0
-13901 -14088 0
13877 13886 0
-13877 -13886 0
13885 14052 0
-13885 -14052 0
13961 13966 0
-13961 -13966 0
14025 13906 0
-14025 -13906 0
13907 14026 0
-13907 -14026 0
14024 13920 0
-14024 -13920 0
13925 14042 0
-13925 -14042 0
13908 13960 0
-13908 -13960 0
14041 13924 0
-14041 -13924 0
13919 13780 0
-13919 -13780 0
13904 13980 0
-13904 -13980 0
14045 13923 0
-14045 -13923 0
14038 13901 0
-14038 -13901 0
13975 13887 0
-13975 -13887 0
13931 13923 0
-13931 -13923 0
14053 13886 0
-14053 -13886 0
13930 13887 0
-13930 -13887 0
13697 13932 0
-13697 -13932 0
13700 13502 0
-13700 -13502 0
13503 13512 0
-13503 -13512 0
13505 13863 0
-13505 -13863 0
13841 14042 0
-13841 -14042 0
13857 13923 0
-13857 -13923 0
13712 13512 0
-13712 -13512 0
13861 13887 0
-13861 -13887 0
13720 13863 0
-13720 -13863 0
13862 14052 0
-13862 -14052 0
13726 13820 0
-13726 -13820 0
13843 13886 0
-13843 -13886 0
13956 14075 0
-13956 -14075 0
13740 13554 0
-13740 -13554 0
13527 13820 0
-13527 -13820 0
13529 13838 0
-13529 -13838 0
13743 13746 0
-13743 -13746 0
13744 13932 0
-13744 -13932 0
13538 13536 0
-13538 -13536 0
13746 13538 0
-13746 -13538 0
13749 13752 0
-13749 -13752 0
13750 13980 0
-13750 -13980 0
13546 13544 0
-13546 -13544 0
14088 13546 0
-14088 -13546 0
13550 13548 0
-13550 -13548 0
13752 13550 0
-13752 -13550 0
13551 13833 0
-13551 -13833 0
13553 13554 0
-13553 -13554 0
-14044 13904 0
-14044 13905 0
14044 -13904 -13905 0
-13979 13966 0
-13979 13908 0
-13979 13907 0
-13979 13906 0
13979 -13966 -13908 -13907 -13906 0
-13974 13904 0
-13974 13905 0
13974 -13904 -13905 0
-13982 13904 0
-13982 13905 0
13982 -13904 -13905 0
-13983 13877 0
-13983 13887 0
13983 -13877 -13887 0
-13984 13886 0
-13984 13975 0
13984 -13886 -13975 0
-14002 13901 0
-14002 14024 0
14002 -13901 -14024 0
-14003 13904 0
-14003 13901 0
14003 -13904 -13901 0
-14009 13919 0
-14009 14041 0
14009 -13919 -14041 0
-14010 13919 0
-14010 14042 0
14010 -13919 -14042 0
-14016 13901 0
-14016 13920 0
-14016 13780 0
14016 -13901 -13920 -13780 0
-14017 13901 0
-14017 14042 0
14017 -13901 -14042 0
-14028 13780 0
-14028 13925 0
14028 -13780 -13925 0
-14029 13919 0
-14029 14042 0
14029 -13919 -14042 0
-14030 13780 0
-14030 14041 0
14030 -13780 -14041 0
-14032 13901 0
-14032 13920 0
-14032 13780 0
-14032 14042 0
14032 -13901 -13920 -13780 -14042 0
-14033 13901 0
-14033 13924 0
14033 -13901 -13924 0
-13969 13966 0
-13969 13907 0
-13969 13906 0
13969 -13966 -13907 -13906 0
-13970 13966 0
-13970 13960 0
13970 -13966 -13960 0
-13971 13961 0
-13971 13908 0
13971 -13961 -13908 0
-13987 13966 0
-13987 13960 0
-13987 14026 0
13987 -13966 -13960 -14026 0
-13988 13961 0
-13988 13907 0
13988 -13961 -13907 0
-13989 13908 0
-13989 13907 0
13989 -13908 -13907 0
-13992 14025 0
-13992 13889 0
13992 -14025 -13889 0
-13995 13907 0
-13995 13908 0
-13995 13966 0
-13995 13998 0
13995 -13907 -13908 -13966 -13998 0
-13996 14024 0
-13996 13904 0
-13996 13905 0
13996 -14024 -13904 -13905 0
-14005 13908 0
-14005 13966 0
-14005 14023 0
-14005 14008 0
14005 -13908 -13966 -14023 -14008 0
-14006 13919 0
-14006 13904 0
-14006 13905 0
14006 -13919 -13904 -13905 0
-14012 14042 0
-14012 13780 0
-14012 13920 0
-14012 13902 0
14012 -14042 -13780 -13920 -13902 0
-14013 13925 0
-14013 13904 0
-14013 13905 0
14013 -13925 -13904 -13905 0
-14019 13908 0
-14019 13966 0
-14019 14023 0
-14019 14027 0
14019 -13908 -13966 -14023 -14027 0
-14020 14041 0
-14020 13904 0
-14020 13905 0
14020 -14041 -13904 -13905 0
-14021 13920 0
-14021 13980 0
-14021 14027 0
14021 -13920 -13980 -14027 0
-14035 13919 0
-14035 13920 0
-14035 14039 0
-14035 13902 0
14035 -13919 -13920 -14039 -13902 0
-14036 14045 0
-14036 13904 0
-14036 13905 0
14036 -14045 -13904 -13905 0
-14037 14045 0
-14037 14046 0
14037 -14045 -14046 0
-14048 13930 0
-14048 13923 0
-14048 13697 0
-14048 14051 0
14048 -13930 -13923 -13697 -14051 0
-14049 13700 0
-14049 13929 0
14049 -13700 -13929 0
-14076 13930 0
-14076 13923 0
-14076 13697 0
-14076 14051 0
14076 -13930 -13923 -13697 -14051 0
-14077 13700 0
-14077 13929 0
14077 -13700 -13929 0
-14070 13887 0
-14070 14052 0
-14070 13838 0
14070 -13887 -14052 -13838 0
-14071 13857 0
-14071 13861 0
-14071 14052 0
14071 -13857 -13861 -14052 0
-14055 14052 0
-14055 13712 0
14055 -14052 -13712 0
-14056 13843 0
-14056 13862 0
14056 -13843 -13862 0
-14057 13861 0
-14057 13843 0
14057 -13861 -13843 0
-14060 13720 0
-14060 13886 0
14060 -13720 -13886 0
-14061 13862 0
-14061 13886 0
14061 -13862 -13886 0
-14064 13726 0
-14064 14052 0
-14064 13887 0
14064 -13726 -14052 -13887 0
-14067 13843 0
-14067 13956 0
-14067 14069 0
14067 -13843 -13956 -14069 0
-14073 13956 0
-14073 13947 0
14073 -13956 -13947 0
-14074 14042 0
-14074 14075 0
14074 -14042 -14075 0
-14079 13740 0
-14079 14052 0
14079 -13740 -14052 0
-14082 13743 0
-14082 13744 0
14082 -13743 -13744 0
-14083 13746 0
-14083 13932 0
14083 -13746 -13932 0
-14086 13749 0
-14086 13750 0
14086 -13749 -13750 0
-14087 13752 0
-14087 13980 0
14087 -13752 -13980 0
13927 -13980 0
13927 -13957 0
-13927 13980 13957 0
13928 -13885 0
13928 -13886 0
-13928 13885 13886 0
13894 -13961 0
13894 -13908 0
13894 -13907 0
13894 -14025 0
-13894 13961 13908 13907 14025 0
13895 -13961 0
13895 -13960 0
13895 -14026 0
-13895 13961 13960 14026 0
13898 -13904 0
13898 -14024 0
13898 -14042 0
13898 -14041 0
-13898 13904 14024 14042 14041 0
13899 -13904 0
13899 -14024 0
13899 -13919 0
-13899 13904 14024 13919 0
13900 -13920 0
13900 -13780 0
-13900 13920 13780 0
13903 -13961 0
13903 -13960 0
13903 -14026 0
13903 -14025 0
-13903 13961 13960 14026 14025 0
13870 -14088 0
13870 -13872 0
13870 -13876 0
13870 -13978 0
-13870 14088 13872 13876 13978 0
13871 -13877 0
13871 -14088 0
13871 -13973 0
-13871 13877 14088 13973 0
13882 -14088 0
13882 -14046 0
13882 -13884 0
13882 -13978 0
-13882 14088 14046 13884 13978 0
13883 -13885 0
13883 -14088 0
13883 -13981 0
-13883 13885 14088 13981 0
13916 -14088 0
13916 -13918 0
13916 -13921 0
13916 -13926 0
-13916 14088 13918 13921 13926 0
13917 -13975 0
13917 -14088 0
13917 -14043 0
-13917 13975 14088 14043 0
13940 -13923 0
13940 -13887 0
13940 -13886 0
13940 -13862 0
-13940 13923 13887 13886 13862 0
13941 -13843 0
13941 -13820 0
-13941 13843 13820 0
13942 -13843 0
13942 -14052 0
-13942 13843 14052 0
13948 -13857 0
13948 -13887 0
13948 -13886 0
-13948 13857 13887 13886 0
13949 -13861 0
13949 -13833 0
-13949 13861 13833 0
13950 -13843 0
13950 -13833 0
-13950 13843 13833 0
13945 -14075 0
13945 -13843 0
13945 -13862 0
13945 -13838 0
-13945 14075 13843 13862 13838 0
13946 -13956 0
13946 -13841 0
-13946 13956 13841 0
13953 -13843 0
13953 -14052 0
-13953 13843 14052 0
13954 -13923 0
13954 -14052 0
-13954 13923 14052 0
13955 -13887 0
13955 -13886 0
-13955 13887 13886 0
13935 -13923 0
13935 -13887 0
13935 -13886 0
13935 -13862 0
-13935 13923 13887 13886 13862 0
13936 -13857 0
13936 -13861 0
13936 -14052 0
-13936 13857 13861 14052 0
13937 -13861 0
13937 -13862 0
13937 -13863 0
-13937 13861 13862 13863 0
13985 13925 0
13985 13919 0
13985 13920 0
13985 13962 0
-13985 -13925 -13919 -13920 -13962 0
14094 13870 0
14094 13871 0
-14094 -13870 -13871 0
13872 13925 0
13872 13919 0
13872 13920 0
-13872 -13925 -13919 -13920 0
13876 13877 0
13876 13887 0
13876 13923 0
13876 13924 0
-13876 -13877 -13887 -13923 -13924 0
14096 13882 0
14096 13883 0
-14096 -13882 -13883 0
13884 13885 0
13884 13886 0
13884 13887 0
13884 13923 0
-13884 -13885 -13886 -13887 -13923 0
13889 14026 0
13889 13960 0
13889 13966 0
-13889 -14026 -13960 -13966 0
13993 13894 0
13993 13895 0
13993 13901 0
-13993 -13894 -13895 -13901 0
14007 13898 0
14007 13899 0
14007 13900 0
14007 13901 0
-14007 -13898 -13899 -13900 -13901 0
13902 13903 0
13902 13904 0
-13902 -13903 -13904 0
13905 13906 0
13905 13907 0
13905 13908 0
13905 13966 0
-13905 -13906 -13907 -13908 -13966 0
14046 13924 0
14046 13925 0
14046 13919 0
14046 13920 0
-14046 -13924 -13925 -13919 -13920 0
14112 13916 0
14112 13917 0
-14112 -13916 -13917 0
13918 13919 0
13918 13920 0
-13918 -13919 -13920 0
13921 13975 0
13921 13923 0
13921 13924 0
13921 13925 0
-13921 -13975 -13923 -13924 -13925 0
13926 13927 0
13926 13928 0
-13926 -13927 -13928 0
13929 13930 0
13929 13931 0
13929 13932 0
13929 14051 0
-13929 -13930 -13931 -13932 -14051 0
14062 13935 0
14062 13936 0
14062 13937 0
14062 13956 0
-14062 -13935 -13936 -13937 -13956 0
14065 13940 0
14065 13941 0
14065 13942 0
14065 13956 0
-14065 -13940 -13941 -13942 -13956 0
14068 13945 0
14068 13946 0
-14068 -13945 -13946 0
13947 13948 0
13947 13949 0
13947 13950 0
13947 14052 0
-13947 -13948 -13949 -13950 -14052 0
14080 13953 0
14080 13954 0
14080 13955 0
14080 13956 0
-14080 -13953 -13954 -13955 -13956 0
-13957 -14025 0
-13957 -14026 0
-13957 -13960 0
-13957 -13961 0
13957 14025 14026 13960 13961 0
-13962 -14045 0
-13962 -14041 0
13962 14045 14041 0
-14090 -13966 0
-14090 -14088 0
14090 13966 14088 0
-14092 -13969 0
-14092 -13970 0
-14092 -13971 0
-14092 -14088 0
14092 13969 13970 13971 14088 0
-13973 -13974 0
-13973 -13975 0
-13973 -14045 0
-13973 -14046 0
13973 13974 13975 14045 14046 0
-13978 -13979 0
-13978 -13980 0
13978 13979 13980 0
-13981 -13982 0
-13981 -13983 0
-13981 -13984 0
-13981 -13985 0
13981 13982 13983 13984 13985 0
-14098 -13987 0
-14098 -13988 0
-14098 -13989 0
-14098 -14088 0
14098 13987 13988 13989 14088 0
-14100 -13992 0
-14100 -13993 0
14100 13992 13993 0
-14102 -13995 0
-14102 -13996 0
-14102 -14001 0
14102 13995 13996 14001 0
-13998 -14024 0
-13998 -14025 0
13998 14024 14025 0
-14001 -14002 0
-14001 -14003 0
14001 14002 14003 0
-14104 -14005 0
-14104 -14006 0
-14104 -14007 0
14104 14005 14006 14007 0
-14008 -14009 0
-14008 -14010 0
14008 14009 14010 0
-14106 -14012 0
-14106 -14013 0
-14106 -14015 0
14106 14012 14013 14015 0
-14015 -14016 0
-14015 -14017 0
14015 14016 14017 0
-14108 -14019 0
-14108 -14020 0
-14108 -14021 0
-14108 -14031 0
14108 14019 14020 14021 14031 0
-14023 -14024 0
-14023 -14025 0
-14023 -14026 0
14023 14024 14025 14026 0
-14027 -14028 0
-14027 -14029 0
-14027 -14030 0
14027 14028 14029 14030 0
-14031 -14032 0
-14031 -14033 0
14031 14032 14033 0
-14110 -14035 0
-14110 -14036 0
-14110 -14037 0
-14110 -14038 0
14110 14035 14036 14037 14038 0
-14039 -14045 0
-14039 -14041 0
-14039 -14042 0
14039 14045 14041 14042 0
-14043 -14044 0
-14043 -14045 0
-14043 -14046 0
14043 14044 14045 14046 0
-14114 -14048 0
-14114 -14049 0
-14114 -14088 0
14114 14048 14049 14088 0
-14051 -14052 0
-14051 -14053 0
14051 14052 14053 0
-14116 -14055 0
-14116 -14056 0
-14116 -14057 0
-14116 -14075 0
14116 14055 14056 14057 14075 0
-14118 -14060 0
-14118 -14061 0
-14118 -14062 0
14118 14060 14061 14062 0
-14120 -14064 0
-14120 -14065 0
14120 14064 14065 0
-14122 -14067 0
-14122 -14068 0
14122 14067 14068 0
-14069 -14070 0
-14069 -14071 0
14069 14070 14071 0
-14124 -14073 0
-14124 -14074 0
14124 14073 14074 0
-14075 -14076 0
-14075 -14077 0
14075 14076 14077 0
-14126 -14079 0
-14126 -14080 0
14126 14079 14080 0
-14128 -14082 0
-14128 -14083 0
-14128 -14088 0
14128 14082 14083 14088 0
-14130 -14086 0
-14130 -14087 0
-14130 -14088 0
14130 14086 14087 14088 0
-14090 14634 0
14090 -14634 0
-14092 14628 0
14092 -14628 0
-14094 14554 0
14094 -14554 0
-14096 14720 0
14096 -14720 0
-14098 14694 0
14098 -14694 0
-14100 14574 0
14100 -14574 0
-14102 14588 0
14102 -14588 0
-14104 14448 0
14104 -14448 0
-14106 14710 0
14106 -14710 0
-14108 14592 0
14108 -14592 0
-14110 14591 0
14110 -14591 0
-14112 14555 0
14112 -14555 0
-14114 14170 0
14114 -14170 0
-14116 14180 0
14116 -14180 0
-14118 14531 0
14118 -14531 0
-14120 14488 0
14120 -14488 0
-14122 14506 0
14122 -14506 0
-14124 14501 0
14124 -14501 0
-14126 14222 0
14126 -14222 0
-14128 14600 0
14128 -14600 0
-14130 14648 0
14130 -14648 0
14569 14756 0
-14569 -14756 0
14545 14554 0
-14545 -14554 0
14553 14720 0
-14553 -14720 0
14629 14634 0
-14629 -14634 0
14693 14574 0
-14693 -14574 0
14575 14694 0
-14575 -14694 0
14692 14588 0
-14692 -14588 0
14593 14710 0
-14593 -14710 0
14576 14628 0
-14576 -14628 0
14709 14592 0
-14709 -14592 0
14587 14448 0
-14587 -14448 0
14572 14648 0
-14572 -14648 0
14713 14591 0
-14713 -14591 0
14706 14569 0
-14706 -14569 0
14643 14555 0
-14643 -14555 0
14599 14591 0
-14599 -14591 0
14721 14554 0
-14721 -14554 0
14598 14555 0
-14598 -14555 0
14365 14600 0
-14365 -14600 0
14368 14170 0
-14368 -14170 0
14171 14180 0
-14171 -14180 0
14173 14531 0
-14173 -14531 0
14509 14710 0
-14509 -14710 0
14525 14591 0
-14525 -14591 0
14380 14180 0
-14380 -14180 0
14529 14555 0
-14529 -14555 0
14388 14531 0
-14388 -14531 0
14530 14720 0
-14530 -14720 0
14394 14488 0
-14394 -14488 0
14511 14554 0
-14511 -14554 0
14624 14743 0
-14624 -14743 0
14408 14222 0
-14408 -14222 0
14195 14488 0
-14195 -14488 0
14197 14506 0
-14197 -14506 0
14411 14414 0
-14411 -14414 0
14412 14600 0
-14412 -14600 0
14206 14204 0
-14206 -14204 0
14414 14206 0
-14414 -14206 0
14417 14420 0
-14417 -14420 0
14418 14648 0
-14418 -14648 0
14214 14212 0
-14214 -14212 0
14756 14214 0
-14756 -14214 0
14218 14216 0
-14218 -14216 0
14420 14218 0
-14420 -14218 0
14219 14501 0
-14219 -14501 0
14221 14222 0
-14221 -14222 0
-14712 14572 0
-14712 14573 0
14712 -14572 -14573 0
-14647 14634 0
-14647 14576 0
-14647 14575 0
-14647 14574 0
14647 -14634 -14576 -14575 -14574 0
-14642 14572 0
-14642 14573 0
14642 -14572 -14573 0
-14650 14572 0
-14650 14573 0
14650 -14572 -14573 0
-14651 14545 0
-14651 14555 0
14651 -14545 -14555 0
-14652 14554 0
-14652 14643 0
14652 -14554 -14643 0
-14670 14569 0
-14670 14692 0
14670 -14569 -14692 0
-14671 14572 0
-14671 14569 0
14671 -14572 -14569 0
-14677 14587 0
-14677 14709 0
14677 -14587 -14709 0
-14678 14587 0
-14678 14710 0
14678 -14587 -14710 0
-14684 14569 0
-14684 14588 0
-14684 14448 0
14684 -14569 -14588 -14448 0
-14685 14569 0
-14685 14710 0
14685 -14569 -14710 0
-14696 14448 0
-14696 14593 0
14696 -14448 -14593 0
-14697 14587 0
-14697 14710 0
14697 -14587 -14710 0
-14698 14448 0
-14698 14709 0
14698 -14448 -14709 0
-14700 14569 0
-14700 14588 0
-14700 14448 0
-14700 14710 0
14700 -14569 -14588 -14448 -14710 0
-14701 14569 0
-14701 14592 0
14701 -14569 -14592 0
-14637 14634 0
-14637 14575 0
-14637 14574 0
14637 -14634 -14575 -14574 0
-14638 14634 0
-14638 14628 0
14638 -14634 -14628 0
-14639 14629 0
-14639 14576 0
14639 -14629 -14576 0
-14655 14634 0
-14655 14628 0
-14655 14694 0
14655 -14634 -14628 -14694 0
-14656 14629 0
-14656 14575 0
14656 -14629 -14575 0
-14657 14576 0
-14657 14575 0
14657 -14576 -14575 0
-14660 14693 0
-14660 14557 0
14660 -14693 -14557 0
-14663 14575 0
-14663 14576 0
-14663 14634 0
-14663 14666 0
14663 -14575 -14576 -14634 -14666 0
-14664 14692 0
-14664 14572 0
-14664 14573 0
14664 -14692 -14572 -14573 0
-14673 14576 0
-14673 14634 0
-14673 14691 0
-14673 14676 0
14673 -14576 -14634 -14691 -14676 0
-14674 14587 0
-14674 14572 0
-14674 14573 0
14674 -14587 -14572 -14573 0
-14680 14710 0
-14680 14448 0
-14680 14588 0
-14680 14570 0
14680 -14710 -14448 -14588 -14570 0
-14681 14593 0
-14681 14572 0
-14681 14573 0
14681 -14593 -14572 -14573 0
-14687 14576 0
-14687 14634 0
-14687 14691 0
-14687 14695 0
14687 -14576 -14634 -14691 -14695 0
-14688 14709 0
-14688 14572 0
-14688 14573 0
14688 -14709 -14572 -14573 0
-14689 14588 0
-14689 14648 0
-14689 14695 0
14689 -14588 -14648 -14695 0
-14703 14587 0
-14703 14588 0
-14703 14707 0
-14703 14570 0
14703 -14587 -14588 -14707 -14570 0
-14704 14713 0
-14704 14572 0
-14704 14573 0
14704 -14713 -14572 -14573 0
-14705 14713 0
-14705 14714 0
14705 -14713 -14714 0
-14716 14598 0
-14716 14591 0
-14716 14365 0
-14716 14719 0
14716 -14598 -14591 -14365 -14719 0
-14717 14368 0
-14717 14597 0
14717 -14368 -14597 0
-14744 14598 0
-14744 14591 0
-14744 14365 0
-14744 14719 0
14744 -14598 -14591 -14365 -14719 0
-14745 14368 0
-14745 14597 0
14745 -14368 -14597 0
-14738 14555 0
-14738 14720 0
-14738 14506 0
14738 -14555 -14720 -14506 0
-14739 14525 0
-14739 14529 0
-14739 14720 0
14739 -14525 -14529 -14720 0
-14723 14720 0
-14723 14380 0
14723 -14720 -14380 0
-14724 14511 0
-14724 14530 0
14724 -14511 -14530 0
-14725 14529 0
-14725 14511 0
14725 -14529 -14511 0
-14728 14388 0
-14728 14554 0
14728 -14388 -14554 0
-14729 14530 0
-14729 14554 0
14729 -14530 -14554 0
-14732 14394 0
-14732 14720 0
-14732 14555 0
14732 -14394 -14720 -14555 0
-14735 14511 0
-14735 14624 0
-14735 14737 0
14735 -14511 -14624 -14737 0
-14741 14624 0
-14741 14615 0
14741 -14624 -14615 0
-14742 14710 0
-14742 14743 0
14742 -14710 -14743 0
-14747 14408 0
-14747 14720 0
14747 -14408 -14720 0
-14750 14411 0
-14750 14412 0
14750 -14411 -14412 0
-14751 14414 0
-14751 14600 0
14751 -14414 -14600 0
-14754 14417 0
-14754 14418 0
14754 -14417 -14418 0
-14755 14420 0
-14755 14648 0
14755 -14420 -14648 0
14595 -14648 0
14595 -14625 0
-14595 14648 14625 0
14596 -14553 0
14596 -14554 0
-14596 14553 14554 0
14562 -14629 0
14562 -14576 0
14562 -14575 0
14562 -14693 0
-14562 14629 14576 14575 14693 0
14563 -14629 0
14563 -14628 0
14563 -14694 0
-14563 14629 14628 14694 0
14566 -14572 0
14566 -14692 0
14566 -14710 0
14566 -14709 0
-14566 14572 14692 14710 14709 0
14567 -14572 0
14567 -14692 0
14567 -14587 0
-14567 14572 14692 14587 0
14568 -14588 0
14568 -14448 0
-14568 14588 14448 0
14571 -14629 0
14571 -14628 0
14571 -14694 0
14571 -14693 0
-14571 14629 14628 14694 14693 0
14538 -14756 0
14538 -14540 0
14538 -14544 0
14538 -14646 0
-14538 14756 14540 14544 14646 0
14539 -14545 0
14539 -14756 0
14539 -14641 0
-14539 14545 14756 14641 0
14550 -14756 0
14550 -14714 0
14550 -14552 0
14550 -14646 0
-14550 14756 14714 14552 14646 0
14551 -14553 0
14551 -14756 0
14551 -14649 0
-14551 14553 14756 14649 0
14584 -14756 0
14584 -14586 0
14584 -14589 0
14584 -14594 0
-14584 14756 14586 14589 14594 0
14585 -14643 0
14585 -14756 0
14585 -14711 0
-14585 14643 14756 14711 0
14608 -14591 0
14608 -14555 0
14608 -14554 0
14608 -14530 0
-14608 14591 14555 14554 14530 0
14609 -14511 0
14609 -14488 0
-14609 14511 14488 0
14610 -14511 0
14610 -14720 0
-14610 14511 14720 0
14616 -14525 0
14616 -14555 0
14616 -14554 0
-14616 14525 14555 14554 0
14617 -14529 0
14617 -14501 0
-14617 14529 14501 0
14618 -14511 0
14618 -14501 0
-14618 14511 14501 0
14613 -14743 0
14613 -14511 0
14613 -14530 0
14613 -14506 0
-14613 14743 14511 14530 14506 0
14614 -14624 0
14614 -14509 0
-14614 14624 14509 0
14621 -14511 0
14621 -14720 0
-14621 14511 14720 0
14622 -14591 0
14622 -14720 0
-14622 14591 14720 0
14623 -14555 0
14623 -14554 0
-14623 14555 14554 0
14603 -14591 0
14603 -14555 0
14603 -14554 0
14603 -14530 0
-14603 14591 14555 14554 14530 0
14604 -14525 0
14604 -14529 0
14604 -14720 0
-14604 14525 14529 14720 0
14605 -14529 0
14605 -14530 0
14605 -14531 0
-14605 14529 14530 14531 0
14653 14593 0
14653 14587 0
14653 14588 0
14653 14630 0
-14653 -14593 -14587 -14588 -14630 0
14762 14538 0
14762 14539 0
-14762 -14538 -14539 0
14540 14593 0
14540 14587 0
14540 14588 0
-14540 -14593 -14587 -14588 0
14544 14545 0
14544 14555 0
14544 14591 0
14544 14592 0
-14544 -14545 -14555 -14591 -14592 0
14764 14550 0
14764 14551 0
-14764 -14550 -14551 0
14552 14553 0
14552 14554 0
14552 14555 0
14552 14591 0
-14552 -14553 -14554 -14555 -14591 0
14557 14694 0
14557 14628 0
14557 14634 0
-14557 -14694 -14628 -14634 0
14661 14562 0
14661 14563 0
14661 14569 0
-14661 -14562 -14563 -14569 0
14675 14566 0
14675 14567 0
14675 14568 0
14675 14569 0
-14675 -14566 -14567 -14568 -14569 0
14570 14571 0
14570 14572 0
-14570 -14571 -14572 0
14573 14574 0
14573 14575 0
14573 14576 0
14573 14634 0
-14573 -14574 -14575 -14576 -14634 0
14714 14592 0
14714 14593 0
14714 14587 0
14714 14588 0
-14714 -14592 -14593 -14587 -14588 0
14780 14584 0
14780 14585 0
-14780 -14584 -14585 0
14586 14587 0
14586 14588 0
-14586 -14587 -14588 0
14589 14643 0
14589 14591 0
14589 14592 0
14589 14593 0
-14589 -14643 -14591 -14592 -14593 0
14594 14595 0
14594 14596 0
-14594 -14595 -14596 0
14597 14598 0
14597 14599 0
14597 14600 0
14597 14719 0
-14597 -14598 -14599 -14600 -14719 0
14730 14603 0
14730 14604 0
14730 14605 0
14730 14624 0
-14730 -14603 -14604 -14605 -14624 0
14733 14608 0
14733 14609 0
14733 14610 0
14733 14624 0
-14733 -14608 -14609 -14610 -14624 0
14736 14613 0
14736 14614 0
-14736 -14613 -14614 0
14615 14616 0
14615 14617 0
14615 14618 0
14615 14720 0
-14615 -14616 -14617 -14618 -14720 0
14748 14621 0
14748 14622 0
14748 14623 0
14748 14624 0
-14748 -14621 -14622 -14623 -14624 0
-14625 -14693 0
-14625 -14694 0
-14625 -14628 0
-14625 -14629 0
14625 14693 14694 14628 14629 0
-14630 -14713 0
-14630 -14709 0
14630 14713 14709 0
-14758 -14634 0
-14758 -14756 0
14758 14634 14756 0
-14760 -14637 0
-14760 -14638 0
-14760 -14639 0
-14760 -14756 0
14760 14637 14638 14639 14756 0
-14641 -14642 0
-14641 -14643 0
-14641 -14713 0
-14641 -14714 0
14641 14642 14643 14713 14714 0
-14646 -14647 0
-14646 -14648 0
14646 14647 14648 0
-14649 -14650 0
-14649 -14651 0
-14649 -14652 0
-14649 -14653 0
14649 14650 14651 14652 14653 0
-14766 -14655 0
-14766 -14656 0
-14766 -14657 0
-14766 -14756 0
14766 14655 14656 14657 14756 0
-14768 -14660 0
-14768 -14661 0
14768 14660 14661 0
-14770 -14663 0
-14770 -14664 0
-14770 -14669 0
14770 14663 14664 14669 0
-14666 -14692 0
-14666 -14693 0
14666 14692 14693 0
-14669 -14670 0
-14669 -14671 0
14669 14670 14671 0
-14772 -14673 0
-14772 -14674 0
-14772 -14675 0
14772 14673 14674 14675 0
-14676 -14677 0
-14676 -14678 0
14676 14677 14678 0
-14774 -14680 0
-14774 -14681 0
-14774 -14683 0
14774 14680 14681 14683 0
-14683 -14684 0
-14683 -14685 0
14683 14684 14685 0
-14776 -14687 0
-14776 -14688 0
-14776 -14689 0
-14776 -14699 0
14776 14687 14688 14689 14699 0
-14691 -14692 0
-14691 -14693 0
-14691 -14694 0
14691 14692 14693 14694 0
-14695 -14696 0
-14695 -14697 0
-14695 -14698 0
14695 14696 14697 14698 0
-14699 -14700 0
-14699 -14701 0
14699 14700 14701 0
-14778 -14703 0
-14778 -14704 0
-14778 -14705 0
-14778 -14706 0
14778 14703 14704 14705 14706 0
-14707 -14713 0
-14707 -14709 0
-14707 -14710 0
14707 14713 14709 14710 0
-14711 -14712 0
-14711 -14713 0
-14711 -14714 0
14711 14712 14713 14714 0
-14782 -14716 0
-14782 -14717 0
-14782 -14756 0
14782 14716 14717 14756 0
-14719 -14720 0
-14719 -14721 0
14719 14720 14721 0
-14784 -14723 0
-14784 -14724 0
-14784 -14725 0
-14784 -14743 0
14784 14723 14724 14725 14743 0
-14786 -14728 0
-14786 -14729 0
-14786 -14730 0
14786 14728 14729 14730 0
-14788 -14732 0
-14788 -14733 0
14788 14732 14733 0
-14790 -14735 0
-14790 -14736 0
14790 14735 14736 0
-14737 -14738 0
-14737 -14739 0
14737 14738 14739 0
-14792 -14741 0
-14792 -14742 0
14792 14741 14742 0
-14743 -14744 0
-14743 -14745 0
14743 14744 14745 0
-14794 -14747 0
-14794 -14748 0
14794 14747 14748 0
-14796 -14750 0
-14796 -14751 0
-14796 -14756 0
14796 14750 14751 14756 0
-14798 -14754 0
-14798 -14755 0
-14798 -14756 0
14798 14754 14755 14756 0
-14758 15302 0
14758 -15302 0
-14760 15296 0
14760 -15296 0
-14762 15222 0
14762 -15222 0
-14764 15388 0
14764 -15388 0
-14766 15362 0
14766 -15362 0
-14768 15242 0
14768 -15242 0
-14770 15256 0
14770 -15256 0
-14772 15116 0
14772 -15116 0
-14774 15378 0
14774 -15378 0
-14776 15260 0
14776 -15260 0
-14778 15259 0
14778 -15259 0
-14780 15223 0
14780 -15223 0
-14782 14838 0
14782 -14838 0
-14784 14848 0
14784 -14848 0
-14786 15199 0
14786 -15199 0
-14788 15156 0
14788 -15156 0
-14790 15174 0
14790 -15174 0
-14792 15169 0
14792 -15169 0
-14794 14890 0
14794 -14890 0
-14796 15268 0
14796 -15268 0
-14798 15316 0
14798 -15316 0
15237 15424 0
-15237 -15424 0
15213 15222 0
-15213 -15222 0
15221 15388 0
-15221 -15388 0
15297 15302 0
-15297 -15302 0
15361 15242 0
-15361 -15242 0
15243 15362 0
-15243 -15362 0
15360 15256 0
-15360 -15256 0
15261 15378 0
-15261 -15378 0
15244 15296 0
-15244 -15296 0
15377 15260 0
-15377 -15260 0
15255 15116 0
-15255 -15116 0
15240 15316 0
-15240 -15316 0
15381 15259 0
-15381 -15259 0
15374 15237 0
-15374 -15237 0
15311 15223 0
-15311 -15223 0
15267 15259 0
-15267 -15259 0
15389 15222 0
-15389 -15222 0
15266 15223 0
-15266 -15223 0
15033 15268 0
-15033 -15268 0
15036 14838 0
-15036 -14838 0
14839 14848 0
-14839 -14848 0
14841 15199 0
-14841 -15199 0
15177 15378 0
-15177 -15378 0
15193 15259 0
-15193 -15259 0
15048 14848 0
-15048 -14848 0
15197 15223 0
-15197 -15223 0
15056 15199 0
-15056 -15199 0
15198 15388 0
-15198 -15388 0
15062 15156 0
-15062 -15156 0
15179 15222 0
-15179 -15222 0
15292 15411 0
-15292 -15411 0
15076 14890 0
-15076 -14890 0
14863 15156 0
-14863 -15156 0
14865 15174 0
-14865 -15174 0
15079 15082 0
-15079 -15082 0
15080 15268 0
-15080 -15268 0
14874 14872 0
-14874 -14872 0
15082 14874 0
-15082 -14874 0
15085 15088 0
-15085 -15088 0
15086 15316 0
-15086 -15316 0
14882 14880 0
-14882 -14880 0
15424 14882 0
-15424 -14882 0
14886 14884 0
-14886 -14884 0
15088 14886 0
-15088 -14886 0
14887 15169 0
-14887 -15169 0
14889 14890 0
-14889 -14890 0
-15380 15240 0
-15380 15241 0
15380 -15240 -15241 0
-15315 15302 0
-15315 15244 0
-15315 15243 0
-15315 15242 0
15315 -15302 -15244 -15243 -15242 0
-15310 15240 0
-15310 15241 0
15310 -15240 -15241 0
-15318 15240 0
-15318 15241 0
15318 -15240 -15241 0
-15319 15213 0
-15319 15223 0
15319 -15213 -15223 0
-15320 15222 0
-15320 15311 0
15320 -15222 -15311 0
-15338 15237 0
-15338 15360 0
15338 -15237 -15360 0
-15339 15240 0
-15339 15237 0
15339 -15240 -15237 0
-15345 15255 0
-15345 15377 0
15345 -15255 -15377 0
-15346 15255 0
-15346 15378 0
15346 -15255 -15378 0
-15352 15237 0
-15352 15256 0
-15352 15116 0
15352 -15237 -15256 -15116 0
-15353 15237 0
-15353 15378 0
15353 -15237 -15378 0
-15364 15116 0
-15364 15261 0
15364 -15116 -15261 0
-15365 15255 0
-15365 15378 0
15365 -15255 -15378 0
-15366 15116 0
-15366 15377 0
15366 -15116 -15377 0
-15368 15237 0
-15368 15256 0
-15368 15116 0
-15368 15378 0
15368 -15237 -15256 -15116 -15378 0
-15369 15237 0
-15369 15260 0
15369 -15237 -15260 0
-15305 15302 0
-15305 15243 0
-15305 15242 0
15305 -15302 -15243 -15242 0
-15306 15302 0
-15306 15296 0
15306 -15302 -15296 0
-15307 15297 0
-15307 15244 0
15307 -15297 -15244 0
-15323 15302 0
-15323 15296 0
-15323 15362 0
15323 -15302 -15296 -15362 0
-15324 15297 0
-15324 15243 0
15324 -15297 -15243 0
-15325 15244 0
-15325 15243 0
15325 -15244 -15243 0
-15328 15361 0
-15328 15225 0
15328 -15361 -15225 0
-15331 15243 0
-15331 15244 0
-15331 15302 0
-15331 15334 0
15331 -15243 -15244 -15302 -15334 0
-15332 15360 0
-15332 15240 0
-15332 15241 0
15332 -15360 -15240 -15241 0
-15341 15244 0
-15341 15302 0
-15341 15359 0
-15341 15344 0
15341 -15244 -15302 -15359 -15344 0
-15342 15255 0
-15342 15240 0
-15342 15241 0
15342 -15255 -15240 -15241 0
-15348 15378 0
-15348 15116 0
-15348 15256 0
-15348 15238 0
15348 -15378 -15116 -15256 -15238 0
-15349 15261 0
-15349 15240 0
-15349 15241 0
15349 -15261 -15240 -15241 0
-15355 15244 0
-15355 15302 0
-15355 15359 0
-15355 15363 0
15355 -15244 -15302 -15359 -15363 0
-15356 15377 0
-15356 15240 0
-15356 15241 0
15356 -15377 -15240 -15241 0
-15357 15256 0
-15357 15316 0
-15357 15363 0
15357 -15256 -15316 -15363 0
-15371 15255 0
-15371 15256 0
-15371 15375 0
-15371 15238 0
15371 -15255 -15256 -15375 -15238 0
-15372 15381 0
-15372 15240 0
-15372 15241 0
15372 -15381 -15240 -15241 0
-15373 15381 0
-15373 15382 0
15373 -15381 -15382 0
-15384 15266 0
-15384 15259 0
-15384 15033 0
-15384 15387 0
15384 -15266 -15259 -15033 -15387 0
-15385 15036 0
-15385 15265 0
15385 -15036 -15265 0
-15412 15266 0
-15412 15259 0
-15412 15033 0
-15412 15387 0
15412 -15266 -15259 -15033 -15387 0
-15413 15036 0
-15413 15265 0
15413 -15036 -15265 0
-15406 15223 0
-15406 15388 0
-15406 15174 0
15406 -15223 -15388 -15174 0
-15407 15193 0
-15407 15197 0
-15407 15388 0
15407 -15193 -15197 -15388 0
-15391 15388 0
-15391 15048 0
15391 -15388 -15048 0
-15392 15179 0
-15392 15198 0
15392 -15179 -15198 0
-15393 15197 0
-15393 15179 0
15393 -15197 -15179 0
-15396 15056 0
-15396 15222 0
15396 -15056 -15222 0
-15397 15198 0
-15397 15222 0
15397 -15198 -15222 0
-15400 15062 0
-15400 15388 0
-15400 15223 0
15400 -15062 -15388 -15223 0
-15403 15179 0
-15403 15292 0
-15403 15405 0
15403 -15179 -15292 -15405 0
-15409 15292 0
-15409 15283 0
15409 -15292 -15283 0
-15410 15378 0
-15410 15411 0
15410 -15378 -15411 0
-15415 15076 0
-15415 15388 0
15415 -15076 -15388 0
-15418 15079 0
-15418 15080 0
15418 -15079 -15080 0
-15419 15082 0
-15419 15268 0
15419 -15082 -15268 0
-15422 15085 0
-15422 15086 0
15422 -15085 -15086 0
-15423 15088 0
-15423 15316 0
15423 -15088 -15316 0
15263 -15316 0
15263 -15293 0
-15263 15316 15293 0
15264 -15221 0
15264 -15222 0
-15264 15221 15222 0
15230 -15297 0
15230 -15244 0
15230 -15243 0
15230 -15361 0
-15230 15297 15244 15243 15361 0
15231 -15297 0
15231 -15296 0
15231 -15362 0
-15231 15297 15296 15362 0
15234 -15240 0
15234 -15360 0
15234 -15378 0
15234 -15377 0
-15234 15240 15360 15378 15377 0
15235 -15240 0
15235 -15360 0
15235 -15255 0
-15235 15240 15360 15255 0
15236 -15256 0
15236 -15116 0
-15236 15256 15116 0
15239 -15297 0
15239 -15296 0
15239 -15362 0
15239 -15361 0
-15239 15297 15296 15362 15361 0
15206 -15424 0
15206 -15208 0
15206 -15212 0
15206 -15314 0
-15206 15424 15208 15212 15314 0
15207 -15213 0
15207 -15424 0
15207 -15309 0
-15207 15213 15424 15309 0
15218 -15424 0
15218 -15382 0
15218 -15220 0
15218 -15314 0
-15218 15424 15382 15220 15314 0
15219 -15221 0
15219 -15424 0
15219 -15317 0
-15219 15221 15424 15317 0
15252 -15424 0
15252 -15254 0
15252 -15257 0
15252 -15262 0
-15252 15424 15254 15257 15262 0
15253 -15311 0
15253 -15424 0
15253 -15379 0
-15253 15311 15424 15379 0
15276 -15259 0
15276 -15223 0
15276 -15222 0
15276 -15198 0
-15276 15259 15223 15222 15198 0
15277 -15179 0
15277 -15156 0
-15277 15179 15156 0
15278 -15179 0
15278 -15388 0
-15278 15179 15388 0
15284 -15193 0
15284 -15223 0
15284 -15222 0
-15284 15193 15223 15222 0
15285 -15197 0
15285 -15169 0
-15285 15197 15169 0
15286 -15179 0
15286 -15169 0
-15286 15179 15169 0
15281 -15411 0
15281 -15179 0
15281 -15198 0
15281 -15174 0
-15281 15411 15179 15198 15174 0
15282 -15292 0
15282 -15177 0
-15282 15292 15177 0
15289 -15179 0
15289 -15388 0
-15289 15179 15388 0
15290 -15259 0
15290 -15388 0
-15290 15259 15388 0
15291 -15223 0
15291 -15222 0
-15291 15223 15222 0
15271 -15259 0
15271 -15223 0
15271 -15222 0
15271 -15198 0
-15271 15259 15223 15222 15198 0
15272 -15193 0
15272 -15197 0
15272 -15388 0
-15272 15193 15197 15388 0
15273 -15197 0
15273 -15198 0
15273 -15199 0
-15273 15197 15198 15199 0
15321 15261 0
15321 15255 0
15321 15256 0
15321 15298 0
-15321 -15261 -15255 -15256 -15298 0
15430 15206 0
15430 15207 0
-15430 -15206 -15207 0
15208 15261 0
15208 15255 0
15208 15256 0
-15208 -15261 -15255 -15256 0
15212 15213 0
15212 15223 0
15212 15259 0
15212 15260 0
-15212 -15213 -15223 -15259 -15260 0
15432 15218 0
15432 15219 0
-15432 -15218 -15219 0
15220 15221 0
15220 15222 0
15220 15223 0
15220 15259 0
-15220 -15221 -15222 -15223 -15259 0
15225 15362 0
15225 15296 0
15225 15302 0
-15225 -15362 -15296 -15302 0
15329 15230 0
15329 15231 0
15329 15237 0
-15329 -15230 -15231 -15237 0
15343 15234 0
15343 15235 0
15343 15236 0
15343 15237 0
-15343 -15234 -15235 -15236 -15237 0
15238 15239 0
15238 15240 0
-15238 -15239 -15240 0
15241 15242 0
15241 15243 0
15241 15244 0
15241 15302 0
-15241 -15242 -15243 -15244 -15302 0
15382 15260 0
15382 15261 0
15382 15255 0
15382 15256 0
-15382 -15260 -15261 -15255 -15256 0
15448 15252 0
15448 15253 0
-15448 -15252 -15253 0
15254 15255 0
15254 15256 0
-15254 -15255 -15256 0
15257 15311 0
15257 15259 0
15257 15260 0
15257 15261 0
-15257 -15311 -15259 -15260 -15261 0
15262 15263 0
15262 15264 0
-15262 -15263 -15264 0
15265 15266 0
15265 15267 0
15265 15268 0
15265 15387 0
-15265 -15266 -15267 -15268 -15387 0
15398 15271 0
15398 15272 0
15398 15273 0
15398 15292 0
-15398 -15271 -15272 -15273 -15292 0
15401 15276 0
15401 15277 0
15401 15278 0
15401 15292 0
-15401 -15276 -15277 -15278 -15292 0
15404 15281 0
15404 15282 0
-15404 -15281 -15282 0
15283 15284 0
15283 15285 0
15283 15286 0
15283 15388 0
-15283 -15284 -15285 -15286 -15388 0
15416 15289 0
15416 15290 0
15416 15291 0
15416 15292 0
-15416 -15289 -15290 -15291 -15292 0
-15293 -15361 0
-15293 -15362 0
-15293 -15296 0
-15293 -15297 0
15293 15361 15362 15296 15297 0
-15298 -15381 0
-15298 -15377 0
15298 15381 15377 0
-15426 -15302 0
-15426 -15424 0
15426 15302 15424 0
-15428 -15305 0
-15428 -15306 0
-15428 -15307 0
-15428 -15424 0
15428 15305 15306 15307 15424 0
-15309 -15310 0
-15309 -15311 0
-15309 -15381 0
-15309 -15382 0
15309 15310 15311 15381 15382 0
-15314 -15315 0
-15314 -15316 0
15314 15315 15316 0
-15317 -15318 0
-15317 -15319 0
-15317 -15320 0
-15317 -15321 0
15317 15318 15319 15320 15321 0
-15434 -15323 0
-15434 -15324 0
-15434 -15325 0
-15434 -15424 0
15434 15323 15324 15325 15424 0
-15436 -15328 0
-15436 -15329 0
15436 15328 15329 0
-15438 -15331 0
-15438 -15332 0
-15438 -15337 0
15438 15331 15332 15337 0
-15334 -15360 0
-15334 -15361 0
15334 15360 15361 0
-15337 -15338 0
-15337 -15339 0
15337 15338 15339 0
-15440 -15341 0
-15440 -15342 0
-15440 -15343 0
15440 15341 15342 15343 0
-15344 -15345 0
-15344 -15346 0
15344 15345 15346 0
-15442 -15348 0
-15442 -15349 0
-15442 -15351 0
15442 15348 15349 15351 0
-15351 -15352 0
-15351 -15353 0
15351 15352 15353 0
-15444 -15355 0
-15444 -15356 0
-15444 -15357 0
-15444 -15367 0
15444 15355 15356 15357 15367 0
-15359 -15360 0
-15359 -15361 0
-15359 -15362 0
15359 15360 15361 15362 0
-15363 -15364 0
-15363 -15365 0
-15363 -15366 0
15363 15364 15365 15366 0
-15367 -15368 0
-15367 -15369 0
15367 15368 15369 0
-15446 -15371 0
-15446 -15372 0
-15446 -15373 0
-15446 -15374 0
15446 15371 15372 15373 15374 0
-15375 -15381 0
-15375 -15377 0
-15375 -15378 0
15375 15381 15377 15378 0
-15379 -15380 0
-15379 -15381 0
-15379 -15382 0
15379 15380 15381 15382 0
-15450 -15384 0
-15450 -15385 0
-15450 -15424 0
15450 15384 15385 15424 0
-15387 -15388 0
-15387 -15389 0
15387 15388 15389 0
-15452 -15391 0
-15452 -15392 0
-15452 -15393 0
-15452 -15411 0
15452 15391 15392 15393 15411 0
-15454 -15396 0
-15454 -15397 0
-15454 -15398 0
15454 15396 15397 15398 0
-15456 -15400 0
-15456 -15401 0
15456 15400 15401 0
-15458 -15403 0
-15458 -15404 0
15458 15403 15404 0
-15405 -15406 0
-15405 -15407 0
15405 15406 15407 0
-15460 -15409 0
-15460 -15410 0
15460 15409 15410 0
-15411 -15412 0
-15411 -15413 0
15411 15412 15413 0
-15462 -15415 0
-15462 -15416 0
15462 15415 15416 0
-15464 -15418 0
-15464 -15419 0
-15464 -15424 0
15464 15418 15419 15424 0
-15466 -15422 0
-15466 -15423 0
-15466 -15424 0
15466 15422 15423 15424 0
-15426 15970 0
15426 -15970 0
-15428 15964 0
15428 -15964 0
-15430 15890 0
15430 -15890 0
-15432 16056 0
15432 -16056 0
-15434 16030 0
15434 -16030 0
-15436 15910 0
15436 -15910 0
-15438 15924 0
15438 -15924 0
-15440 15784 0
15440 -15784 0
-15442 16046 0
15442 -16046 0
-15444 15928 0
15444 -15928 0
-15446 15927 0
15446 -15927 0
-15448 15891 0
15448 -15891 0
-15450 15506 0
15450 -15506 0
-15452 15516 0
15452 -15516 0
-15454 15867 0
15454 -15867 0
-15456 15824 0
15456 -15824 0
-15458 15842 0
15458 -15842 0
-15460 15837 0
15460 -15837 0
-15462 15558 0
15462 -15558 0
-15464 15936 0
15464 -15936 0
-15466 15984 0
15466 -15984 0
15905 16092 0
-15905 -16092 0
15881 15890 0
-15881 -15890 0
15889 16056 0
-15889 -16056 0
15965 15970 0
-15965 -15970 0
16029 15910 0
-16029 -15910 0
15911 16030 0
-15911 -16030 0
16028 15924 0
-16028 -15924 0
15929 16046 0
-15929 -16046 0
15912 15964 0
-15912 -15964 0
16045 15928 0
-16045 -15928 0
15923 15784 0
-15923 -15784 0
15908 15984 0
-15908 -15984 0
16049 15927 0
-16049 -15927 0
16042 15905 0
-16042 -15905 0
15979 15891 0
-15979 -15891 0
15935 15927 0
-15935 -15927 0
16057 15890 0
-16057 -15890 0
15934 15891 0
-15934 -15891 0
15701 15936 0
-15701 -15936 0
15704 15506 0
-15704 -15506 0
15507 15516 0
-15507 -15516 0
15509 15867 0
-15509 -15867 0
15845 16046 0
-15845 -16046 0
15861 15927 0
-15861 -15927 0
15716 15516 0
-15716 -15516 0
15865 15891 0
-15865 -15891 0
15724 15867 0
-15724 -15867 0
15866 16056 0
-15866 -16056 0
15730 15824 0
-15730 -15824 0
15847 15890 0
-15847 -15890 0
15960 16079 0
-15960 -16079 0
15744 15558 0
-15744 -15558 0
15531 15824 0
-15531 -15824 0
15533 15842 0
-15533 -15842 0
15747 15750 0
-15747 -15750 0
15748 15936 0
-15748 -15936 0
15542 15540 0
-15542 -15540 0
15750 15542 0
-15750 -15542 0
15753 15756 0
-15753 -15756 0
15754 15984 0
-15754 -15984 0
15550 15548 0
-15550 -15548 0
16092 15550 0
-16092 -15550 0
15554 15552 0
-15554 -15552 0
15756 15554 0
-15756 -15554 0
15555 15837 0
-15555 -15837 0
15557 15558 0
-15557 -15558 0
-16048 15908 0
-16048 15909 0
16048 -15908 -15909 0
-15983 15970 0
-15983 15912 0
-15983 15911 0
-15983 15910 0
15983 -15970 -15912 -15911 -15910 0
-15978 15908 0
-15978 15909 0
15978 -15908 -15909 0
-15986 15908 0
-15986 15909 0
15986 -15908 -15909 0
-15987 15881 0
-15987 15891 0
15987 -15881 -15891 0
-15988 15890 0
-15988 15979 0
15988 -15890 -15979 0
-16006 15905 0
-16006 16028 0
16006 -15905 -16028 0
-16007 15908 0
-16007 15905 0
16007 -15908 -15905 0
-16013 15923 0
-16013 16045 0
16013 -15923 -16045 0
-16014 15923 0
-16014 16046 0
16014 -15923 -16046 0
-16020 15905 0
-16020 15924 0
-16020 15784 0
16020 -15905 -15924 -15784 0
-16021 15905 0
-16021 16046 0
16021 -15905 -16046 0
-16032 15784 0
-16032 15929 0
16032 -15784 -15929 0
-16033 15923 0
-16033 16046 0
16033 -15923 -16046 0
-16034 15784 0
-16034 16045 0
16034 -15784 -16045 0
-16036 15905 0
-16036 15924 0
-16036 15784 0
-16036 16046 0
16036 -15905 -15924 -15784 -16046 0
-16037 15905 0
-16037 15928 0
16037 -15905 -15928 0
-15973 15970 0
-15973 15911 0
-15973 15910 0
15973 -15970 -15911 -15910 0
-15974 15970 0
-15974 15964 0
15974 -15970 -15964 0
-15975 15965 0
-15975 15912 0
15975 -15965 -15912 0
-15991 15970 0
-15991 15964 0
-15991 16030 0
15991 -15970 -15964 -16030 0
-15992 15965 0
-15992 15911 0
15992 -15965 -15911 0
-15993 15912 0
-15993 15911 0
15993 -15912 -15911 0
-15996 16029 0
-15996 15893 0
15996 -16029 -15893 0
-15999 15911 0
-15999 15912 0
-15999 15970 0
-15999 16002 0
15999 -15911 -15912 -15970 -16002 0
-16000 16028 0
-16000 15908 0
-16000 15909 0
16000 -16028 -15908 -15909 0
-16009 15912 0
-16009 15970 0
-16009 16027 0
-16009 16012 0
16009 -15912 -15970 -16027 -16012 0
-16010 15923 0
-16010 15908 0
-16010 15909 0
16010 -15923 -15908 -15909 0
-16016 16046 0
-16016 15784 0
-16016 15924 0
-16016 15906 0
16016 -16046 -15784 -15924 -15906 0
-16017 15929 0
-16017 15908 0
-16017 15909 0
16017 -15929 -15908 -15909 0
-16023 15912 0
-16023 15970 0
-16023 16027 0
-16023 16031 0
16023 -15912 -15970 -16027 -16031 0
-16024 16045 0
-16024 15908 0
-16024 15909 0
16024 -16045 -15908 -15909 0
-16025 15924 0
-16025 15984 0
-16025 16031 0
16025 -15924 -15984 -16031 0
-16039 15923 0
-16039 15924 0
-16039 16043 0
-16039 15906 0
16039 -15923 -15924 -16043 -15906 0
-16040 16049 0
-16040 15908 0
-16040 15909 0
16040 -16049 -15908 -15909 0
-16041 16049 0
-16041 16050 0
16041 -16049 -16050 0
-16052 15934 0
-16052 15927 0
-16052 15701 0
-16052 16055 0
16052 -15934 -15927 -15701 -16055 0
-16053 15704 0
-16053 15933 0
16053 -15704 -15933 0
-16080 15934 0
-16080 15927 0
-16080 15701 0
-16080 16055 0
16080 -15934 -15927 -15701 -16055 0
-16081 15704 0
-16081 15933 0
16081 -15704 -15933 0
-16074 15891 0
-16074 16056 0
-16074 15842 0
16074 -15891 -16056 -15842 0
-16075 15861 0
-16075 15865 0
-16075 16056 0
16075 -15861 -15865 -16056 0
-16059 16056 0
-16059 15716 0
16059 -16056 -15716 0
-16060 15847 0
-16060 15866 0
16060 -15847 -15866 0
-16061 15865 0
-16061 15847 0
16061 -15865 -15847 0
-16064 15724 0
-16064 15890 0
16064 -15724 -15890 0
-16065 15866 0
-16065 15890 0
16065 -15866 -15890 0
-16068 15730 0
-16068 16056 0
-16068 15891 0
16068 -15730 -16056 -15891 0
-16071 15847 0
-16071 15960 0
-16071 16073 0
16071 -15847 -15960 -16073 0
-16077 15960 0
-16077 15951 0
16077 -15960 -15951 0
-16078 16046 0
-16078 16079 0
16078 -16046 -16079 0
-16083 15744 0
-16083 16056 0
16083 -15744 -16056 0
-16086 15747 0
-16086 15748 0
16086 -15747 -15748 0
-16087 15750 0
-16087 15936 0
16087 -15750 -15936 0
-16090 15753 0
-16090 15754 0
16090 -15753 -15754 0
-16091 15756 0
-16091 15984 0
16091 -15756 -15984 0
15931 -15984 0
15931 -15961 0
-15931 15984 15961 0
15932 -15889 0
15932 -15890 0
-15932 15889 15890 0
15898 -15965 0
15898 -15912 0
15898 -15911 0
15898 -16029 0
-15898 15965 15912 15911 16029 0
15899 -15965 0
15899 -15964 0
15899 -16030 0
-15899 15965 15964 16030 0
15902 -15908 0
15902 -16028 0
15902 -16046 0
15902 -16045 0
-15902 15908 16028 16046 16045 0
15903 -15908 0
15903 -16028 0
15903 -15923 0
-15903 15908 16028 15923 0
15904 -15924 0
15904 -15784 0
-15904 15924 15784 0
15907 -15965 0
15907 -15964 0
15907 -16030 0
15907 -16029 0
-15907 15965 15964 16030 16029 0
15874 -16092 0
15874 -15876 0
15874 -15880 0
15874 -15982 0
-15874 16092 15876 15880 15982 0
15875 -15881 0
15875 -16092 0
15875 -15977 0
-15875 15881 16092 15977 0
15886 -16092 0
15886 -16050 0
15886 -15888 0
15886 -15982 0
-15886 16092 16050 15888 15982 0
15887 -15889 0
15887 -16092 0
15887 -15985 0
-15887 15889 16092 15985 0
15920 -16092 0
15920 -15922 0
15920 -15925 0
15920 -15930 0
-15920 16092 15922 15925 15930 0
15921 -15979 0
15921 -16092 0
15921 -16047 0
-15921 15979 16092 16047 0
15944 -15927 0
15944 -15891 0
15944 -15890 0
15944 -15866 0
-15944 15927 15891 15890 15866 0
15945 -15847 0
15945 -15824 0
-15945 15847 15824 0
15946 -15847 0
15946 -16056 0
-15946 15847 16056 0
15952 -15861 0
15952 -15891 0
15952 -15890 0
-15952 15861 15891 15890 0
15953 -15865 0
15953 -15837 0
-15953 15865 15837 0
15954 -15847 0
15954 -15837 0
-15954 15847 15837 0
15949 -16079 0
15949 -15847 0
15949 -15866 0
15949 -15842 0
-15949 16079 15847 15866 15842 0
15950 -15960 0
15950 -15845 0
-15950 15960 15845 0
15957 -15847 0
15957 -16056 0
-15957 15847 16056 0
15958 -15927 0
15958 -16056 0
-15958 15927 16056 0
15959 -15891 0
15959 -15890 0
-15959 15891 15890 0
15939 -15927 0
15939 -15891 0
15939 -15890 0
15939 -15866 0
-15939 15927 15891 15890 15866 0
15940 -15861 0
15940 -15865 0
15940 -16056 0
-15940 15861 15865 16056 0
15941 -15865 0
15941 -15866 0
15941 -15867 0
-15941 15865 15866 15867 0
15989 15929 0
15989 15923 0
15989 15924 0
15989 15966 0
-15989 -15929 -15923 -15924 -15966 0
16098 15874 0
16098 15875 0
-16098 -15874 -15875 0
15876 15929 0
15876 15923 0
15876 15924 0
-15876 -15929 -15923 -15924 0
15880 15881 0
15880 15891 0
15880 15927 0
15880 15928 0
-15880 -15881 -15891 -15927 -15928 0
16100 15886 0
16100 15887 0
-16100 -15886 -15887 0
15888 15889 0
15888 15890 0
15888 15891 0
15888 15927 0
-15888 -15889 -15890 -15891 -15927 0
15893 16030 0
15893 15964 0
15893 15970 0
-15893 -16030 -15964 -15970 0
15997 15898 0
15997 15899 0
15997 15905 0
-15997 -15898 -15899 -15905 0
16011 15902 0
16011 15903 0
16011 15904 0
16011 15905 0
-16011 -15902 -15903 -15904 -15905 0
15906 15907 0
15906 15908 0
-15906 -15907 -15908 0
15909 15910 0
15909 15911 0
15909 15912 0
15909 15970 0
-15909 -15910 -15911 -15912 -15970 0
16050 15928 0
16050 15929 0
16050 15923 0
16050 15924 0
-16050 -15928 -15929 -15923 -15924 0
16116 15920 0
16116 15921 0
-16116 -15920 -15921 0
15922 15923 0
15922 15924 0
-15922 -15923 -15924 0
15925 15979 0
15925 15927 0
15925 15928 0
15925 15929 0
-15925 -15979 -15927 -15928 -15929 0
15930 15931 0
15930 15932 0
-15930 -15931 -15932 0
15933 15934 0
15933 15935 0
15933 15936 0
15933 16055 0
-15933 -15934 -15935 -15936 -16055 0
16066 15939 0
16066 15940 0
16066 15941 0
16066 15960 0
-16066 -15939 -15940 -15941 -15960 0
16069 15944 0
16069 15945 0
16069 15946 0
16069 15960 0
-16069 -15944 -15945 -15946 -15960 0
16072 15949 0
16072 15950 0
-16072 -15949 -15950 0
15951 15952 0
15951 15953 0
15951 15954 0
15951 16056 0
-15951 -15952 -15953 -15954 -16056 0
16084 15957 0
16084 15958 0
16084 15959 0
16084 15960 0
-16084 -15957 -15958 -15959 -15960 0
-15961 -16029 0
-15961 -16030 0
-15961 -15964 0
-15961 -15965 0
15961 16029 16030 15964 15965 0
-15966 -16049 0
-15966 -16045 0
15966 16049 16045 0
-16094 -15970 0
-16094 -16092 0
16094 15970 16092 0
-16096 -15973 0
-16096 -15974 0
-16096 -15975 0
-16096 -16092 0
16096 15973 15974 15975 16092 0
-15977 -15978 0
-15977 -15979 0
-15977 -16049 0
-15977 -16050 0
15977 15978 15979 16049 16050 0
-15982 -15983 0
-15982 -15984 0
15982 15983 15984 0
-15985 -15986 0
-15985 -15987 0
-15985 -15988 0
-15985 -15989 0
15985 15986 15987 15988 15989 0
-16102 -15991 0
-16102 -15992 0
-16102 -15993 0
-16102 -16092 0
16102 15991 15992 15993 16092 0
-16104 -15996 0
-16104 -15997 0
16104 15996 15997 0
-16106 -15999 0
-16106 -16000 0
-16106 -16005 0
16106 15999 16000 16005 0
-16002 -16028 0
-16002 -16029 0
16002 16028 16029 0
-16005 -16006 0
-16005 -16007 0
16005 16006 16007 0
-16108 -16009 0
-16108 -16010 0
-16108 -16011 0
16108 16009 16010 16011 0
-16012 -16013 0
-16012 -16014 0
16012 16013 16014 0
-16110 -16016 0
-16110 -16017 0
-16110 -16019 0
16110 16016 16017 16019 0
-16019 -16020 0
-16019 -16021 0
16019 16020 16021 0
-16112 -16023 0
-16112 -16024 0
-16112 -16025 0
-16112 -16035 0
16112 16023 16024 16025 16035 0
-16027 -16028 0
-16027 -16029 0
-16027 -16030 0
16027 16028 16029 16030 0
-16031 -16032 0
-16031 -16033 0
-16031 -16034 0
16031 16032 16033 16034 0
-16035 -16036 0
-16035 -16037 0
16035 16036 16037 0
-16114 -16039 0
-16114 -16040 0
-16114 -16041 0
-16114 -16042 0
16114 16039 16040 16041 16042 0
-16043 -16049 0
-16043 -16045 0
-16043 -16046 0
16043 16049 16045 16046 0
-16047 -16048 0
-16047 -16049 0
-16047 -16050 0
16047 16048 16049 16050 0
-16118 -16052 0
-16118 -16053 0
-16118 -16092 0
16118 16052 16053 16092 0
-16055 -16056 0
-16055 -16057 0
16055 16056 16057 0
-16120 -16059 0
-16120 -16060 0
-16120 -16061 0
-16120 -16079 0
16120 16059 16060 16061 16079 0
-16122 -16064 0
-16122 -16065 0
-16122 -16066 0
16122 16064 16065 16066 0
-16124 -16068 0
-16124 -16069 0
16124 16068 16069 0
-16126 -16071 0
-16126 -16072 0
16126 16071 16072 0
-16073 -16074 0
-16073 -16075 0
16073 16074 16075 0
-16128 -16077 0
-16128 -16078 0
16128 16077 16078 0
-16079 -16080 0
-16079 -16081 0
16079 16080 16081 0
-16130 -16083 0
-16130 -16084 0
16130 16083 16084 0
-16132 -16086 0
-16132 -16087 0
-16132 -16092 0
16132 16086 16087 16092 0
-16134 -16090 0
-16134 -16091 0
-16134 -16092 0
16134 16090 16091 16092 0
-16094 16638 0
16094 -16638 0
-16096 16632 0
16096 -16632 0
-16098 16558 0
16098 -16558 0
-16100 16724 0
16100 -16724 0
-16102 16698 0
16102 -16698 0
-16104 16578 0
16104 -16578 0
-16106 16592 0
16106 -16592 0
-16108 16452 0
16108 -16452 0
-16110 16714 0
16110 -16714 0
-16112 16596 0
16112 -16596 0
-16114 16595 0
16114 -16595 0
-16116 16559 0
16116 -16559 0
-16118 16174 0
16118 -16174 0
-16120 16184 0
16120 -16184 0
-16122 16535 0
16122 -16535 0
-16124 16492 0
16124 -16492 0
-16126 16510 0
16126 -16510 0
-16128 16505 0
16128 -16505 0
-16130 16226 0
16130 -16226 0
-16132 16604 0
16132 -16604 0
-16134 16652 0
16134 -16652 0
16573 16760 0
-16573 -16760 0
16549 16558 0
-16549 -16558 0
16557 16724 0
-16557 -16724 0
16633 16638 0
-16633 -16638 0
16697 16578 0
-16697 -16578 0
16579 16698 0
-16579 -16698 0
16696 16592 0
-16696 -16592 0
16597 16714 0
-16597 -16714 0
16580 16632 0
-16580 -16632 0
16713 16596 0
-16713 -16596 0
16591 16452 0
-16591 -16452 0
16576 16652 0
-16576 -16652 0
16717 16595 0
-16717 -16595 0
16710 16573 0
-16710 -16573 0
16647 16559 0
-16647 -16559 0
16603 16595 0
-16603 -16595 0
16725 16558 0
-16725 -16558 0
16602 16559 0
-16602 -16559 0
16369 16604 0
-16369 -16604 0
16372 16174 0
-16372 -16174 0
16762 16184 0
-16762 -16184 0
16764 16535 0
-16764 -16535 0
16513 16714 0
-16513 -16714 0
16529 16595 0
-16529 -16595 0
16384 16184 0
-16384 -16184 0
16533 16559 0
-16533 -16559 0
16392 16535 0
-16392 -16535 0
16534 16724 0
-16534 -16724 0
16398 16492 0
-16398 -16492 0
16515 16558 0
-16515 -16558 0
16628 16747 0
-16628 -16747 0
16412 16226 0
-16412 -16226 0
16766 16492 0
-16766 -16492 0
16768 16510 0
-16768 -16510 0
16415 16418 0
-16415 -16418 0
16416 16604 0
-16416 -16604 0
16210 16208 0
-16210 -16208 0
16418 16210 0
-16418 -16210 0
16421 16424 0
-16421 -16424 0
16422 16652 0
-16422 -16652 0
16218 16216 0
-16218 -16216 0
16760 16218 0
-16760 -16218 0
16222 16220 0
-16222 -16220 0
16424 16222 0
-16424 -16222 0
16770 16505 0
-16770 -16505 0
16772 16226 0
-16772 -16226 0
-16716 16576 0
-16716 16577 0
16716 -16576 -16577 0
-16651 16638 0
-16651 16580 0
-16651 16579 0
-16651 16578 0
16651 -16638 -16580 -16579 -16578 0
-16646 16576 0
-16646 16577 0
16646 -16576 -16577 0
-16654 16576 0
-16654 16577 0
16654 -16576 -16577 0
-16655 16549 0
-16655 16559 0
16655 -16549 -16559 0
-16656 16558 0
-16656 16647 0
16656 -16558 -16647 0
-16674 16573 0
-16674 16696 0
16674 -16573 -16696 0
-16675 16576 0
-16675 16573 0
16675 -16576 -16573 0
-16681 16591 0
-16681 16713 0
16681 -16591 -16713 0
-16682 16591 0
-16682 16714 0
16682 -16591 -16714 0
-16688 16573 0
-16688 16592 0
-16688 16452 0
16688 -16573 -16592 -16452 0
-16689 16573 0
-16689 16714 0
16689 -16573 -16714 0
-16700 16452 0
-16700 16597 0
16700 -16452 -16597 0
-16701 16591 0
-16701 16714 0
16701 -16591 -16714 0
-16702 16452 0
-16702 16713 0
16702 -16452 -16713 0
-16704 16573 0
-16704 16592 0
-16704 16452 0
-16704 16714 0
16704 -16573 -16592 -16452 -16714 0
-16705 16573 0
-16705 16596 0
16705 -16573 -16596 0
-16641 16638 0
-16641 16579 0
-16641 16578 0
16641 -16638 -16579 -16578 0
-16642 16638 0
-16642 16632 0
16642 -16638 -16632 0
-16643 16633 0
-16643 16580 0
16643 -16633 -16580 0
-16659 16638 0
-16659 16632 0
-16659 16698 0
16659 -16638 -16632 -16698 0
-16660 16633 0
-16660 16579 0
16660 -16633 -16579 0
-16661 16580 0
-16661 16579 0
16661 -16580 -16579 0
-16664 16697 0
-16664 16561 0
16664 -16697 -16561 0
-16667 16579 0
-16667 16580 0
-16667 16638 0
-16667 16670 0
16667 -16579 -16580 -16638 -16670 0
-16668 16696 0
-16668 16576 0
-16668 16577 0
16668 -16696 -16576 -16577 0
-16677 16580 0
-16677 16638 0
-16677 16695 0
-16677 16680 0
16677 -16580 -16638 -16695 -16680 0
-16678 16591 0
-16678 16576 0
-16678 16577 0
16678 -16591 -16576 -16577 0
-16684 16714 0
-16684 16452 0
-16684 16592 0
-16684 16574 0
16684 -16714 -16452 -16592 -16574 0
-16685 16597 0
-16685 16576 0
-16685 16577 0
16685 -16597 -16576 -16577 0
-16691 16580 0
-16691 16638 0
-16691 16695 0
-16691 16699 0
16691 -16580 -16638 -16695 -16699 0
-16692 16713 0
-16692 16576 0
-16692 16577 0
16692 -16713 -16576 -16577 0
-16693 16592 0
-16693 16652 0
-16693 16699 0
16693 -16592 -16652 -16699 0
-16707 16591 0
-16707 16592 0
-16707 16711 0
-16707 16574 0
16707 -16591 -16592 -16711 -16574 0
-16708 16717 0
-16708 16576 0
-16708 16577 0
16708 -16717 -16576 -16577 0
-16709 16717 0
-16709 16718 0
16709 -16717 -16718 0
-16720 16602 0
-16720 16595 0
-16720 16369 0
-16720 16723 0
16720 -16602 -16595 -16369 -16723 0
-16721 16372 0
-16721 16601 0
16721 -16372 -16601 0
-16748 16602 0
-16748 16595 0
-16748 16369 0
-16748 16723 0
16748 -16602 -16595 -16369 -16723 0
-16749 16372 0
-16749 16601 0
16749 -16372 -16601 0
-16742 16559 0
-16742 16724 0
-16742 16510 0
16742 -16559 -16724 -16510 0
-16743 16529 0
-16743 16533 0
-16743 16724 0
16743 -16529 -16533 -16724 0
-16727 16724 0
-16727 16384 0
16727 -16724 -16384 0
-16728 16515 0
-16728 16534 0
16728 -16515 -16534 0
-16729 16533 0
-16729 16515 0
16729 -16533 -16515 0
-16732 16392 0
-16732 16558 0
16732 -16392 -16558 0
-16733 16534 0
-16733 16558 0
16733 -16534 -16558 0
-16736 16398 0
-16736 16724 0
-16736 16559 0
16736 -16398 -16724 -16559 0
-16739 16515 0
-16739 16628 0
-16739 16741 0
16739 -16515 -16628 -16741 0
-16745 16628 0
-16745 16619 0
16745 -16628 -16619 0
-16746 16714 0
-16746 16747 0
16746 -16714 -16747 0
-16751 16412 0
-16751 16724 0
16751 -16412 -16724 0
-16754 16415 0
-16754 16416 0
16754 -16415 -16416 0
-16755 16418 0
-16755 16604 0
16755 -16418 -16604 0
-16758 16421 0
-16758 16422 0
16758 -16421 -16422 0
-16759 16424 0
-16759 16652 0
16759 -16424 -16652 0
16599 -16652 0
16599 -16629 0
-16599 16652 16629 0
16600 -16557 0
16600 -16558 0
-16600 16557 16558 0
16566 -16633 0
16566 -16580 0
16566 -16579 0
16566 -16697 0
-16566 16633 16580 16579 16697 0
16567 -16633 0
16567 -16632 0
16567 -16698 0
-16567 16633 16632 16698 0
16570 -16576 0
16570 -16696 0
16570 -16714 0
16570 -16713 0
-16570 16576 16696 16714 16713 0
16571 -16576 0
16571 -16696 0
16571 -16591 0
-16571 16576 16696 16591 0
16572 -16592 0
16572 -16452 0
-16572 16592 16452 0
16575 -16633 0
16575 -16632 0
16575 -16698 0
16575 -16697 0
-16575 16633 16632 16698 16697 0
16542 -16760 0
16542 -16544 0
16542 -16548 0
16542 -16650 0
-16542 16760 16544 16548 16650 0
16543 -16549 0
16543 -16760 0
16543 -16645 0
-16543 16549 16760 16645 0
16554 -16760 0
16554 -16718 0
16554 -16556 0
16554 -16650 0
-16554 16760 16718 16556 16650 0
16555 -16557 0
16555 -16760 0
16555 -16653 0
-16555 16557 16760 16653 0
16588 -16760 0
16588 -16590 0
16588 -16593 0
16588 -16598 0
-16588 16760 16590 16593 16598 0
16589 -16647 0
16589 -16760 0
16589 -16715 0
-16589 16647 16760 16715 0
16612 -16595 0
16612 -16559 0
16612 -16558 0
16612 -16534 0
-16612 16595 16559 16558 16534 0
16613 -16515 0
16613 -16492 0
-16613 16515 16492 0
16614 -16515 0
16614 -16724 0
-16614 16515 16724 0
16620 -16529 0
16620 -16559 0
16620 -16558 0
-16620 16529 16559 16558 0
16621 -16533 0
16621 -16505 0
-16621 16533 16505 0
16622 -16515 0
16622 -16505 0
-16622 16515 16505 0
16617 -16747 0
16617 -16515 0
16617 -16534 0
16617 -16510 0
-16617 16747 16515 16534 16510 0
16618 -16628 0
16618 -16513 0
-16618 16628 16513 0
16625 -16515 0
16625 -16724 0
-16625 16515 16724 0
16626 -16595 0
16626 -16724 0
-16626 16595 16724 0
16627 -16559 0
16627 -16558 0
-16627 16559 16558 0
16607 -16595 0
16607 -16559 0
16607 -16558 0
16607 -16534 0
-16607 16595 16559 16558 16534 0
16608 -16529 0
16608 -16533 0
16608 -16724 0
-16608 16529 16533 16724 0
16609 -16533 0
16609 -16534 0
16609 -16535 0
-16609 16533 16534 16535 0
16657 16597 0
16657 16591 0
16657 16592 0
16657 16634 0
-16657 -16597 -16591 -16592 -16634 0
16541 16542 0
16541 16543 0
-16541 -16542 -16543 0
16544 16597 0
16544 16591 0
16544 16592 0
-16544 -16597 -16591 -16592 0
16548 16549 0
16548 16559 0
16548 16595 0
16548 16596 0
-16548 -16549 -16559 -16595 -16596 0
16553 16554 0
16553 16555 0
-16553 -16554 -16555 0
16556 16557 0
16556 16558 0
16556 16559 0
16556 16595 0
-16556 -16557 -16558 -16559 -16595 0
16561 16698 0
16561 16632 0
16561 16638 0
-16561 -16698 -16632 -16638 0
16665 16566 0
16665 16567 0
16665 16573 0
-16665 -16566 -16567 -16573 0
16679 16570 0
16679 16571 0
16679 16572 0
16679 16573 0
-16679 -16570 -16571 -16572 -16573 0
16574 16575 0
16574 16576 0
-16574 -16575 -16576 0
16577 16578 0
16577 16579 0
16577 16580 0
16577 16638 0
-16577 -16578 -16579 -16580 -16638 0
16718 16596 0
16718 16597 0
16718 16591 0
16718 16592 0
-16718 -16596 -16597 -16591 -16592 0
16587 16588 0
16587 16589 0
-16587 -16588 -16589 0
16590 16591 0
16590 16592 0
-16590 -16591 -16592 0
16593 16647 0
16593 16595 0
16593 16596 0
16593 16597 0
-16593 -16647 -16595 -16596 -16597 0
16598 16599 0
16598 16600 0
-16598 -16599 -16600 0
16601 16602 0
16601 16603 0
16601 16604 0
16601 16723 0
-16601 -16602 -16603 -16604 -16723 0
16734 16607 0
16734 16608 0
16734 16609 0
16734 16628 0
-16734 -16607 -16608 -16609 -16628 0
16737 16612 0
16737 16613 0
16737 16614 0
16737 16628 0
-16737 -16612 -16613 -16614 -16628 0
16740 16617 0
16740 16618 0
-16740 -16617 -16618 0
16619 16620 0
16619 16621 0
16619 16622 0
16619 16724 0
-16619 -16620 -16621 -16622 -16724 0
16752 16625 0
16752 16626 0
16752 16627 0
16752 16628 0
-16752 -16625 -16626 -16627 -16628 0
-16629 -16697 0
-16629 -16698 0
-16629 -16632 0
-16629 -16633 0
16629 16697 16698 16632 16633 0
-16634 -16717 0
-16634 -16713 0
16634 16717 16713 0
-16637 -16638 0
-16637 -16760 0
16637 16638 16760 0
-16640 -16641 0
-16640 -16642 0
-16640 -16643 0
-16640 -16760 0
16640 16641 16642 16643 16760 0
-16645 -16646 0
-16645 -16647 0
-16645 -16717 0
-16645 -16718 0
16645 16646 16647 16717 16718 0
-16650 -16651 0
-16650 -16652 0
16650 16651 16652 0
-16653 -16654 0
-16653 -16655 0
-16653 -16656 0
-16653 -16657 0
16653 16654 16655 16656 16657 0
-16658 -16659 0
-16658 -16660 0
-16658 -16661 0
-16658 -16760 0
16658 16659 16660 16661 16760 0
-16663 -16664 0
-16663 -16665 0
16663 16664 16665 0
-16666 -16667 0
-16666 -16668 0
-16666 -16673 0
16666 16667 16668 16673 0
-16670 -16696 0
-16670 -16697 0
16670 16696 16697 0
-16673 -16674 0
-16673 -16675 0
16673 16674 16675 0
-16676 -16677 0
-16676 -16678 0
-16676 -16679 0
16676 16677 16678 16679 0
-16680 -16681 0
-16680 -16682 0
16680 16681 16682 0
-16683 -16684 0
-16683 -16685 0
-16683 -16687 0
16683 16684 16685 16687 0
-16687 -16688 0
-16687 -16689 0
16687 16688 16689 0
-16690 -16691 0
-16690 -16692 0
-16690 -16693 0
-16690 -16703 0
16690 16691 16692 16693 16703 0
-16695 -16696 0
-16695 -16697 0
-16695 -16698 0
16695 16696 16697 16698 0
-16699 -16700 0
-16699 -16701 0
-16699 -16702 0
16699 16700 16701 16702 0
-16703 -16704 0
-16703 -16705 0
16703 16704 16705 0
-16706 -16707 0
-16706 -16708 0
-16706 -16709 0
-16706 -16710 0
16706 16707 16708 16709 16710 0
-16711 -16717 0
-16711 -16713 0
-16711 -16714 0
16711 16717 16713 16714 0
-16715 -16716 0
-16715 -16717 0
-16715 -16718 0
16715 16716 16717 16718 0
-16719 -16720 0
-16719 -16721 0
-16719 -16760 0
16719 16720 16721 16760 0
-16723 -16724 0
-16723 -16725 0
16723 16724 16725 0
-16726 -16727 0
-16726 -16728 0
-16726 -16729 0
-16726 -16747 0
16726 16727 16728 16729 16747 0
-16731 -16732 0
-16731 -16733 0
-16731 -16734 0
16731 16732 16733 16734 0
-16735 -16736 0
-16735 -16737 0
16735 16736 16737 0
-16738 -16739 0
-16738 -16740 0
16738 16739 16740 0
-16741 -16742 0
-16741 -16743 0
16741 16742 16743 0
-16744 -16745 0
-16744 -16746 0
16744 16745 16746 0
-16747 -16748 0
-16747 -16749 0
16747 16748 16749 0
-16750 -16751 0
-16750 -16752 0
16750 16751 16752 0
-16753 -16754 0
-16753 -16755 0
-16753 -16760 0
16753 16754 16755 16760 0
-16757 -16758 0
-16757 -16759 0
-16757 -16760 0
16757 16758 16759 16760 0
16761 16762 0
-16761 -16762 0
16763 16764 0
-16763 -16764 0
16765 16766 0
-16765 -16766 0
16767 16768 0
-16767 -16768 0
16769 16770 0
-16769 -16770 0
16771 16772 0
-16771 -16772 0
16763 0