p cnf 25181 24285
-1542 0
-1707 0
-1524 0
-1710 0
-983 0
-991 0
-947 0
-951 0
-955 0
-963 0
-971 0
-979 0
-987 0
-995 0
-999 0
-1003 0
-959 0
-967 0
-975 0
1007 919 0
-1007 -919 0
1654 921 0
-1654 -921 0
1830 923 0
-1830 -923 0
1009 925 0
-1009 -925 0
1011 927 0
-1011 -927 0
1013 929 0
-1013 -929 0
1015 931 0
-1015 -931 0
1017 933 0
-1017 -933 0
1019 935 0
-1019 -935 0
1021 937 0
-1021 -937 0
1023 939 0
-1023 -939 0
1025 941 0
-1025 -941 0
942 943 0
-942 -943 0
944 945 0
-944 -945 0
949 947 0
-949 -947 0
1549 949 0
-1549 -949 0
953 951 0
-953 -951 0
1401 953 0
-1401 -953 0
957 955 0
-957 -955 0
1472 957 0
-1472 -957 0
961 959 0
-961 -959 0
1410 961 0
-1410 -961 0
965 963 0
-965 -963 0
1404 965 0
-1404 -965 0
969 967 0
-969 -967 0
1413 969 0
-1413 -969 0
973 971 0
-973 -971 0
1619 973 0
-1619 -973 0
977 975 0
-977 -975 0
1416 977 0
-1416 -977 0
981 979 0
-981 -979 0
1622 981 0
-1622 -981 0
985 983 0
-985 -983 0
1466 985 0
-1466 -985 0
989 987 0
-989 -987 0
1475 989 0
-1475 -989 0
993 991 0
-993 -991 0
1398 993 0
-1398 -993 0
997 995 0
-997 -995 0
1552 997 0
-1552 -997 0
1001 999 0
-1001 -999 0
1469 1001 0
-1469 -1001 0
1005 1003 0
-1005 -1003 0
1407 1005 0
-1407 -1005 0
1687 1007 0
-1687 -1007 0
1039 1009 0
-1039 -1009 0
1691 1011 0
-1691 -1011 0
1696 1013 0
-1696 -1013 0
1652 1015 0
-1652 -1015 0
1564 1017 0
-1564 -1017 0
1514 1019 0
-1514 -1019 0
1393 1021 0
-1393 -1021 0
1394 1023 0
-1394 -1023 0
1395 1025 0
-1395 -1025 0
1397 1039 0
-1397 -1039 0
1400 1039 0
-1400 -1039 0
1403 1039 0
-1403 -1039 0
1406 1039 0
-1406 -1039 0
1409 1039 0
-1409 -1039 0
1412 1039 0
-1412 -1039 0
1415 1039 0
-1415 -1039 0
1630 1564 0
-1630 -1564 0
1631 1514 0
-1631 -1514 0
1571 1393 0
-1571 -1393 0
1740 1394 0
-1740 -1394 0
1659 1395 0
-1659 -1395 0
1093 1392 0
-1093 -1392 0
1055 1396 0
-1055 -1396 0
1095 1055 0
-1095 -1055 0
1059 1396 0
-1059 -1396 0
1450 1059 0
-1450 -1059 0
1063 1399 0
-1063 -1399 0
1099 1063 0
-1099 -1063 0
1067 1399 0
-1067 -1399 0
1453 1067 0
-1453 -1067 0
1071 1402 0
-1071 -1402 0
1103 1071 0
-1103 -1071 0
1075 1402 0
-1075 -1402 0
1456 1075 0
-1456 -1075 0
1079 1405 0
-1079 -1405 0
1078 1079 0
-1078 -1079 0
1083 1408 0
-1083 -1408 0
1082 1083 0
-1082 -1083 0
1087 1411 0
-1087 -1411 0
1086 1087 0
-1086 -1087 0
1091 1414 0
-1091 -1414 0
1090 1091 0
-1090 -1091 0
1107 1093 0
-1107 -1093 0
1097 1095 0
-1097 -1095 0
1698 1097 0
-1698 -1097 0
1101 1099 0
-1101 -1099 0
1693 1101 0
-1693 -1101 0
1105 1103 0
-1105 -1103 0
1673 1105 0
-1673 -1105 0
1109 1107 0
-1109 -1107 0
1108 1109 0
-1108 -1109 0
1768 1767 0
-1768 -1767 0
1771 1770 0
-1771 -1770 0
1588 1698 0
-1588 -1698 0
1532 1693 0
-1532 -1693 0
1666 1673 0
-1666 -1673 0
1774 1768 0
-1774 -1768 0
1777 1771 0
-1777 -1771 0
1127 1772 0
-1127 -1772 0
1459 1127 0
-1459 -1127 0
1131 1775 0
-1131 -1775 0
1462 1131 0
-1462 -1131 0
1137 1458 0
-1137 -1458 0
1139 1461 0
-1139 -1461 0
1141 1137 0
-1141 -1137 0
1145 1139 0
-1145 -1139 0
1143 1141 0
-1143 -1141 0
1149 1143 0
-1149 -1143 0
1147 1145 0
-1147 -1145 0
1153 1147 0
-1153 -1147 0
1151 1149 0
-1151 -1149 0
1537 1151 0
-1537 -1151 0
1780 1153 0
-1780 -1153 0
1783 1537 0
-1783 -1537 0
1465 1780 0
-1465 -1780 0
1471 1783 0
-1471 -1783 0
1163 1464 0
-1163 -1464 0
1193 1163 0
-1193 -1163 0
1167 1464 0
-1167 -1464 0
1477 1167 0
-1477 -1167 0
1171 1467 0
-1171 -1467 0
1197 1171 0
-1197 -1171 0
1175 1467 0
-1175 -1467 0
1480 1175 0
-1480 -1175 0
1179 1470 0
-1179 -1470 0
1201 1179 0
-1201 -1179 0
1183 1470 0
-1183 -1470 0
1483 1183 0
-1483 -1183 0
1187 1473 0
-1187 -1473 0
1205 1187 0
-1205 -1187 0
1191 1473 0
-1191 -1473 0
1486 1191 0
-1486 -1191 0
1195 1193 0
-1195 -1193 0
1702 1195 0
-1702 -1195 0
1199 1197 0
-1199 -1197 0
1507 1199 0
-1507 -1199 0
1203 1201 0
-1203 -1201 0
1692 1203 0
-1692 -1203 0
1207 1205 0
-1207 -1205 0
1611 1207 0
-1611 -1207 0
1217 1702 0
-1217 -1702 0
1685 1507 0
-1685 -1507 0
1538 1692 0
-1538 -1692 0
1689 1611 0
-1689 -1611 0
1221 1217 0
-1221 -1217 0
1223 1505 0
-1223 -1505 0
1723 1221 0
-1723 -1221 0
1887 1223 0
-1887 -1223 0
1786 1785 0
-1786 -1785 0
1789 1788 0
-1789 -1788 0
1792 1791 0
-1792 -1791 0
1795 1794 0
-1795 -1794 0
1798 1786 0
-1798 -1786 0
1801 1789 0
-1801 -1789 0
1804 1792 0
-1804 -1792 0
1807 1795 0
-1807 -1795 0
1243 1796 0
-1243 -1796 0
1545 1243 0
-1545 -1243 0
1247 1544 0
-1247 -1544 0
1249 1247 0
-1249 -1247 0
1251 1249 0
-1251 -1249 0
1253 1251 0
-1253 -1251 0
1255 1253 0
-1255 -1253 0
1593 1255 0
-1593 -1255 0
1810 1593 0
-1810 -1593 0
1548 1810 0
-1548 -1810 0
1263 1547 0
-1263 -1547 0
1277 1263 0
-1277 -1263 0
1267 1547 0
-1267 -1547 0
1554 1267 0
-1554 -1267 0
1271 1550 0
-1271 -1550 0
1580 1271 0
-1580 -1271 0
1275 1550 0
-1275 -1550 0
1557 1275 0
-1557 -1275 0
1279 1277 0
-1279 -1277 0
1697 1279 0
-1697 -1279 0
1283 1580 0
-1283 -1580 0
1855 1283 0
-1855 -1283 0
1594 1697 0
-1594 -1697 0
1701 1580 0
-1701 -1580 0
1291 1578 0
-1291 -1578 0
1885 1291 0
-1885 -1291 0
1301 1609 0
-1301 -1609 0
1813 1812 0
-1813 -1812 0
1816 1815 0
-1816 -1815 0
1819 1818 0
-1819 -1818 0
1883 1301 0
-1883 -1301 0
1822 1813 0
-1822 -1813 0
1825 1816 0
-1825 -1816 0
1828 1819 0
-1828 -1819 0
1311 1826 0
-1311 -1826 0
1615 1311 0
-1615 -1311 0
1315 1614 0
-1315 -1614 0
1317 1315 0
-1317 -1315 0
1319 1317 0
-1319 -1317 0
1321 1319 0
-1321 -1319 0
1323 1321 0
-1323 -1321 0
1671 1323 0
-1671 -1323 0
1831 1671 0
-1831 -1671 0
1618 1831 0
-1618 -1831 0
1331 1617 0
-1331 -1617 0
1345 1331 0
-1345 -1331 0
1335 1617 0
-1335 -1617 0
1624 1335 0
-1624 -1335 0
1339 1620 0
-1339 -1620 0
1655 1339 0
-1655 -1339 0
1343 1620 0
-1343 -1620 0
1627 1343 0
-1627 -1343 0
1347 1345 0
-1347 -1345 0
1643 1347 0
-1643 -1347 0
1351 1655 0
-1351 -1655 0
1851 1351 0
-1851 -1351 0
1672 1643 0
-1672 -1643 0
1688 1655 0
-1688 -1655 0
1365 1735 0
-1365 -1735 0
1367 1674 0
-1367 -1674 0
1834 1833 0
-1834 -1833 0
1837 1836 0
-1837 -1836 0
1873 1365 0
-1873 -1365 0
1881 1367 0
-1881 -1367 0
1840 1839 0
-1840 -1839 0
1843 1834 0
-1843 -1834 0
1846 1837 0
-1846 -1837 0
1383 1754 0
-1383 -1754 0
1385 1758 0
-1385 -1758 0
1387 1762 0
-1387 -1762 0
1849 1840 0
-1849 -1840 0
1875 1383 0
-1875 -1383 0
1877 1385 0
-1877 -1385 0
1879 1387 0
-1879 -1387 0
1391 1847 0
-1391 -1847 0
1390 1391 0
-1390 -1391 0
-1392 1393 0
-1392 1394 0
-1392 1395 0
1392 -1393 -1394 -1395 0
-1396 1397 0
-1396 1398 0
1396 -1397 -1398 0
-1399 1400 0
-1399 1401 0
1399 -1400 -1401 0
-1402 1403 0
-1402 1404 0
1402 -1403 -1404 0
-1405 1406 0
-1405 1407 0
1405 -1406 -1407 0
-1408 1409 0
-1408 1410 0
1408 -1409 -1410 0
-1411 1412 0
-1411 1413 0
1411 -1412 -1413 0
-1414 1415 0
-1414 1416 0
1414 -1415 -1416 0
-1732 1830 0
-1732 1571 0
1732 -1830 -1571 0
-1705 1830 0
-1705 1571 0
1705 -1830 -1571 0
-1713 1830 0
-1713 1571 0
1713 -1830 -1571 0
-1709 1830 0
-1709 1571 0
1709 -1830 -1571 0
-1733 1830 0
-1733 1630 0
-1733 1631 0
-1733 1659 0
1733 -1830 -1630 -1631 -1659 0
-1706 1830 0
-1706 1630 0
-1706 1514 0
-1706 1659 0
1706 -1830 -1630 -1514 -1659 0
-1715 1830 0
-1715 1564 0
-1715 1631 0
-1715 1659 0
1715 -1830 -1564 -1631 -1659 0
-1711 1830 0
-1711 1564 0
-1711 1514 0
-1711 1659 0
1711 -1830 -1564 -1514 -1659 0
-1449 1450 0
-1449 1451 0
1449 -1450 -1451 0
-1452 1453 0
-1452 1454 0
1452 -1453 -1454 0
-1455 1456 0
-1455 1457 0
1455 -1456 -1457 0
-1458 1459 0
-1458 1460 0
1458 -1459 -1460 0
-1461 1462 0
-1461 1463 0
1461 -1462 -1463 0
-1464 1465 0
-1464 1466 0
1464 -1465 -1466 0
-1467 1778 0
-1467 1469 0
1467 -1778 -1469 0
-1470 1471 0
-1470 1472 0
1470 -1471 -1472 0
-1473 1781 0
-1473 1475 0
1473 -1781 -1475 0
-1476 1477 0
-1476 1478 0
1476 -1477 -1478 0
-1479 1480 0
-1479 1481 0
1479 -1480 -1481 0
-1482 1483 0
-1482 1484 0
1482 -1483 -1484 0
-1485 1486 0
-1485 1487 0
1485 -1486 -1487 0
-1724 1780 0
-1724 1702 0
1724 -1780 -1702 0
-1751 1564 0
-1751 1514 0
-1751 1702 0
-1751 1659 0
1751 -1564 -1514 -1702 -1659 0
-1763 1654 0
-1763 1507 0
1763 -1654 -1507 0
-1764 1687 0
-1764 1507 0
1764 -1687 -1507 0
-1857 1654 0
-1857 1507 0
1857 -1654 -1507 0
-1505 1654 0
-1505 1507 0
1505 -1654 -1507 0
-1718 1783 0
-1718 1692 0
-1718 1693 0
1718 -1783 -1692 -1693 0
-1529 1630 0
-1529 1514 0
-1529 1692 0
1529 -1630 -1514 -1692 0
-1755 1654 0
-1755 1611 0
1755 -1654 -1611 0
-1756 1611 0
-1756 1691 0
1756 -1611 -1691 0
-1714 1654 0
-1714 1524 0
-1714 1685 0
1714 -1654 -1524 -1685 0
-1750 1693 0
-1750 1659 0
-1750 1529 0
1750 -1693 -1659 -1529 0
-1720 1538 0
-1720 1532 0
1720 -1538 -1532 0
-1717 1538 0
-1717 1693 0
1717 -1538 -1693 0
-1721 1537 0
-1721 1538 0
-1721 1693 0
1721 -1537 -1538 -1693 0
-1603 1654 0
-1603 1542 0
-1603 1689 0
1603 -1654 -1542 -1689 0
-1544 1545 0
-1544 1546 0
1544 -1545 -1546 0
-1547 1548 0
-1547 1549 0
1547 -1548 -1549 0
-1550 1808 0
-1550 1552 0
1550 -1808 -1552 0
-1553 1554 0
-1553 1555 0
1553 -1554 -1555 0
-1556 1557 0
-1556 1558 0
1556 -1557 -1558 0
-1727 1810 0
-1727 1697 0
-1727 1698 0
1727 -1810 -1697 -1698 0
-1585 1564 0
-1585 1631 0
-1585 1697 0
1585 -1564 -1631 -1697 0
-1663 1697 0
-1663 1698 0
-1663 1702 0
-1663 1571 0
1663 -1697 -1698 -1702 -1571 0
-1759 1654 0
-1759 1580 0
1759 -1654 -1580 0
-1760 1580 0
-1760 1696 0
1760 -1580 -1696 0
-1578 1654 0
-1578 1580 0
-1578 1685 0
1578 -1654 -1580 -1685 0
-1742 1698 0
-1742 1659 0
-1742 1585 0
1742 -1698 -1659 -1585 0
-1729 1594 0
-1729 1588 0
1729 -1594 -1588 0
-1726 1594 0
-1726 1698 0
1726 -1594 -1698 0
-1730 1593 0
-1730 1594 0
-1730 1698 0
1730 -1593 -1594 -1698 0
-1641 1689 0
-1641 1701 0
-1641 1685 0
1641 -1689 -1701 -1685 0
-1734 1701 0
-1734 1685 0
-1734 1603 0
1734 -1701 -1685 -1603 0
-1853 1654 0
-1853 1611 0
-1853 1701 0
-1853 1685 0
1853 -1654 -1611 -1701 -1685 0
-1609 1654 0
-1609 1611 0
-1609 1701 0
-1609 1685 0
1609 -1654 -1611 -1701 -1685 0
-1614 1615 0
-1614 1616 0
1614 -1615 -1616 0
-1617 1618 0
-1617 1619 0
1617 -1618 -1619 0
-1620 1829 0
-1620 1622 0
1620 -1829 -1622 0
-1623 1624 0
-1623 1625 0
1623 -1624 -1625 0
-1626 1627 0
-1626 1628 0
1626 -1627 -1628 0
-1660 1630 0
-1660 1631 0
-1660 1643 0
1660 -1630 -1631 -1643 0
-1745 1831 0
-1745 1643 0
-1745 1673 0
1745 -1831 -1643 -1673 0
-1738 1652 0
-1738 1643 0
-1738 1673 0
-1738 1641 0
1738 -1652 -1643 -1673 -1641 0
-1662 1643 0
-1662 1673 0
-1662 1692 0
-1662 1693 0
1662 -1643 -1673 -1692 -1693 0
-1736 1654 0
-1736 1655 0
1736 -1654 -1655 0
-1737 1655 0
-1737 1652 0
1737 -1655 -1652 0
-1677 1654 0
-1677 1655 0
-1677 1689 0
1677 -1654 -1655 -1689 0
-1741 1673 0
-1741 1659 0
-1741 1660 0
1741 -1673 -1659 -1660 0
-1752 1662 0
-1752 1663 0
1752 -1662 -1663 0
-1747 1672 0
-1747 1666 0
1747 -1672 -1666 0
-1744 1672 0
-1744 1673 0
1744 -1672 -1673 0
-1748 1671 0
-1748 1672 0
-1748 1673 0
1748 -1671 -1672 -1673 0
-1674 1701 0
-1674 1685 0
-1674 1677 0
1674 -1701 -1685 -1677 0
-1694 1688 0
-1694 1701 0
-1694 1685 0
1694 -1688 -1701 -1685 0
-1699 1688 0
-1699 1689 0
-1699 1685 0
1699 -1688 -1689 -1685 0
-1703 1687 0
-1703 1688 0
-1703 1689 0
1703 -1687 -1688 -1689 0
-1757 1691 0
-1757 1692 0
-1757 1693 0
-1757 1694 0
1757 -1691 -1692 -1693 -1694 0
-1761 1696 0
-1761 1697 0
-1761 1698 0
-1761 1699 0
1761 -1696 -1697 -1698 -1699 0
-1765 1701 0
-1765 1702 0
-1765 1703 0
1765 -1701 -1702 -1703 0
1767 -1705 0
1767 -1706 0
1767 -1707 0
-1767 1705 1706 1707 0
1770 -1709 0
1770 -1710 0
1770 -1711 0
-1770 1709 1710 1711 0
1785 -1713 0
1785 -1714 0
1785 -1715 0
-1785 1713 1714 1715 0
1788 -1717 0
1788 -1718 0
-1788 1717 1718 0
1791 -1720 0
1791 -1721 0
-1791 1720 1721 0
1794 -1723 0
1794 -1724 0
-1794 1723 1724 0
1812 -1726 0
1812 -1727 0
-1812 1726 1727 0
1815 -1729 0
1815 -1730 0
-1815 1729 1730 0
1818 -1732 0
1818 -1733 0
1818 -1734 0
-1818 1732 1733 1734 0
1735 -1736 0
1735 -1737 0
1735 -1738 0
-1735 1736 1737 1738 0
1753 -1740 0
1753 -1741 0
1753 -1742 0
-1753 1740 1741 1742 0
1833 -1744 0
1833 -1745 0
-1833 1744 1745 0
1836 -1747 0
1836 -1748 0
-1836 1747 1748 0
1839 -1750 0
1839 -1751 0
1839 -1752 0
1839 -1753 0
-1839 1750 1751 1752 1753 0
1754 -1755 0
1754 -1756 0
1754 -1757 0
-1754 1755 1756 1757 0
1758 -1759 0
1758 -1760 0
1758 -1761 0
-1758 1759 1760 1761 0
1762 -1763 0
1762 -1764 0
1762 -1765 0
-1762 1763 1764 1765 0
1773 1767 0
1773 1768 0
-1773 -1767 -1768 0
1776 1770 0
1776 1771 0
-1776 -1770 -1771 0
1772 1773 0
1772 1774 0
-1772 -1773 -1774 0
1775 1776 0
1775 1777 0
-1775 -1776 -1777 0
1778 1830 0
1778 1780 0
-1778 -1830 -1780 0
1781 1830 0
1781 1783 0
-1781 -1830 -1783 0
1797 1785 0
1797 1786 0
-1797 -1785 -1786 0
1800 1788 0
1800 1789 0
-1800 -1788 -1789 0
1803 1791 0
1803 1792 0
-1803 -1791 -1792 0
1806 1794 0
1806 1795 0
-1806 -1794 -1795 0
1796 1797 0
1796 1798 0
-1796 -1797 -1798 0
1867 1800 0
1867 1801 0
-1867 -1800 -1801 0
1865 1803 0
1865 1804 0
-1865 -1803 -1804 0
1859 1806 0
1859 1807 0
-1859 -1806 -1807 0
1808 1830 0
1808 1810 0
-1808 -1830 -1810 0
1821 1812 0
1821 1813 0
-1821 -1812 -1813 0
1824 1815 0
1824 1816 0
-1824 -1815 -1816 0
1827 1818 0
1827 1819 0
-1827 -1818 -1819 0
1863 1821 0
1863 1822 0
-1863 -1821 -1822 0
1861 1824 0
1861 1825 0
-1861 -1824 -1825 0
1826 1827 0
1826 1828 0
-1826 -1827 -1828 0
1829 1830 0
1829 1831 0
-1829 -1830 -1831 0
1842 1833 0
1842 1834 0
-1842 -1833 -1834 0
1845 1836 0
1845 1837 0
-1845 -1836 -1837 0
1848 1839 0
1848 1840 0
-1848 -1839 -1840 0
1871 1842 0
1871 1843 0
-1871 -1842 -1843 0
1869 1845 0
1869 1846 0
-1869 -1845 -1846 0
1847 1848 0
1847 1849 0
-1847 -1848 -1849 0
-1851 2512 0
1851 -2512 0
-1853 2677 0
1853 -2677 0
-1855 2494 0
1855 -2494 0
-1857 2680 0
1857 -2680 0
-1859 1953 0
1859 -1953 0
-1861 1961 0
1861 -1961 0
-1863 1917 0
1863 -1917 0
-1865 1921 0
1865 -1921 0
-1867 1925 0
1867 -1925 0
-1869 1933 0
1869 -1933 0
-1871 1941 0
1871 -1941 0
-1873 1949 0
1873 -1949 0
-1875 1957 0
1875 -1957 0
-1877 1965 0
1877 -1965 0
-1879 1969 0
1879 -1969 0
-1881 1973 0
1881 -1973 0
-1883 1929 0
1883 -1929 0
-1885 1937 0
1885 -1937 0
-1887 1945 0
1887 -1945 0
1977 1889 0
-1977 -1889 0
2624 1891 0
-2624 -1891 0
2800 1893 0
-2800 -1893 0
1979 1895 0
-1979 -1895 0
1981 1897 0
-1981 -1897 0
1983 1899 0
-1983 -1899 0
1985 1901 0
-1985 -1901 0
1987 1903 0
-1987 -1903 0
1989 1905 0
-1989 -1905 0
1991 1907 0
-1991 -1907 0
1993 1909 0
-1993 -1909 0
1995 1911 0
-1995 -1911 0
1912 1913 0
-1912 -1913 0
1914 1915 0
-1914 -1915 0
1919 1917 0
-1919 -1917 0
2519 1919 0
-2519 -1919 0
1923 1921 0
-1923 -1921 0
2371 1923 0
-2371 -1923 0
1927 1925 0
-1927 -1925 0
2442 1927 0
-2442 -1927 0
1931 1929 0
-1931 -1929 0
2380 1931 0
-2380 -1931 0
1935 1933 0
-1935 -1933 0
2374 1935 0
-2374 -1935 0
1939 1937 0
-1939 -1937 0
2383 1939 0
-2383 -1939 0
1943 1941 0
-1943 -1941 0
2589 1943 0
-2589 -1943 0
1947 1945 0
-1947 -1945 0
2386 1947 0
-2386 -1947 0
1951 1949 0
-1951 -1949 0
2592 1951 0
-2592 -1951 0
1955 1953 0
-1955 -1953 0
2436 1955 0
-2436 -1955 0
1959 1957 0
-1959 -1957 0
2445 1959 0
-2445 -1959 0
1963 1961 0
-1963 -1961 0
2368 1963 0
-2368 -1963 0
1967 1965 0
-1967 -1965 0
2522 1967 0
-2522 -1967 0
1971 1969 0
-1971 -1969 0
2439 1971 0
-2439 -1971 0
1975 1973 0
-1975 -1973 0
2377 1975 0
-2377 -1975 0
2657 1977 0
-2657 -1977 0
2009 1979 0
-2009 -1979 0
2661 1981 0
-2661 -1981 0
2666 1983 0
-2666 -1983 0
2622 1985 0
-2622 -1985 0
2534 1987 0
-2534 -1987 0
2484 1989 0
-2484 -1989 0
2363 1991 0
-2363 -1991 0
2364 1993 0
-2364 -1993 0
2365 1995 0
-2365 -1995 0
2367 2009 0
-2367 -2009 0
2370 2009 0
-2370 -2009 0
2373 2009 0
-2373 -2009 0
2376 2009 0
-2376 -2009 0
2379 2009 0
-2379 -2009 0
2382 2009 0
-2382 -2009 0
2385 2009 0
-2385 -2009 0
2600 2534 0
-2600 -2534 0
2601 2484 0
-2601 -2484 0
2541 2363 0
-2541 -2363 0
2710 2364 0
-2710 -2364 0
2629 2365 0
-2629 -2365 0
2063 2362 0
-2063 -2362 0
2025 2366 0
-2025 -2366 0
2065 2025 0
-2065 -2025 0
2029 2366 0
-2029 -2366 0
2420 2029 0
-2420 -2029 0
2033 2369 0
-2033 -2369 0
2069 2033 0
-2069 -2033 0
2037 2369 0
-2037 -2369 0
2423 2037 0
-2423 -2037 0
2041 2372 0
-2041 -2372 0
2073 2041 0
-2073 -2041 0
2045 2372 0
-2045 -2372 0
2426 2045 0
-2426 -2045 0
2049 2375 0
-2049 -2375 0
2048 2049 0
-2048 -2049 0
2053 2378 0
-2053 -2378 0
2052 2053 0
-2052 -2053 0
2057 2381 0
-2057 -2381 0
2056 2057 0
-2056 -2057 0
2061 2384 0
-2061 -2384 0
2060 2061 0
-2060 -2061 0
2077 2063 0
-2077 -2063 0
2067 2065 0
-2067 -2065 0
2668 2067 0
-2668 -2067 0
2071 2069 0
-2071 -2069 0
2663 2071 0
-2663 -2071 0
2075 2073 0
-2075 -2073 0
2643 2075 0
-2643 -2075 0
2079 2077 0
-2079 -2077 0
2078 2079 0
-2078 -2079 0
2738 2737 0
-2738 -2737 0
2741 2740 0
-2741 -2740 0
2558 2668 0
-2558 -2668 0
2502 2663 0
-2502 -2663 0
2636 2643 0
-2636 -2643 0
2744 2738 0
-2744 -2738 0
2747 2741 0
-2747 -2741 0
2097 2742 0
-2097 -2742 0
2429 2097 0
-2429 -2097 0
2101 2745 0
-2101 -2745 0
2432 2101 0
-2432 -2101 0
2107 2428 0
-2107 -2428 0
2109 2431 0
-2109 -2431 0
2111 2107 0
-2111 -2107 0
2115 2109 0
-2115 -2109 0
2113 2111 0
-2113 -2111 0
2119 2113 0
-2119 -2113 0
2117 2115 0
-2117 -2115 0
2123 2117 0
-2123 -2117 0
2121 2119 0
-2121 -2119 0
2507 2121 0
-2507 -2121 0
2750 2123 0
-2750 -2123 0
2753 2507 0
-2753 -2507 0
2435 2750 0
-2435 -2750 0
2441 2753 0
-2441 -2753 0
2133 2434 0
-2133 -2434 0
2163 2133 0
-2163 -2133 0
2137 2434 0
-2137 -2434 0
2447 2137 0
-2447 -2137 0
2141 2437 0
-2141 -2437 0
2167 2141 0
-2167 -2141 0
2145 2437 0
-2145 -2437 0
2450 2145 0
-2450 -2145 0
2149 2440 0
-2149 -2440 0
2171 2149 0
-2171 -2149 0
2153 2440 0
-2153 -2440 0
2453 2153 0
-2453 -2153 0
2157 2443 0
-2157 -2443 0
2175 2157 0
-2175 -2157 0
2161 2443 0
-2161 -2443 0
2456 2161 0
-2456 -2161 0
2165 2163 0
-2165 -2163 0
2672 2165 0
-2672 -2165 0
2169 2167 0
-2169 -2167 0
2477 2169 0
-2477 -2169 0
2173 2171 0
-2173 -2171 0
2662 2173 0
-2662 -2173 0
2177 2175 0
-2177 -2175 0
2581 2177 0
-2581 -2177 0
2187 2672 0
-2187 -2672 0
2655 2477 0
-2655 -2477 0
2508 2662 0
-2508 -2662 0
2659 2581 0
-2659 -2581 0
2191 2187 0
-2191 -2187 0
2193 2475 0
-2193 -2475 0
2693 2191 0
-2693 -2191 0
2857 2193 0
-2857 -2193 0
2756 2755 0
-2756 -2755 0
2759 2758 0
-2759 -2758 0
2762 2761 0
-2762 -2761 0
2765 2764 0
-2765 -2764 0
2768 2756 0
-2768 -2756 0
2771 2759 0
-2771 -2759 0
2774 2762 0
-2774 -2762 0
2777 2765 0
-2777 -2765 0
2213 2766 0
-2213 -2766 0
2515 2213 0
-2515 -2213 0
2217 2514 0
-2217 -2514 0
2219 2217 0
-2219 -2217 0
2221 2219 0
-2221 -2219 0
2223 2221 0
-2223 -2221 0
2225 2223 0
-2225 -2223 0
2563 2225 0
-2563 -2225 0
2780 2563 0
-2780 -2563 0
2518 2780 0
-2518 -2780 0
2233 2517 0
-2233 -2517 0
2247 2233 0
-2247 -2233 0
2237 2517 0
-2237 -2517 0
2524 2237 0
-2524 -2237 0
2241 2520 0
-2241 -2520 0
2550 2241 0
-2550 -2241 0
2245 2520 0
-2245 -2520 0
2527 2245 0
-2527 -2245 0
2249 2247 0
-2249 -2247 0
2667 2249 0
-2667 -2249 0
2253 2550 0
-2253 -2550 0
2825 2253 0
-2825 -2253 0
2564 2667 0
-2564 -2667 0
2671 2550 0
-2671 -2550 0
2261 2548 0
-2261 -2548 0
2855 2261 0
-2855 -2261 0
2271 2579 0
-2271 -2579 0
2783 2782 0
-2783 -2782 0
2786 2785 0
-2786 -2785 0
2789 2788 0
-2789 -2788 0
2853 2271 0
-2853 -2271 0
2792 2783 0
-2792 -2783 0
2795 2786 0
-2795 -2786 0
2798 2789 0
-2798 -2789 0
2281 2796 0
-2281 -2796 0
2585 2281 0
-2585 -2281 0
2285 2584 0
-2285 -2584 0
2287 2285 0
-2287 -2285 0
2289 2287 0
-2289 -2287 0
2291 2289 0
-2291 -2289 0
2293 2291 0
-2293 -2291 0
2641 2293 0
-2641 -2293 0
2801 2641 0
-2801 -2641 0
2588 2801 0
-2588 -2801 0
2301 2587 0
-2301 -2587 0
2315 2301 0
-2315 -2301 0
2305 2587 0
-2305 -2587 0
2594 2305 0
-2594 -2305 0
2309 2590 0
-2309 -2590 0
2625 2309 0
-2625 -2309 0
2313 2590 0
-2313 -2590 0
2597 2313 0
-2597 -2313 0
2317 2315 0
-2317 -2315 0
2613 2317 0
-2613 -2317 0
2321 2625 0
-2321 -2625 0
2821 2321 0
-2821 -2321 0
2642 2613 0
-2642 -2613 0
2658 2625 0
-2658 -2625 0
2335 2705 0
-2335 -2705 0
2337 2644 0
-2337 -2644 0
2804 2803 0
-2804 -2803 0
2807 2806 0
-2807 -2806 0
2843 2335 0
-2843 -2335 0
2851 2337 0
-2851 -2337 0
2810 2809 0
-2810 -2809 0
2813 2804 0
-2813 -2804 0
2816 2807 0
-2816 -2807 0
2353 2724 0
-2353 -2724 0
2355 2728 0
-2355 -2728 0
2357 2732 0
-2357 -2732 0
2819 2810 0
-2819 -2810 0
2845 2353 0
-2845 -2353 0
2847 2355 0
-2847 -2355 0
2849 2357 0
-2849 -2357 0
2361 2817 0
-2361 -2817 0
2360 2361 0
-2360 -2361 0
-2362 2363 0
-2362 2364 0
-2362 2365 0
2362 -2363 -2364 -2365 0
-2366 2367 0
-2366 2368 0
2366 -2367 -2368 0
-2369 2370 0
-2369 2371 0
2369 -2370 -2371 0
-2372 2373 0
-2372 2374 0
2372 -2373 -2374 0
-2375 2376 0
-2375 2377 0
2375 -2376 -2377 0
-2378 2379 0
-2378 2380 0
2378 -2379 -2380 0
-2381 2382 0
-2381 2383 0
2381 -2382 -2383 0
-2384 2385 0
-2384 2386 0
2384 -2385 -2386 0
-2702 2800 0
-2702 2541 0
2702 -2800 -2541 0
-2675 2800 0
-2675 2541 0
2675 -2800 -2541 0
-2683 2800 0
-2683 2541 0
2683 -2800 -2541 0
-2679 2800 0
-2679 2541 0
2679 -2800 -2541 0
-2703 2800 0
-2703 2600 0
-2703 2601 0
-2703 2629 0
2703 -2800 -2600 -2601 -2629 0
-2676 2800 0
-2676 2600 0
-2676 2484 0
-2676 2629 0
2676 -2800 -2600 -2484 -2629 0
-2685 2800 0
-2685 2534 0
-2685 2601 0
-2685 2629 0
2685 -2800 -2534 -2601 -2629 0
-2681 2800 0
-2681 2534 0
-2681 2484 0
-2681 2629 0
2681 -2800 -2534 -2484 -2629 0
-2419 2420 0
-2419 2421 0
2419 -2420 -2421 0
-2422 2423 0
-2422 2424 0
2422 -2423 -2424 0
-2425 2426 0
-2425 2427 0
2425 -2426 -2427 0
-2428 2429 0
-2428 2430 0
2428 -2429 -2430 0
-2431 2432 0
-2431 2433 0
2431 -2432 -2433 0
-2434 2435 0
-2434 2436 0
2434 -2435 -2436 0
-2437 2748 0
-2437 2439 0
2437 -2748 -2439 0
-2440 2441 0
-2440 2442 0
2440 -2441 -2442 0
-2443 2751 0
-2443 2445 0
2443 -2751 -2445 0
-2446 2447 0
-2446 2448 0
2446 -2447 -2448 0
-2449 2450 0
-2449 2451 0
2449 -2450 -2451 0
-2452 2453 0
-2452 2454 0
2452 -2453 -2454 0
-2455 2456 0
-2455 2457 0
2455 -2456 -2457 0
-2694 2750 0
-2694 2672 0
2694 -2750 -2672 0
-2721 2534 0
-2721 2484 0
-2721 2672 0
-2721 2629 0
2721 -2534 -2484 -2672 -2629 0
-2733 2624 0
-2733 2477 0
2733 -2624 -2477 0
-2734 2657 0
-2734 2477 0
2734 -2657 -2477 0
-2827 2624 0
-2827 2477 0
2827 -2624 -2477 0
-2475 2624 0
-2475 2477 0
2475 -2624 -2477 0
-2688 2753 0
-2688 2662 0
-2688 2663 0
2688 -2753 -2662 -2663 0
-2499 2600 0
-2499 2484 0
-2499 2662 0
2499 -2600 -2484 -2662 0
-2725 2624 0
-2725 2581 0
2725 -2624 -2581 0
-2726 2581 0
-2726 2661 0
2726 -2581 -2661 0
-2684 2624 0
-2684 2494 0
-2684 2655 0
2684 -2624 -2494 -2655 0
-2720 2663 0
-2720 2629 0
-2720 2499 0
2720 -2663 -2629 -2499 0
-2690 2508 0
-2690 2502 0
2690 -2508 -2502 0
-2687 2508 0
-2687 2663 0
2687 -2508 -2663 0
-2691 2507 0
-2691 2508 0
-2691 2663 0
2691 -2507 -2508 -2663 0
-2573 2624 0
-2573 2512 0
-2573 2659 0
2573 -2624 -2512 -2659 0
-2514 2515 0
-2514 2516 0
2514 -2515 -2516 0
-2517 2518 0
-2517 2519 0
2517 -2518 -2519 0
-2520 2778 0
-2520 2522 0
2520 -2778 -2522 0
-2523 2524 0
-2523 2525 0
2523 -2524 -2525 0
-2526 2527 0
-2526 2528 0
2526 -2527 -2528 0
-2697 2780 0
-2697 2667 0
-2697 2668 0
2697 -2780 -2667 -2668 0
-2555 2534 0
-2555 2601 0
-2555 2667 0
2555 -2534 -2601 -2667 0
-2633 2667 0
-2633 2668 0
-2633 2672 0
-2633 2541 0
2633 -2667 -2668 -2672 -2541 0
-2729 2624 0
-2729 2550 0
2729 -2624 -2550 0
-2730 2550 0
-2730 2666 0
2730 -2550 -2666 0
-2548 2624 0
-2548 2550 0
-2548 2655 0
2548 -2624 -2550 -2655 0
-2712 2668 0
-2712 2629 0
-2712 2555 0
2712 -2668 -2629 -2555 0
-2699 2564 0
-2699 2558 0
2699 -2564 -2558 0
-2696 2564 0
-2696 2668 0
2696 -2564 -2668 0
-2700 2563 0
-2700 2564 0
-2700 2668 0
2700 -2563 -2564 -2668 0
-2611 2659 0
-2611 2671 0
-2611 2655 0
2611 -2659 -2671 -2655 0
-2704 2671 0
-2704 2655 0
-2704 2573 0
2704 -2671 -2655 -2573 0
-2823 2624 0
-2823 2581 0
-2823 2671 0
-2823 2655 0
2823 -2624 -2581 -2671 -2655 0
-2579 2624 0
-2579 2581 0
-2579 2671 0
-2579 2655 0
2579 -2624 -2581 -2671 -2655 0
-2584 2585 0
-2584 2586 0
2584 -2585 -2586 0
-2587 2588 0
-2587 2589 0
2587 -2588 -2589 0
-2590 2799 0
-2590 2592 0
2590 -2799 -2592 0
-2593 2594 0
-2593 2595 0
2593 -2594 -2595 0
-2596 2597 0
-2596 2598 0
2596 -2597 -2598 0
-2630 2600 0
-2630 2601 0
-2630 2613 0
2630 -2600 -2601 -2613 0
-2715 2801 0
-2715 2613 0
-2715 2643 0
2715 -2801 -2613 -2643 0
-2708 2622 0
-2708 2613 0
-2708 2643 0
-2708 2611 0
2708 -2622 -2613 -2643 -2611 0
-2632 2613 0
-2632 2643 0
-2632 2662 0
-2632 2663 0
2632 -2613 -2643 -2662 -2663 0
-2706 2624 0
-2706 2625 0
2706 -2624 -2625 0
-2707 2625 0
-2707 2622 0
2707 -2625 -2622 0
-2647 2624 0
-2647 2625 0
-2647 2659 0
2647 -2624 -2625 -2659 0
-2711 2643 0
-2711 2629 0
-2711 2630 0
2711 -2643 -2629 -2630 0
-2722 2632 0
-2722 2633 0
2722 -2632 -2633 0
-2717 2642 0
-2717 2636 0
2717 -2642 -2636 0
-2714 2642 0
-2714 2643 0
2714 -2642 -2643 0
-2718 2641 0
-2718 2642 0
-2718 2643 0
2718 -2641 -2642 -2643 0
-2644 2671 0
-2644 2655 0
-2644 2647 0
2644 -2671 -2655 -2647 0
-2664 2658 0
-2664 2671 0
-2664 2655 0
2664 -2658 -2671 -2655 0
-2669 2658 0
-2669 2659 0
-2669 2655 0
2669 -2658 -2659 -2655 0
-2673 2657 0
-2673 2658 0
-2673 2659 0
2673 -2657 -2658 -2659 0
-2727 2661 0
-2727 2662 0
-2727 2663 0
-2727 2664 0
2727 -2661 -2662 -2663 -2664 0
-2731 2666 0
-2731 2667 0
-2731 2668 0
-2731 2669 0
2731 -2666 -2667 -2668 -2669 0
-2735 2671 0
-2735 2672 0
-2735 2673 0
2735 -2671 -2672 -2673 0
2737 -2675 0
2737 -2676 0
2737 -2677 0
-2737 2675 2676 2677 0
2740 -2679 0
2740 -2680 0
2740 -2681 0
-2740 2679 2680 2681 0
2755 -2683 0
2755 -2684 0
2755 -2685 0
-2755 2683 2684 2685 0
2758 -2687 0
2758 -2688 0
-2758 2687 2688 0
2761 -2690 0
2761 -2691 0
-2761 2690 2691 0
2764 -2693 0
2764 -2694 0
-2764 2693 2694 0
2782 -2696 0
2782 -2697 0
-2782 2696 2697 0
2785 -2699 0
2785 -2700 0
-2785 2699 2700 0
2788 -2702 0
2788 -2703 0
2788 -2704 0
-2788 2702 2703 2704 0
2705 -2706 0
2705 -2707 0
2705 -2708 0
-2705 2706 2707 2708 0
2723 -2710 0
2723 -2711 0
2723 -2712 0
-2723 2710 2711 2712 0
2803 -2714 0
2803 -2715 0
-2803 2714 2715 0
2806 -2717 0
2806 -2718 0
-2806 2717 2718 0
2809 -2720 0
2809 -2721 0
2809 -2722 0
2809 -2723 0
-2809 2720 2721 2722 2723 0
2724 -2725 0
2724 -2726 0
2724 -2727 0
-2724 2725 2726 2727 0
2728 -2729 0
2728 -2730 0
2728 -2731 0
-2728 2729 2730 2731 0
2732 -2733 0
2732 -2734 0
2732 -2735 0
-2732 2733 2734 2735 0
2743 2737 0
2743 2738 0
-2743 -2737 -2738 0
2746 2740 0
2746 2741 0
-2746 -2740 -2741 0
2742 2743 0
2742 2744 0
-2742 -2743 -2744 0
2745 2746 0
2745 2747 0
-2745 -2746 -2747 0
2748 2800 0
2748 2750 0
-2748 -2800 -2750 0
2751 2800 0
2751 2753 0
-2751 -2800 -2753 0
2767 2755 0
2767 2756 0
-2767 -2755 -2756 0
2770 2758 0
2770 2759 0
-2770 -2758 -2759 0
2773 2761 0
2773 2762 0
-2773 -2761 -2762 0
2776 2764 0
2776 2765 0
-2776 -2764 -2765 0
2766 2767 0
2766 2768 0
-2766 -2767 -2768 0
2837 2770 0
2837 2771 0
-2837 -2770 -2771 0
2835 2773 0
2835 2774 0
-2835 -2773 -2774 0
2829 2776 0
2829 2777 0
-2829 -2776 -2777 0
2778 2800 0
2778 2780 0
-2778 -2800 -2780 0
2791 2782 0
2791 2783 0
-2791 -2782 -2783 0
2794 2785 0
2794 2786 0
-2794 -2785 -2786 0
2797 2788 0
2797 2789 0
-2797 -2788 -2789 0
2833 2791 0
2833 2792 0
-2833 -2791 -2792 0
2831 2794 0
2831 2795 0
-2831 -2794 -2795 0
2796 2797 0
2796 2798 0
-2796 -2797 -2798 0
2799 2800 0
2799 2801 0
-2799 -2800 -2801 0
2812 2803 0
2812 2804 0
-2812 -2803 -2804 0
2815 2806 0
2815 2807 0
-2815 -2806 -2807 0
2818 2809 0
2818 2810 0
-2818 -2809 -2810 0
2841 2812 0
2841 2813 0
-2841 -2812 -2813 0
2839 2815 0
2839 2816 0
-2839 -2815 -2816 0
2817 2818 0
2817 2819 0
-2817 -2818 -2819 0
-2821 3482 0
2821 -3482 0
-2823 3647 0
2823 -3647 0
-2825 3464 0
2825 -3464 0
-2827 3650 0
2827 -3650 0
-2829 2923 0
2829 -2923 0
-2831 2931 0
2831 -2931 0
-2833 2887 0
2833 -2887 0
-2835 2891 0
2835 -2891 0
-2837 2895 0
2837 -2895 0
-2839 2903 0
2839 -2903 0
-2841 2911 0
2841 -2911 0
-2843 2919 0
2843 -2919 0
-2845 2927 0
2845 -2927 0
-2847 2935 0
2847 -2935 0
-2849 2939 0
2849 -2939 0
-2851 2943 0
2851 -2943 0
-2853 2899 0
2853 -2899 0
-2855 2907 0
2855 -2907 0
-2857 2915 0
2857 -2915 0
2947 2859 0
-2947 -2859 0
3594 2861 0
-3594 -2861 0
3770 2863 0
-3770 -2863 0
2949 2865 0
-2949 -2865 0
2951 2867 0
-2951 -2867 0
2953 2869 0
-2953 -2869 0
2955 2871 0
-2955 -2871 0
2957 2873 0
-2957 -2873 0
2959 2875 0
-2959 -2875 0
2961 2877 0
-2961 -2877 0
2963 2879 0
-2963 -2879 0
2965 2881 0
-2965 -2881 0
2882 2883 0
-2882 -2883 0
2884 2885 0
-2884 -2885 0
2889 2887 0
-2889 -2887 0
3489 2889 0
-3489 -2889 0
2893 2891 0
-2893 -2891 0
3341 2893 0
-3341 -2893 0
2897 2895 0
-2897 -2895 0
3412 2897 0
-3412 -2897 0
2901 2899 0
-2901 -2899 0
3350 2901 0
-3350 -2901 0
2905 2903 0
-2905 -2903 0
3344 2905 0
-3344 -2905 0
2909 2907 0
-2909 -2907 0
3353 2909 0
-3353 -2909 0
2913 2911 0
-2913 -2911 0
3559 2913 0
-3559 -2913 0
2917 2915 0
-2917 -2915 0
3356 2917 0
-3356 -2917 0
2921 2919 0
-2921 -2919 0
3562 2921 0
-3562 -2921 0
2925 2923 0
-2925 -2923 0
3406 2925 0
-3406 -2925 0
2929 2927 0
-2929 -2927 0
3415 2929 0
-3415 -2929 0
2933 2931 0
-2933 -2931 0
3338 2933 0
-3338 -2933 0
2937 2935 0
-2937 -2935 0
3492 2937 0
-3492 -2937 0
2941 2939 0
-2941 -2939 0
3409 2941 0
-3409 -2941 0
2945 2943 0
-2945 -2943 0
3347 2945 0
-3347 -2945 0
3627 2947 0
-3627 -2947 0
2979 2949 0
-2979 -2949 0
3631 2951 0
-3631 -2951 0
3636 2953 0
-3636 -2953 0
3592 2955 0
-3592 -2955 0
3504 2957 0
-3504 -2957 0
3454 2959 0
-3454 -2959 0
3333 2961 0
-3333 -2961 0
3334 2963 0
-3334 -2963 0
3335 2965 0
-3335 -2965 0
3337 2979 0
-3337 -2979 0
3340 2979 0
-3340 -2979 0
3343 2979 0
-3343 -2979 0
3346 2979 0
-3346 -2979 0
3349 2979 0
-3349 -2979 0
3352 2979 0
-3352 -2979 0
3355 2979 0
-3355 -2979 0
3570 3504 0
-3570 -3504 0
3571 3454 0
-3571 -3454 0
3511 3333 0
-3511 -3333 0
3680 3334 0
-3680 -3334 0
3599 3335 0
-3599 -3335 0
3033 3332 0
-3033 -3332 0
2995 3336 0
-2995 -3336 0
3035 2995 0
-3035 -2995 0
2999 3336 0
-2999 -3336 0
3390 2999 0
-3390 -2999 0
3003 3339 0
-3003 -3339 0
3039 3003 0
-3039 -3003 0
3007 3339 0
-3007 -3339 0
3393 3007 0
-3393 -3007 0
3011 3342 0
-3011 -3342 0
3043 3011 0
-3043 -3011 0
3015 3342 0
-3015 -3342 0
3396 3015 0
-3396 -3015 0
3019 3345 0
-3019 -3345 0
3018 3019 0
-3018 -3019 0
3023 3348 0
-3023 -3348 0
3022 3023 0
-3022 -3023 0
3027 3351 0
-3027 -3351 0
3026 3027 0
-3026 -3027 0
3031 3354 0
-3031 -3354 0
3030 3031 0
-3030 -3031 0
3047 3033 0
-3047 -3033 0
3037 3035 0
-3037 -3035 0
3638 3037 0
-3638 -3037 0
3041 3039 0
-3041 -3039 0
3633 3041 0
-3633 -3041 0
3045 3043 0
-3045 -3043 0
3613 3045 0
-3613 -3045 0
3049 3047 0
-3049 -3047 0
3048 3049 0
-3048 -3049 0
3708 3707 0
-3708 -3707 0
3711 3710 0
-3711 -3710 0
3528 3638 0
-3528 -3638 0
3472 3633 0
-3472 -3633 0
3606 3613 0
-3606 -3613 0
3714 3708 0
-3714 -3708 0
3717 3711 0
-3717 -3711 0
3067 3712 0
-3067 -3712 0
3399 3067 0
-3399 -3067 0
3071 3715 0
-3071 -3715 0
3402 3071 0
-3402 -3071 0
3077 3398 0
-3077 -3398 0
3079 3401 0
-3079 -3401 0
3081 3077 0
-3081 -3077 0
3085 3079 0
-3085 -3079 0
3083 3081 0
-3083 -3081 0
3089 3083 0
-3089 -3083 0
3087 3085 0
-3087 -3085 0
3093 3087 0
-3093 -3087 0
3091 3089 0
-3091 -3089 0
3477 3091 0
-3477 -3091 0
3720 3093 0
-3720 -3093 0
3723 3477 0
-3723 -3477 0
3405 3720 0
-3405 -3720 0
3411 3723 0
-3411 -3723 0
3103 3404 0
-3103 -3404 0
3133 3103 0
-3133 -3103 0
3107 3404 0
-3107 -3404 0
3417 3107 0
-3417 -3107 0
3111 3407 0
-3111 -3407 0
3137 3111 0
-3137 -3111 0
3115 3407 0
-3115 -3407 0
3420 3115 0
-3420 -3115 0
3119 3410 0
-3119 -3410 0
3141 3119 0
-3141 -3119 0
3123 3410 0
-3123 -3410 0
3423 3123 0
-3423 -3123 0
3127 3413 0
-3127 -3413 0
3145 3127 0
-3145 -3127 0
3131 3413 0
-3131 -3413 0
3426 3131 0
-3426 -3131 0
3135 3133 0
-3135 -3133 0
3642 3135 0
-3642 -3135 0
3139 3137 0
-3139 -3137 0
3447 3139 0
-3447 -3139 0
3143 3141 0
-3143 -3141 0
3632 3143 0
-3632 -3143 0
3147 3145 0
-3147 -3145 0
3551 3147 0
-3551 -3147 0
3157 3642 0
-3157 -3642 0
3625 3447 0
-3625 -3447 0
3478 3632 0
-3478 -3632 0
3629 3551 0
-3629 -3551 0
3161 3157 0
-3161 -3157 0
3163 3445 0
-3163 -3445 0
3663 3161 0
-3663 -3161 0
3827 3163 0
-3827 -3163 0
3726 3725 0
-3726 -3725 0
3729 3728 0
-3729 -3728 0
3732 3731 0
-3732 -3731 0
3735 3734 0
-3735 -3734 0
3738 3726 0
-3738 -3726 0
3741 3729 0
-3741 -3729 0
3744 3732 0
-3744 -3732 0
3747 3735 0
-3747 -3735 0
3183 3736 0
-3183 -3736 0
3485 3183 0
-3485 -3183 0
3187 3484 0
-3187 -3484 0
3189 3187 0
-3189 -3187 0
3191 3189 0
-3191 -3189 0
3193 3191 0
-3193 -3191 0
3195 3193 0
-3195 -3193 0
3533 3195 0
-3533 -3195 0
3750 3533 0
-3750 -3533 0
3488 3750 0
-3488 -3750 0
3203 3487 0
-3203 -3487 0
3217 3203 0
-3217 -3203 0
3207 3487 0
-3207 -3487 0
3494 3207 0
-3494 -3207 0
3211 3490 0
-3211 -3490 0
3520 3211 0
-3520 -3211 0
3215 3490 0
-3215 -3490 0
3497 3215 0
-3497 -3215 0
3219 3217 0
-3219 -3217 0
3637 3219 0
-3637 -3219 0
3223 3520 0
-3223 -3520 0
3795 3223 0
-3795 -3223 0
3534 3637 0
-3534 -3637 0
3641 3520 0
-3641 -3520 0
3231 3518 0
-3231 -3518 0
3825 3231 0
-3825 -3231 0
3241 3549 0
-3241 -3549 0
3753 3752 0
-3753 -3752 0
3756 3755 0
-3756 -3755 0
3759 3758 0
-3759 -3758 0
3823 3241 0
-3823 -3241 0
3762 3753 0
-3762 -3753 0
3765 3756 0
-3765 -3756 0
3768 3759 0
-3768 -3759 0
3251 3766 0
-3251 -3766 0
3555 3251 0
-3555 -3251 0
3255 3554 0
-3255 -3554 0
3257 3255 0
-3257 -3255 0
3259 3257 0
-3259 -3257 0
3261 3259 0
-3261 -3259 0
3263 3261 0
-3263 -3261 0
3611 3263 0
-3611 -3263 0
3771 3611 0
-3771 -3611 0
3558 3771 0
-3558 -3771 0
3271 3557 0
-3271 -3557 0
3285 3271 0
-3285 -3271 0
3275 3557 0
-3275 -3557 0
3564 3275 0
-3564 -3275 0
3279 3560 0
-3279 -3560 0
3595 3279 0
-3595 -3279 0
3283 3560 0
-3283 -3560 0
3567 3283 0
-3567 -3283 0
3287 3285 0
-3287 -3285 0
3583 3287 0
-3583 -3287 0
3291 3595 0
-3291 -3595 0
3791 3291 0
-3791 -3291 0
3612 3583 0
-3612 -3583 0
3628 3595 0
-3628 -3595 0
3305 3675 0
-3305 -3675 0
3307 3614 0
-3307 -3614 0
3774 3773 0
-3774 -3773 0
3777 3776 0
-3777 -3776 0
3813 3305 0
-3813 -3305 0
3821 3307 0
-3821 -3307 0
3780 3779 0
-3780 -3779 0
3783 3774 0
-3783 -3774 0
3786 3777 0
-3786 -3777 0
3323 3694 0
-3323 -3694 0
3325 3698 0
-3325 -3698 0
3327 3702 0
-3327 -3702 0
3789 3780 0
-3789 -3780 0
3815 3323 0
-3815 -3323 0
3817 3325 0
-3817 -3325 0
3819 3327 0
-3819 -3327 0
3331 3787 0
-3331 -3787 0
3330 3331 0
-3330 -3331 0
-3332 3333 0
-3332 3334 0
-3332 3335 0
3332 -3333 -3334 -3335 0
-3336 3337 0
-3336 3338 0
3336 -3337 -3338 0
-3339 3340 0
-3339 3341 0
3339 -3340 -3341 0
-3342 3343 0
-3342 3344 0
3342 -3343 -3344 0
-3345 3346 0
-3345 3347 0
3345 -3346 -3347 0
-3348 3349 0
-3348 3350 0
3348 -3349 -3350 0
-3351 3352 0
-3351 3353 0
3351 -3352 -3353 0
-3354 3355 0
-3354 3356 0
3354 -3355 -3356 0
-3672 3770 0
-3672 3511 0
3672 -3770 -3511 0
-3645 3770 0
-3645 3511 0
3645 -3770 -3511 0
-3653 3770 0
-3653 3511 0
3653 -3770 -3511 0
-3649 3770 0
-3649 3511 0
3649 -3770 -3511 0
-3673 3770 0
-3673 3570 0
-3673 3571 0
-3673 3599 0
3673 -3770 -3570 -3571 -3599 0
-3646 3770 0
-3646 3570 0
-3646 3454 0
-3646 3599 0
3646 -3770 -3570 -3454 -3599 0
-3655 3770 0
-3655 3504 0
-3655 3571 0
-3655 3599 0
3655 -3770 -3504 -3571 -3599 0
-3651 3770 0
-3651 3504 0
-3651 3454 0
-3651 3599 0
3651 -3770 -3504 -3454 -3599 0
-3389 3390 0
-3389 3391 0
3389 -3390 -3391 0
-3392 3393 0
-3392 3394 0
3392 -3393 -3394 0
-3395 3396 0
-3395 3397 0
3395 -3396 -3397 0
-3398 3399 0
-3398 3400 0
3398 -3399 -3400 0
-3401 3402 0
-3401 3403 0
3401 -3402 -3403 0
-3404 3405 0
-3404 3406 0
3404 -3405 -3406 0
-3407 3718 0
-3407 3409 0
3407 -3718 -3409 0
-3410 3411 0
-3410 3412 0
3410 -3411 -3412 0
-3413 3721 0
-3413 3415 0
3413 -3721 -3415 0
-3416 3417 0
-3416 3418 0
3416 -3417 -3418 0
-3419 3420 0
-3419 3421 0
3419 -3420 -3421 0
-3422 3423 0
-3422 3424 0
3422 -3423 -3424 0
-3425 3426 0
-3425 3427 0
3425 -3426 -3427 0
-3664 3720 0
-3664 3642 0
3664 -3720 -3642 0
-3691 3504 0
-3691 3454 0
-3691 3642 0
-3691 3599 0
3691 -3504 -3454 -3642 -3599 0
-3703 3594 0
-3703 3447 0
3703 -3594 -3447 0
-3704 3627 0
-3704 3447 0
3704 -3627 -3447 0
-3797 3594 0
-3797 3447 0
3797 -3594 -3447 0
-3445 3594 0
-3445 3447 0
3445 -3594 -3447 0
-3658 3723 0
-3658 3632 0
-3658 3633 0
3658 -3723 -3632 -3633 0
-3469 3570 0
-3469 3454 0
-3469 3632 0
3469 -3570 -3454 -3632 0
-3695 3594 0
-3695 3551 0
3695 -3594 -3551 0
-3696 3551 0
-3696 3631 0
3696 -3551 -3631 0
-3654 3594 0
-3654 3464 0
-3654 3625 0
3654 -3594 -3464 -3625 0
-3690 3633 0
-3690 3599 0
-3690 3469 0
3690 -3633 -3599 -3469 0
-3660 3478 0
-3660 3472 0
3660 -3478 -3472 0
-3657 3478 0
-3657 3633 0
3657 -3478 -3633 0
-3661 3477 0
-3661 3478 0
-3661 3633 0
3661 -3477 -3478 -3633 0
-3543 3594 0
-3543 3482 0
-3543 3629 0
3543 -3594 -3482 -3629 0
-3484 3485 0
-3484 3486 0
3484 -3485 -3486 0
-3487 3488 0
-3487 3489 0
3487 -3488 -3489 0
-3490 3748 0
-3490 3492 0
3490 -3748 -3492 0
-3493 3494 0
-3493 3495 0
3493 -3494 -3495 0
-3496 3497 0
-3496 3498 0
3496 -3497 -3498 0
-3667 3750 0
-3667 3637 0
-3667 3638 0
3667 -3750 -3637 -3638 0
-3525 3504 0
-3525 3571 0
-3525 3637 0
3525 -3504 -3571 -3637 0
-3603 3637 0
-3603 3638 0
-3603 3642 0
-3603 3511 0
3603 -3637 -3638 -3642 -3511 0
-3699 3594 0
-3699 3520 0
3699 -3594 -3520 0
-3700 3520 0
-3700 3636 0
3700 -3520 -3636 0
-3518 3594 0
-3518 3520 0
-3518 3625 0
3518 -3594 -3520 -3625 0
-3682 3638 0
-3682 3599 0
-3682 3525 0
3682 -3638 -3599 -3525 0
-3669 3534 0
-3669 3528 0
3669 -3534 -3528 0
-3666 3534 0
-3666 3638 0
3666 -3534 -3638 0
-3670 3533 0
-3670 3534 0
-3670 3638 0
3670 -3533 -3534 -3638 0
-3581 3629 0
-3581 3641 0
-3581 3625 0
3581 -3629 -3641 -3625 0
-3674 3641 0
-3674 3625 0
-3674 3543 0
3674 -3641 -3625 -3543 0
-3793 3594 0
-3793 3551 0
-3793 3641 0
-3793 3625 0
3793 -3594 -3551 -3641 -3625 0
-3549 3594 0
-3549 3551 0
-3549 3641 0
-3549 3625 0
3549 -3594 -3551 -3641 -3625 0
-3554 3555 0
-3554 3556 0
3554 -3555 -3556 0
-3557 3558 0
-3557 3559 0
3557 -3558 -3559 0
-3560 3769 0
-3560 3562 0
3560 -3769 -3562 0
-3563 3564 0
-3563 3565 0
3563 -3564 -3565 0
-3566 3567 0
-3566 3568 0
3566 -3567 -3568 0
-3600 3570 0
-3600 3571 0
-3600 3583 0
3600 -3570 -3571 -3583 0
-3685 3771 0
-3685 3583 0
-3685 3613 0
3685 -3771 -3583 -3613 0
-3678 3592 0
-3678 3583 0
-3678 3613 0
-3678 3581 0
3678 -3592 -3583 -3613 -3581 0
-3602 3583 0
-3602 3613 0
-3602 3632 0
-3602 3633 0
3602 -3583 -3613 -3632 -3633 0
-3676 3594 0
-3676 3595 0
3676 -3594 -3595 0
-3677 3595 0
-3677 3592 0
3677 -3595 -3592 0
-3617 3594 0
-3617 3595 0
-3617 3629 0
3617 -3594 -3595 -3629 0
-3681 3613 0
-3681 3599 0
-3681 3600 0
3681 -3613 -3599 -3600 0
-3692 3602 0
-3692 3603 0
3692 -3602 -3603 0
-3687 3612 0
-3687 3606 0
3687 -3612 -3606 0
-3684 3612 0
-3684 3613 0
3684 -3612 -3613 0
-3688 3611 0
-3688 3612 0
-3688 3613 0
3688 -3611 -3612 -3613 0
-3614 3641 0
-3614 3625 0
-3614 3617 0
3614 -3641 -3625 -3617 0
-3634 3628 0
-3634 3641 0
-3634 3625 0
3634 -3628 -3641 -3625 0
-3639 3628 0
-3639 3629 0
-3639 3625 0
3639 -3628 -3629 -3625 0
-3643 3627 0
-3643 3628 0
-3643 3629 0
3643 -3627 -3628 -3629 0
-3697 3631 0
-3697 3632 0
-3697 3633 0
-3697 3634 0
3697 -3631 -3632 -3633 -3634 0
-3701 3636 0
-3701 3637 0
-3701 3638 0
-3701 3639 0
3701 -3636 -3637 -3638 -3639 0
-3705 3641 0
-3705 3642 0
-3705 3643 0
3705 -3641 -3642 -3643 0
3707 -3645 0
3707 -3646 0
3707 -3647 0
-3707 3645 3646 3647 0
3710 -3649 0
3710 -3650 0
3710 -3651 0
-3710 3649 3650 3651 0
3725 -3653 0
3725 -3654 0
3725 -3655 0
-3725 3653 3654 3655 0
3728 -3657 0
3728 -3658 0
-3728 3657 3658 0
3731 -3660 0
3731 -3661 0
-3731 3660 3661 0
3734 -3663 0
3734 -3664 0
-3734 3663 3664 0
3752 -3666 0
3752 -3667 0
-3752 3666 3667 0
3755 -3669 0
3755 -3670 0
-3755 3669 3670 0
3758 -3672 0
3758 -3673 0
3758 -3674 0
-3758 3672 3673 3674 0
3675 -3676 0
3675 -3677 0
3675 -3678 0
-3675 3676 3677 3678 0
3693 -3680 0
3693 -3681 0
3693 -3682 0
-3693 3680 3681 3682 0
3773 -3684 0
3773 -3685 0
-3773 3684 3685 0
3776 -3687 0
3776 -3688 0
-3776 3687 3688 0
3779 -3690 0
3779 -3691 0
3779 -3692 0
3779 -3693 0
-3779 3690 3691 3692 3693 0
3694 -3695 0
3694 -3696 0
3694 -3697 0
-3694 3695 3696 3697 0
3698 -3699 0
3698 -3700 0
3698 -3701 0
-3698 3699 3700 3701 0
3702 -3703 0
3702 -3704 0
3702 -3705 0
-3702 3703 3704 3705 0
3713 3707 0
3713 3708 0
-3713 -3707 -3708 0
3716 3710 0
3716 3711 0
-3716 -3710 -3711 0
3712 3713 0
3712 3714 0
-3712 -3713 -3714 0
3715 3716 0
3715 3717 0
-3715 -3716 -3717 0
3718 3770 0
3718 3720 0
-3718 -3770 -3720 0
3721 3770 0
3721 3723 0
-3721 -3770 -3723 0
3737 3725 0
3737 3726 0
-3737 -3725 -3726 0
3740 3728 0
3740 3729 0
-3740 -3728 -3729 0
3743 3731 0
3743 3732 0
-3743 -3731 -3732 0
3746 3734 0
3746 3735 0
-3746 -3734 -3735 0
3736 3737 0
3736 3738 0
-3736 -3737 -3738 0
3807 3740 0
3807 3741 0
-3807 -3740 -3741 0
3805 3743 0
3805 3744 0
-3805 -3743 -3744 0
3799 3746 0
3799 3747 0
-3799 -3746 -3747 0
3748 3770 0
3748 3750 0
-3748 -3770 -3750 0
3761 3752 0
3761 3753 0
-3761 -3752 -3753 0
3764 3755 0
3764 3756 0
-3764 -3755 -3756 0
3767 3758 0
3767 3759 0
-3767 -3758 -3759 0
3803 3761 0
3803 3762 0
-3803 -3761 -3762 0
3801 3764 0
3801 3765 0
-3801 -3764 -3765 0
3766 3767 0
3766 3768 0
-3766 -3767 -3768 0
3769 3770 0
3769 3771 0
-3769 -3770 -3771 0
3782 3773 0
3782 3774 0
-3782 -3773 -3774 0
3785 3776 0
3785 3777 0
-3785 -3776 -3777 0
3788 3779 0
3788 3780 0
-3788 -3779 -3780 0
3811 3782 0
3811 3783 0
-3811 -3782 -3783 0
3809 3785 0
3809 3786 0
-3809 -3785 -3786 0
3787 3788 0
3787 3789 0
-3787 -3788 -3789 0
-3791 4452 0
3791 -4452 0
-3793 4617 0
3793 -4617 0
-3795 4434 0
3795 -4434 0
-3797 4620 0
3797 -4620 0
-3799 3893 0
3799 -3893 0
-3801 3901 0
3801 -3901 0
-3803 3857 0
3803 -3857 0
-3805 3861 0
3805 -3861 0
-3807 3865 0
3807 -3865 0
-3809 3873 0
3809 -3873 0
-3811 3881 0
3811 -3881 0
-3813 3889 0
3813 -3889 0
-3815 3897 0
3815 -3897 0
-3817 3905 0
3817 -3905 0
-3819 3909 0
3819 -3909 0
-3821 3913 0
3821 -3913 0
-3823 3869 0
3823 -3869 0
-3825 3877 0
3825 -3877 0
-3827 3885 0
3827 -3885 0
3917 3829 0
-3917 -3829 0
4564 3831 0
-4564 -3831 0
4740 3833 0
-4740 -3833 0
3919 3835 0
-3919 -3835 0
3921 3837 0
-3921 -3837 0
3923 3839 0
-3923 -3839 0
3925 3841 0
-3925 -3841 0
3927 3843 0
-3927 -3843 0
3929 3845 0
-3929 -3845 0
3931 3847 0
-3931 -3847 0
3933 3849 0
-3933 -3849 0
3935 3851 0
-3935 -3851 0
3852 3853 0
-3852 -3853 0
3854 3855 0
-3854 -3855 0
3859 3857 0
-3859 -3857 0
4459 3859 0
-4459 -3859 0
3863 3861 0
-3863 -3861 0
4311 3863 0
-4311 -3863 0
3867 3865 0
-3867 -3865 0
4382 3867 0
-4382 -3867 0
3871 3869 0
-3871 -3869 0
4320 3871 0
-4320 -3871 0
3875 3873 0
-3875 -3873 0
4314 3875 0
-4314 -3875 0
3879 3877 0
-3879 -3877 0
4323 3879 0
-4323 -3879 0
3883 3881 0
-3883 -3881 0
4529 3883 0
-4529 -3883 0
3887 3885 0
-3887 -3885 0
4326 3887 0
-4326 -3887 0
3891 3889 0
-3891 -3889 0
4532 3891 0
-4532 -3891 0
3895 3893 0
-3895 -3893 0
4376 3895 0
-4376 -3895 0
3899 3897 0
-3899 -3897 0
4385 3899 0
-4385 -3899 0
3903 3901 0
-3903 -3901 0
4308 3903 0
-4308 -3903 0
3907 3905 0
-3907 -3905 0
4462 3907 0
-4462 -3907 0
3911 3909 0
-3911 -3909 0
4379 3911 0
-4379 -3911 0
3915 3913 0
-3915 -3913 0
4317 3915 0
-4317 -3915 0
4597 3917 0
-4597 -3917 0
3949 3919 0
-3949 -3919 0
4601 3921 0
-4601 -3921 0
4606 3923 0
-4606 -3923 0
4562 3925 0
-4562 -3925 0
4474 3927 0
-4474 -3927 0
4424 3929 0
-4424 -3929 0
4303 3931 0
-4303 -3931 0
4304 3933 0
-4304 -3933 0
4305 3935 0
-4305 -3935 0
4307 3949 0
-4307 -3949 0
4310 3949 0
-4310 -3949 0
4313 3949 0
-4313 -3949 0
4316 3949 0
-4316 -3949 0
4319 3949 0
-4319 -3949 0
4322 3949 0
-4322 -3949 0
4325 3949 0
-4325 -3949 0
4540 4474 0
-4540 -4474 0
4541 4424 0
-4541 -4424 0
4481 4303 0
-4481 -4303 0
4650 4304 0
-4650 -4304 0
4569 4305 0
-4569 -4305 0
4003 4302 0
-4003 -4302 0
3965 4306 0
-3965 -4306 0
4005 3965 0
-4005 -3965 0
3969 4306 0
-3969 -4306 0
4360 3969 0
-4360 -3969 0
3973 4309 0
-3973 -4309 0
4009 3973 0
-4009 -3973 0
3977 4309 0
-3977 -4309 0
4363 3977 0
-4363 -3977 0
3981 4312 0
-3981 -4312 0
4013 3981 0
-4013 -3981 0
3985 4312 0
-3985 -4312 0
4366 3985 0
-4366 -3985 0
3989 4315 0
-3989 -4315 0
3988 3989 0
-3988 -3989 0
3993 4318 0
-3993 -4318 0
3992 3993 0
-3992 -3993 0
3997 4321 0
-3997 -4321 0
3996 3997 0
-3996 -3997 0
4001 4324 0
-4001 -4324 0
4000 4001 0
-4000 -4001 0
4017 4003 0
-4017 -4003 0
4007 4005 0
-4007 -4005 0
4608 4007 0
-4608 -4007 0
4011 4009 0
-4011 -4009 0
4603 4011 0
-4603 -4011 0
4015 4013 0
-4015 -4013 0
4583 4015 0
-4583 -4015 0
4019 4017 0
-4019 -4017 0
4018 4019 0
-4018 -4019 0
4678 4677 0
-4678 -4677 0
4681 4680 0
-4681 -4680 0
4498 4608 0
-4498 -4608 0
4442 4603 0
-4442 -4603 0
4576 4583 0
-4576 -4583 0
4684 4678 0
-4684 -4678 0
4687 4681 0
-4687 -4681 0
4037 4682 0
-4037 -4682 0
4369 4037 0
-4369 -4037 0
4041 4685 0
-4041 -4685 0
4372 4041 0
-4372 -4041 0
4047 4368 0
-4047 -4368 0
4049 4371 0
-4049 -4371 0
4051 4047 0
-4051 -4047 0
4055 4049 0
-4055 -4049 0
4053 4051 0
-4053 -4051 0
4059 4053 0
-4059 -4053 0
4057 4055 0
-4057 -4055 0
4063 4057 0
-4063 -4057 0
4061 4059 0
-4061 -4059 0
4447 4061 0
-4447 -4061 0
4690 4063 0
-4690 -4063 0
4693 4447 0
-4693 -4447 0
4375 4690 0
-4375 -4690 0
4381 4693 0
-4381 -4693 0
4073 4374 0
-4073 -4374 0
4103 4073 0
-4103 -4073 0
4077 4374 0
-4077 -4374 0
4387 4077 0
-4387 -4077 0
4081 4377 0
-4081 -4377 0
4107 4081 0
-4107 -4081 0
4085 4377 0
-4085 -4377 0
4390 4085 0
-4390 -4085 0
4089 4380 0
-4089 -4380 0
4111 4089 0
-4111 -4089 0
4093 4380 0
-4093 -4380 0
4393 4093 0
-4393 -4093 0
4097 4383 0
-4097 -4383 0
4115 4097 0
-4115 -4097 0
4101 4383 0
-4101 -4383 0
4396 4101 0
-4396 -4101 0
4105 4103 0
-4105 -4103 0
4612 4105 0
-4612 -4105 0
4109 4107 0
-4109 -4107 0
4417 4109 0
-4417 -4109 0
4113 4111 0
-4113 -4111 0
4602 4113 0
-4602 -4113 0
4117 4115 0
-4117 -4115 0
4521 4117 0
-4521 -4117 0
4127 4612 0
-4127 -4612 0
4595 4417 0
-4595 -4417 0
4448 4602 0
-4448 -4602 0
4599 4521 0
-4599 -4521 0
4131 4127 0
-4131 -4127 0
4133 4415 0
-4133 -4415 0
4633 4131 0
-4633 -4131 0
4797 4133 0
-4797 -4133 0
4696 4695 0
-4696 -4695 0
4699 4698 0
-4699 -4698 0
4702 4701 0
-4702 -4701 0
4705 4704 0
-4705 -4704 0
4708 4696 0
-4708 -4696 0
4711 4699 0
-4711 -4699 0
4714 4702 0
-4714 -4702 0
4717 4705 0
-4717 -4705 0
4153 4706 0
-4153 -4706 0
4455 4153 0
-4455 -4153 0
4157 4454 0
-4157 -4454 0
4159 4157 0
-4159 -4157 0
4161 4159 0
-4161 -4159 0
4163 4161 0
-4163 -4161 0
4165 4163 0
-4165 -4163 0
4503 4165 0
-4503 -4165 0
4720 4503 0
-4720 -4503 0
4458 4720 0
-4458 -4720 0
4173 4457 0
-4173 -4457 0
4187 4173 0
-4187 -4173 0
4177 4457 0
-4177 -4457 0
4464 4177 0
-4464 -4177 0
4181 4460 0
-4181 -4460 0
4490 4181 0
-4490 -4181 0
4185 4460 0
-4185 -4460 0
4467 4185 0
-4467 -4185 0
4189 4187 0
-4189 -4187 0
4607 4189 0
-4607 -4189 0
4193 4490 0
-4193 -4490 0
4765 4193 0
-4765 -4193 0
4504 4607 0
-4504 -4607 0
4611 4490 0
-4611 -4490 0
4201 4488 0
-4201 -4488 0
4795 4201 0
-4795 -4201 0
4211 4519 0
-4211 -4519 0
4723 4722 0
-4723 -4722 0
4726 4725 0
-4726 -4725 0
4729 4728 0
-4729 -4728 0
4793 4211 0
-4793 -4211 0
4732 4723 0
-4732 -4723 0
4735 4726 0
-4735 -4726 0
4738 4729 0
-4738 -4729 0
4221 4736 0
-4221 -4736 0
4525 4221 0
-4525 -4221 0
4225 4524 0
-4225 -4524 0
4227 4225 0
-4227 -4225 0
4229 4227 0
-4229 -4227 0
4231 4229 0
-4231 -4229 0
4233 4231 0
-4233 -4231 0
4581 4233 0
-4581 -4233 0
4741 4581 0
-4741 -4581 0
4528 4741 0
-4528 -4741 0
4241 4527 0
-4241 -4527 0
4255 4241 0
-4255 -4241 0
4245 4527 0
-4245 -4527 0
4534 4245 0
-4534 -4245 0
4249 4530 0
-4249 -4530 0
4565 4249 0
-4565 -4249 0
4253 4530 0
-4253 -4530 0
4537 4253 0
-4537 -4253 0
4257 4255 0
-4257 -4255 0
4553 4257 0
-4553 -4257 0
4261 4565 0
-4261 -4565 0
4761 4261 0
-4761 -4261 0
4582 4553 0
-4582 -4553 0
4598 4565 0
-4598 -4565 0
4275 4645 0
-4275 -4645 0
4277 4584 0
-4277 -4584 0
4744 4743 0
-4744 -4743 0
4747 4746 0
-4747 -4746 0
4783 4275 0
-4783 -4275 0
4791 4277 0
-4791 -4277 0
4750 4749 0
-4750 -4749 0
4753 4744 0
-4753 -4744 0
4756 4747 0
-4756 -4747 0
4293 4664 0
-4293 -4664 0
4295 4668 0
-4295 -4668 0
4297 4672 0
-4297 -4672 0
4759 4750 0
-4759 -4750 0
4785 4293 0
-4785 -4293 0
4787 4295 0
-4787 -4295 0
4789 4297 0
-4789 -4297 0
4301 4757 0
-4301 -4757 0
4300 4301 0
-4300 -4301 0
-4302 4303 0
-4302 4304 0
-4302 4305 0
4302 -4303 -4304 -4305 0
-4306 4307 0
-4306 4308 0
4306 -4307 -4308 0
-4309 4310 0
-4309 4311 0
4309 -4310 -4311 0
-4312 4313 0
-4312 4314 0
4312 -4313 -4314 0
-4315 4316 0
-4315 4317 0
4315 -4316 -4317 0
-4318 4319 0
-4318 4320 0
4318 -4319 -4320 0
-4321 4322 0
-4321 4323 0
4321 -4322 -4323 0
-4324 4325 0
-4324 4326 0
4324 -4325 -4326 0
-4642 4740 0
-4642 4481 0
4642 -4740 -4481 0
-4615 4740 0
-4615 4481 0
4615 -4740 -4481 0
-4623 4740 0
-4623 4481 0
4623 -4740 -4481 0
-4619 4740 0
-4619 4481 0
4619 -4740 -4481 0
-4643 4740 0
-4643 4540 0
-4643 4541 0
-4643 4569 0
4643 -4740 -4540 -4541 -4569 0
-4616 4740 0
-4616 4540 0
-4616 4424 0
-4616 4569 0
4616 -4740 -4540 -4424 -4569 0
-4625 4740 0
-4625 4474 0
-4625 4541 0
-4625 4569 0
4625 -4740 -4474 -4541 -4569 0
-4621 4740 0
-4621 4474 0
-4621 4424 0
-4621 4569 0
4621 -4740 -4474 -4424 -4569 0
-4359 4360 0
-4359 4361 0
4359 -4360 -4361 0
-4362 4363 0
-4362 4364 0
4362 -4363 -4364 0
-4365 4366 0
-4365 4367 0
4365 -4366 -4367 0
-4368 4369 0
-4368 4370 0
4368 -4369 -4370 0
-4371 4372 0
-4371 4373 0
4371 -4372 -4373 0
-4374 4375 0
-4374 4376 0
4374 -4375 -4376 0
-4377 4688 0
-4377 4379 0
4377 -4688 -4379 0
-4380 4381 0
-4380 4382 0
4380 -4381 -4382 0
-4383 4691 0
-4383 4385 0
4383 -4691 -4385 0
-4386 4387 0
-4386 4388 0
4386 -4387 -4388 0
-4389 4390 0
-4389 4391 0
4389 -4390 -4391 0
-4392 4393 0
-4392 4394 0
4392 -4393 -4394 0
-4395 4396 0
-4395 4397 0
4395 -4396 -4397 0
-4634 4690 0
-4634 4612 0
4634 -4690 -4612 0
-4661 4474 0
-4661 4424 0
-4661 4612 0
-4661 4569 0
4661 -4474 -4424 -4612 -4569 0
-4673 4564 0
-4673 4417 0
4673 -4564 -4417 0
-4674 4597 0
-4674 4417 0
4674 -4597 -4417 0
-4767 4564 0
-4767 4417 0
4767 -4564 -4417 0
-4415 4564 0
-4415 4417 0
4415 -4564 -4417 0
-4628 4693 0
-4628 4602 0
-4628 4603 0
4628 -4693 -4602 -4603 0
-4439 4540 0
-4439 4424 0
-4439 4602 0
4439 -4540 -4424 -4602 0
-4665 4564 0
-4665 4521 0
4665 -4564 -4521 0
-4666 4521 0
-4666 4601 0
4666 -4521 -4601 0
-4624 4564 0
-4624 4434 0
-4624 4595 0
4624 -4564 -4434 -4595 0
-4660 4603 0
-4660 4569 0
-4660 4439 0
4660 -4603 -4569 -4439 0
-4630 4448 0
-4630 4442 0
4630 -4448 -4442 0
-4627 4448 0
-4627 4603 0
4627 -4448 -4603 0
-4631 4447 0
-4631 4448 0
-4631 4603 0
4631 -4447 -4448 -4603 0
-4513 4564 0
-4513 4452 0
-4513 4599 0
4513 -4564 -4452 -4599 0
-4454 4455 0
-4454 4456 0
4454 -4455 -4456 0
-4457 4458 0
-4457 4459 0
4457 -4458 -4459 0
-4460 4718 0
-4460 4462 0
4460 -4718 -4462 0
-4463 4464 0
-4463 4465 0
4463 -4464 -4465 0
-4466 4467 0
-4466 4468 0
4466 -4467 -4468 0
-4637 4720 0
-4637 4607 0
-4637 4608 0
4637 -4720 -4607 -4608 0
-4495 4474 0
-4495 4541 0
-4495 4607 0
4495 -4474 -4541 -4607 0
-4573 4607 0
-4573 4608 0
-4573 4612 0
-4573 4481 0
4573 -4607 -4608 -4612 -4481 0
-4669 4564 0
-4669 4490 0
4669 -4564 -4490 0
-4670 4490 0
-4670 4606 0
4670 -4490 -4606 0
-4488 4564 0
-4488 4490 0
-4488 4595 0
4488 -4564 -4490 -4595 0
-4652 4608 0
-4652 4569 0
-4652 4495 0
4652 -4608 -4569 -4495 0
-4639 4504 0
-4639 4498 0
4639 -4504 -4498 0
-4636 4504 0
-4636 4608 0
4636 -4504 -4608 0
-4640 4503 0
-4640 4504 0
-4640 4608 0
4640 -4503 -4504 -4608 0
-4551 4599 0
-4551 4611 0
-4551 4595 0
4551 -4599 -4611 -4595 0
-4644 4611 0
-4644 4595 0
-4644 4513 0
4644 -4611 -4595 -4513 0
-4763 4564 0
-4763 4521 0
-4763 4611 0
-4763 4595 0
4763 -4564 -4521 -4611 -4595 0
-4519 4564 0
-4519 4521 0
-4519 4611 0
-4519 4595 0
4519 -4564 -4521 -4611 -4595 0
-4524 4525 0
-4524 4526 0
4524 -4525 -4526 0
-4527 4528 0
-4527 4529 0
4527 -4528 -4529 0
-4530 4739 0
-4530 4532 0
4530 -4739 -4532 0
-4533 4534 0
-4533 4535 0
4533 -4534 -4535 0
-4536 4537 0
-4536 4538 0
4536 -4537 -4538 0
-4570 4540 0
-4570 4541 0
-4570 4553 0
4570 -4540 -4541 -4553 0
-4655 4741 0
-4655 4553 0
-4655 4583 0
4655 -4741 -4553 -4583 0
-4648 4562 0
-4648 4553 0
-4648 4583 0
-4648 4551 0
4648 -4562 -4553 -4583 -4551 0
-4572 4553 0
-4572 4583 0
-4572 4602 0
-4572 4603 0
4572 -4553 -4583 -4602 -4603 0
-4646 4564 0
-4646 4565 0
4646 -4564 -4565 0
-4647 4565 0
-4647 4562 0
4647 -4565 -4562 0
-4587 4564 0
-4587 4565 0
-4587 4599 0
4587 -4564 -4565 -4599 0
-4651 4583 0
-4651 4569 0
-4651 4570 0
4651 -4583 -4569 -4570 0
-4662 4572 0
-4662 4573 0
4662 -4572 -4573 0
-4657 4582 0
-4657 4576 0
4657 -4582 -4576 0
-4654 4582 0
-4654 4583 0
4654 -4582 -4583 0
-4658 4581 0
-4658 4582 0
-4658 4583 0
4658 -4581 -4582 -4583 0
-4584 4611 0
-4584 4595 0
-4584 4587 0
4584 -4611 -4595 -4587 0
-4604 4598 0
-4604 4611 0
-4604 4595 0
4604 -4598 -4611 -4595 0
-4609 4598 0
-4609 4599 0
-4609 4595 0
4609 -4598 -4599 -4595 0
-4613 4597 0
-4613 4598 0
-4613 4599 0
4613 -4597 -4598 -4599 0
-4667 4601 0
-4667 4602 0
-4667 4603 0
-4667 4604 0
4667 -4601 -4602 -4603 -4604 0
-4671 4606 0
-4671 4607 0
-4671 4608 0
-4671 4609 0
4671 -4606 -4607 -4608 -4609 0
-4675 4611 0
-4675 4612 0
-4675 4613 0
4675 -4611 -4612 -4613 0
4677 -4615 0
4677 -4616 0
4677 -4617 0
-4677 4615 4616 4617 0
4680 -4619 0
4680 -4620 0
4680 -4621 0
-4680 4619 4620 4621 0
4695 -4623 0
4695 -4624 0
4695 -4625 0
-4695 4623 4624 4625 0
4698 -4627 0
4698 -4628 0
-4698 4627 4628 0
4701 -4630 0
4701 -4631 0
-4701 4630 4631 0
4704 -4633 0
4704 -4634 0
-4704 4633 4634 0
4722 -4636 0
4722 -4637 0
-4722 4636 4637 0
4725 -4639 0
4725 -4640 0
-4725 4639 4640 0
4728 -4642 0
4728 -4643 0
4728 -4644 0
-4728 4642 4643 4644 0
4645 -4646 0
4645 -4647 0
4645 -4648 0
-4645 4646 4647 4648 0
4663 -4650 0
4663 -4651 0
4663 -4652 0
-4663 4650 4651 4652 0
4743 -4654 0
4743 -4655 0
-4743 4654 4655 0
4746 -4657 0
4746 -4658 0
-4746 4657 4658 0
4749 -4660 0
4749 -4661 0
4749 -4662 0
4749 -4663 0
-4749 4660 4661 4662 4663 0
4664 -4665 0
4664 -4666 0
4664 -4667 0
-4664 4665 4666 4667 0
4668 -4669 0
4668 -4670 0
4668 -4671 0
-4668 4669 4670 4671 0
4672 -4673 0
4672 -4674 0
4672 -4675 0
-4672 4673 4674 4675 0
4683 4677 0
4683 4678 0
-4683 -4677 -4678 0
4686 4680 0
4686 4681 0
-4686 -4680 -4681 0
4682 4683 0
4682 4684 0
-4682 -4683 -4684 0
4685 4686 0
4685 4687 0
-4685 -4686 -4687 0
4688 4740 0
4688 4690 0
-4688 -4740 -4690 0
4691 4740 0
4691 4693 0
-4691 -4740 -4693 0
4707 4695 0
4707 4696 0
-4707 -4695 -4696 0
4710 4698 0
4710 4699 0
-4710 -4698 -4699 0
4713 4701 0
4713 4702 0
-4713 -4701 -4702 0
4716 4704 0
4716 4705 0
-4716 -4704 -4705 0
4706 4707 0
4706 4708 0
-4706 -4707 -4708 0
4777 4710 0
4777 4711 0
-4777 -4710 -4711 0
4775 4713 0
4775 4714 0
-4775 -4713 -4714 0
4769 4716 0
4769 4717 0
-4769 -4716 -4717 0
4718 4740 0
4718 4720 0
-4718 -4740 -4720 0
4731 4722 0
4731 4723 0
-4731 -4722 -4723 0
4734 4725 0
4734 4726 0
-4734 -4725 -4726 0
4737 4728 0
4737 4729 0
-4737 -4728 -4729 0
4773 4731 0
4773 4732 0
-4773 -4731 -4732 0
4771 4734 0
4771 4735 0
-4771 -4734 -4735 0
4736 4737 0
4736 4738 0
-4736 -4737 -4738 0
4739 4740 0
4739 4741 0
-4739 -4740 -4741 0
4752 4743 0
4752 4744 0
-4752 -4743 -4744 0
4755 4746 0
4755 4747 0
-4755 -4746 -4747 0
4758 4749 0
4758 4750 0
-4758 -4749 -4750 0
4781 4752 0
4781 4753 0
-4781 -4752 -4753 0
4779 4755 0
4779 4756 0
-4779 -4755 -4756 0
4757 4758 0
4757 4759 0
-4757 -4758 -4759 0
-4761 5422 0
4761 -5422 0
-4763 5587 0
4763 -5587 0
-4765 5404 0
4765 -5404 0
-4767 5590 0
4767 -5590 0
-4769 4863 0
4769 -4863 0
-4771 4871 0
4771 -4871 0
-4773 4827 0
4773 -4827 0
-4775 4831 0
4775 -4831 0
-4777 4835 0
4777 -4835 0
-4779 4843 0
4779 -4843 0
-4781 4851 0
4781 -4851 0
-4783 4859 0
4783 -4859 0
-4785 4867 0
4785 -4867 0
-4787 4875 0
4787 -4875 0
-4789 4879 0
4789 -4879 0
-4791 4883 0
4791 -4883 0
-4793 4839 0
4793 -4839 0
-4795 4847 0
4795 -4847 0
-4797 4855 0
4797 -4855 0
4887 4799 0
-4887 -4799 0
5534 4801 0
-5534 -4801 0
5710 4803 0
-5710 -4803 0
4889 4805 0
-4889 -4805 0
4891 4807 0
-4891 -4807 0
4893 4809 0
-4893 -4809 0
4895 4811 0
-4895 -4811 0
4897 4813 0
-4897 -4813 0
4899 4815 0
-4899 -4815 0
4901 4817 0
-4901 -4817 0
4903 4819 0
-4903 -4819 0
4905 4821 0
-4905 -4821 0
4822 4823 0
-4822 -4823 0
4824 4825 0
-4824 -4825 0
4829 4827 0
-4829 -4827 0
5429 4829 0
-5429 -4829 0
4833 4831 0
-4833 -4831 0
5281 4833 0
-5281 -4833 0
4837 4835 0
-4837 -4835 0
5352 4837 0
-5352 -4837 0
4841 4839 0
-4841 -4839 0
5290 4841 0
-5290 -4841 0
4845 4843 0
-4845 -4843 0
5284 4845 0
-5284 -4845 0
4849 4847 0
-4849 -4847 0
5293 4849 0
-5293 -4849 0
4853 4851 0
-4853 -4851 0
5499 4853 0
-5499 -4853 0
4857 4855 0
-4857 -4855 0
5296 4857 0
-5296 -4857 0
4861 4859 0
-4861 -4859 0
5502 4861 0
-5502 -4861 0
4865 4863 0
-4865 -4863 0
5346 4865 0
-5346 -4865 0
4869 4867 0
-4869 -4867 0
5355 4869 0
-5355 -4869 0
4873 4871 0
-4873 -4871 0
5278 4873 0
-5278 -4873 0
4877 4875 0
-4877 -4875 0
5432 4877 0
-5432 -4877 0
4881 4879 0
-4881 -4879 0
5349 4881 0
-5349 -4881 0
4885 4883 0
-4885 -4883 0
5287 4885 0
-5287 -4885 0
5567 4887 0
-5567 -4887 0
4919 4889 0
-4919 -4889 0
5571 4891 0
-5571 -4891 0
5576 4893 0
-5576 -4893 0
5532 4895 0
-5532 -4895 0
5444 4897 0
-5444 -4897 0
5394 4899 0
-5394 -4899 0
5273 4901 0
-5273 -4901 0
5274 4903 0
-5274 -4903 0
5275 4905 0
-5275 -4905 0
5277 4919 0
-5277 -4919 0
5280 4919 0
-5280 -4919 0
5283 4919 0
-5283 -4919 0
5286 4919 0
-5286 -4919 0
5289 4919 0
-5289 -4919 0
5292 4919 0
-5292 -4919 0
5295 4919 0
-5295 -4919 0
5510 5444 0
-5510 -5444 0
5511 5394 0
-5511 -5394 0
5451 5273 0
-5451 -5273 0
5620 5274 0
-5620 -5274 0
5539 5275 0
-5539 -5275 0
4973 5272 0
-4973 -5272 0
4935 5276 0
-4935 -5276 0
4975 4935 0
-4975 -4935 0
4939 5276 0
-4939 -5276 0
5330 4939 0
-5330 -4939 0
4943 5279 0
-4943 -5279 0
4979 4943 0
-4979 -4943 0
4947 5279 0
-4947 -5279 0
5333 4947 0
-5333 -4947 0
4951 5282 0
-4951 -5282 0
4983 4951 0
-4983 -4951 0
4955 5282 0
-4955 -5282 0
5336 4955 0
-5336 -4955 0
4959 5285 0
-4959 -5285 0
4958 4959 0
-4958 -4959 0
4963 5288 0
-4963 -5288 0
4962 4963 0
-4962 -4963 0
4967 5291 0
-4967 -5291 0
4966 4967 0
-4966 -4967 0
4971 5294 0
-4971 -5294 0
4970 4971 0
-4970 -4971 0
4987 4973 0
-4987 -4973 0
4977 4975 0
-4977 -4975 0
5578 4977 0
-5578 -4977 0
4981 4979 0
-4981 -4979 0
5573 4981 0
-5573 -4981 0
4985 4983 0
-4985 -4983 0
5553 4985 0
-5553 -4985 0
4989 4987 0
-4989 -4987 0
4988 4989 0
-4988 -4989 0
5648 5647 0
-5648 -5647 0
5651 5650 0
-5651 -5650 0
5468 5578 0
-5468 -5578 0
5412 5573 0
-5412 -5573 0
5546 5553 0
-5546 -5553 0
5654 5648 0
-5654 -5648 0
5657 5651 0
-5657 -5651 0
5007 5652 0
-5007 -5652 0
5339 5007 0
-5339 -5007 0
5011 5655 0
-5011 -5655 0
5342 5011 0
-5342 -5011 0
5017 5338 0
-5017 -5338 0
5019 5341 0
-5019 -5341 0
5021 5017 0
-5021 -5017 0
5025 5019 0
-5025 -5019 0
5023 5021 0
-5023 -5021 0
5029 5023 0
-5029 -5023 0
5027 5025 0
-5027 -5025 0
5033 5027 0
-5033 -5027 0
5031 5029 0
-5031 -5029 0
5417 5031 0
-5417 -5031 0
5660 5033 0
-5660 -5033 0
5663 5417 0
-5663 -5417 0
5345 5660 0
-5345 -5660 0
5351 5663 0
-5351 -5663 0
5043 5344 0
-5043 -5344 0
5073 5043 0
-5073 -5043 0
5047 5344 0
-5047 -5344 0
5357 5047 0
-5357 -5047 0
5051 5347 0
-5051 -5347 0
5077 5051 0
-5077 -5051 0
5055 5347 0
-5055 -5347 0
5360 5055 0
-5360 -5055 0
5059 5350 0
-5059 -5350 0
5081 5059 0
-5081 -5059 0
5063 5350 0
-5063 -5350 0
5363 5063 0
-5363 -5063 0
5067 5353 0
-5067 -5353 0
5085 5067 0
-5085 -5067 0
5071 5353 0
-5071 -5353 0
5366 5071 0
-5366 -5071 0
5075 5073 0
-5075 -5073 0
5582 5075 0
-5582 -5075 0
5079 5077 0
-5079 -5077 0
5387 5079 0
-5387 -5079 0
5083 5081 0
-5083 -5081 0
5572 5083 0
-5572 -5083 0
5087 5085 0
-5087 -5085 0
5491 5087 0
-5491 -5087 0
5097 5582 0
-5097 -5582 0
5565 5387 0
-5565 -5387 0
5418 5572 0
-5418 -5572 0
5569 5491 0
-5569 -5491 0
5101 5097 0
-5101 -5097 0
5103 5385 0
-5103 -5385 0
5603 5101 0
-5603 -5101 0
5767 5103 0
-5767 -5103 0
5666 5665 0
-5666 -5665 0
5669 5668 0
-5669 -5668 0
5672 5671 0
-5672 -5671 0
5675 5674 0
-5675 -5674 0
5678 5666 0
-5678 -5666 0
5681 5669 0
-5681 -5669 0
5684 5672 0
-5684 -5672 0
5687 5675 0
-5687 -5675 0
5123 5676 0
-5123 -5676 0
5425 5123 0
-5425 -5123 0
5127 5424 0
-5127 -5424 0
5129 5127 0
-5129 -5127 0
5131 5129 0
-5131 -5129 0
5133 5131 0
-5133 -5131 0
5135 5133 0
-5135 -5133 0
5473 5135 0
-5473 -5135 0
5690 5473 0
-5690 -5473 0
5428 5690 0
-5428 -5690 0
5143 5427 0
-5143 -5427 0
5157 5143 0
-5157 -5143 0
5147 5427 0
-5147 -5427 0
5434 5147 0
-5434 -5147 0
5151 5430 0
-5151 -5430 0
5460 5151 0
-5460 -5151 0
5155 5430 0
-5155 -5430 0
5437 5155 0
-5437 -5155 0
5159 5157 0
-5159 -5157 0
5577 5159 0
-5577 -5159 0
5163 5460 0
-5163 -5460 0
5735 5163 0
-5735 -5163 0
5474 5577 0
-5474 -5577 0
5581 5460 0
-5581 -5460 0
5171 5458 0
-5171 -5458 0
5765 5171 0
-5765 -5171 0
5181 5489 0
-5181 -5489 0
5693 5692 0
-5693 -5692 0
5696 5695 0
-5696 -5695 0
5699 5698 0
-5699 -5698 0
5763 5181 0
-5763 -5181 0
5702 5693 0
-5702 -5693 0
5705 5696 0
-5705 -5696 0
5708 5699 0
-5708 -5699 0
5191 5706 0
-5191 -5706 0
5495 5191 0
-5495 -5191 0
5195 5494 0
-5195 -5494 0
5197 5195 0
-5197 -5195 0
5199 5197 0
-5199 -5197 0
5201 5199 0
-5201 -5199 0
5203 5201 0
-5203 -5201 0
5551 5203 0
-5551 -5203 0
5711 5551 0
-5711 -5551 0
5498 5711 0
-5498 -5711 0
5211 5497 0
-5211 -5497 0
5225 5211 0
-5225 -5211 0
5215 5497 0
-5215 -5497 0
5504 5215 0
-5504 -5215 0
5219 5500 0
-5219 -5500 0
5535 5219 0
-5535 -5219 0
5223 5500 0
-5223 -5500 0
5507 5223 0
-5507 -5223 0
5227 5225 0
-5227 -5225 0
5523 5227 0
-5523 -5227 0
5231 5535 0
-5231 -5535 0
5731 5231 0
-5731 -5231 0
5552 5523 0
-5552 -5523 0
5568 5535 0
-5568 -5535 0
5245 5615 0
-5245 -5615 0
5247 5554 0
-5247 -5554 0
5714 5713 0
-5714 -5713 0
5717 5716 0
-5717 -5716 0
5753 5245 0
-5753 -5245 0
5761 5247 0
-5761 -5247 0
5720 5719 0
-5720 -5719 0
5723 5714 0
-5723 -5714 0
5726 5717 0
-5726 -5717 0
5263 5634 0
-5263 -5634 0
5265 5638 0
-5265 -5638 0
5267 5642 0
-5267 -5642 0
5729 5720 0
-5729 -5720 0
5755 5263 0
-5755 -5263 0
5757 5265 0
-5757 -5265 0
5759 5267 0
-5759 -5267 0
5271 5727 0
-5271 -5727 0
5270 5271 0
-5270 -5271 0
-5272 5273 0
-5272 5274 0
-5272 5275 0
5272 -5273 -5274 -5275 0
-5276 5277 0
-5276 5278 0
5276 -5277 -5278 0
-5279 5280 0
-5279 5281 0
5279 -5280 -5281 0
-5282 5283 0
-5282 5284 0
5282 -5283 -5284 0
-5285 5286 0
-5285 5287 0
5285 -5286 -5287 0
-5288 5289 0
-5288 5290 0
5288 -5289 -5290 0
-5291 5292 0
-5291 5293 0
5291 -5292 -5293 0
-5294 5295 0
-5294 5296 0
5294 -5295 -5296 0
-5612 5710 0
-5612 5451 0
5612 -5710 -5451 0
-5585 5710 0
-5585 5451 0
5585 -5710 -5451 0
-5593 5710 0
-5593 5451 0
5593 -5710 -5451 0
-5589 5710 0
-5589 5451 0
5589 -5710 -5451 0
-5613 5710 0
-5613 5510 0
-5613 5511 0
-5613 5539 0
5613 -5710 -5510 -5511 -5539 0
-5586 5710 0
-5586 5510 0
-5586 5394 0
-5586 5539 0
5586 -5710 -5510 -5394 -5539 0
-5595 5710 0
-5595 5444 0
-5595 5511 0
-5595 5539 0
5595 -5710 -5444 -5511 -5539 0
-5591 5710 0
-5591 5444 0
-5591 5394 0
-5591 5539 0
5591 -5710 -5444 -5394 -5539 0
-5329 5330 0
-5329 5331 0
5329 -5330 -5331 0
-5332 5333 0
-5332 5334 0
5332 -5333 -5334 0
-5335 5336 0
-5335 5337 0
5335 -5336 -5337 0
-5338 5339 0
-5338 5340 0
5338 -5339 -5340 0
-5341 5342 0
-5341 5343 0
5341 -5342 -5343 0
-5344 5345 0
-5344 5346 0
5344 -5345 -5346 0
-5347 5658 0
-5347 5349 0
5347 -5658 -5349 0
-5350 5351 0
-5350 5352 0
5350 -5351 -5352 0
-5353 5661 0
-5353 5355 0
5353 -5661 -5355 0
-5356 5357 0
-5356 5358 0
5356 -5357 -5358 0
-5359 5360 0
-5359 5361 0
5359 -5360 -5361 0
-5362 5363 0
-5362 5364 0
5362 -5363 -5364 0
-5365 5366 0
-5365 5367 0
5365 -5366 -5367 0
-5604 5660 0
-5604 5582 0
5604 -5660 -5582 0
-5631 5444 0
-5631 5394 0
-5631 5582 0
-5631 5539 0
5631 -5444 -5394 -5582 -5539 0
-5643 5534 0
-5643 5387 0
5643 -5534 -5387 0
-5644 5567 0
-5644 5387 0
5644 -5567 -5387 0
-5737 5534 0
-5737 5387 0
5737 -5534 -5387 0
-5385 5534 0
-5385 5387 0
5385 -5534 -5387 0
-5598 5663 0
-5598 5572 0
-5598 5573 0
5598 -5663 -5572 -5573 0
-5409 5510 0
-5409 5394 0
-5409 5572 0
5409 -5510 -5394 -5572 0
-5635 5534 0
-5635 5491 0
5635 -5534 -5491 0
-5636 5491 0
-5636 5571 0
5636 -5491 -5571 0
-5594 5534 0
-5594 5404 0
-5594 5565 0
5594 -5534 -5404 -5565 0
-5630 5573 0
-5630 5539 0
-5630 5409 0
5630 -5573 -5539 -5409 0
-5600 5418 0
-5600 5412 0
5600 -5418 -5412 0
-5597 5418 0
-5597 5573 0
5597 -5418 -5573 0
-5601 5417 0
-5601 5418 0
-5601 5573 0
5601 -5417 -5418 -5573 0
-5483 5534 0
-5483 5422 0
-5483 5569 0
5483 -5534 -5422 -5569 0
-5424 5425 0
-5424 5426 0
5424 -5425 -5426 0
-5427 5428 0
-5427 5429 0
5427 -5428 -5429 0
-5430 5688 0
-5430 5432 0
5430 -5688 -5432 0
-5433 5434 0
-5433 5435 0
5433 -5434 -5435 0
-5436 5437 0
-5436 5438 0
5436 -5437 -5438 0
-5607 5690 0
-5607 5577 0
-5607 5578 0
5607 -5690 -5577 -5578 0
-5465 5444 0
-5465 5511 0
-5465 5577 0
5465 -5444 -5511 -5577 0
-5543 5577 0
-5543 5578 0
-5543 5582 0
-5543 5451 0
5543 -5577 -5578 -5582 -5451 0
-5639 5534 0
-5639 5460 0
5639 -5534 -5460 0
-5640 5460 0
-5640 5576 0
5640 -5460 -5576 0
-5458 5534 0
-5458 5460 0
-5458 5565 0
5458 -5534 -5460 -5565 0
-5622 5578 0
-5622 5539 0
-5622 5465 0
5622 -5578 -5539 -5465 0
-5609 5474 0
-5609 5468 0
5609 -5474 -5468 0
-5606 5474 0
-5606 5578 0
5606 -5474 -5578 0
-5610 5473 0
-5610 5474 0
-5610 5578 0
5610 -5473 -5474 -5578 0
-5521 5569 0
-5521 5581 0
-5521 5565 0
5521 -5569 -5581 -5565 0
-5614 5581 0
-5614 5565 0
-5614 5483 0
5614 -5581 -5565 -5483 0
-5733 5534 0
-5733 5491 0
-5733 5581 0
-5733 5565 0
5733 -5534 -5491 -5581 -5565 0
-5489 5534 0
-5489 5491 0
-5489 5581 0
-5489 5565 0
5489 -5534 -5491 -5581 -5565 0
-5494 5495 0
-5494 5496 0
5494 -5495 -5496 0
-5497 5498 0
-5497 5499 0
5497 -5498 -5499 0
-5500 5709 0
-5500 5502 0
5500 -5709 -5502 0
-5503 5504 0
-5503 5505 0
5503 -5504 -5505 0
-5506 5507 0
-5506 5508 0
5506 -5507 -5508 0
-5540 5510 0
-5540 5511 0
-5540 5523 0
5540 -5510 -5511 -5523 0
-5625 5711 0
-5625 5523 0
-5625 5553 0
5625 -5711 -5523 -5553 0
-5618 5532 0
-5618 5523 0
-5618 5553 0
-5618 5521 0
5618 -5532 -5523 -5553 -5521 0
-5542 5523 0
-5542 5553 0
-5542 5572 0
-5542 5573 0
5542 -5523 -5553 -5572 -5573 0
-5616 5534 0
-5616 5535 0
5616 -5534 -5535 0
-5617 5535 0
-5617 5532 0
5617 -5535 -5532 0
-5557 5534 0
-5557 5535 0
-5557 5569 0
5557 -5534 -5535 -5569 0
-5621 5553 0
-5621 5539 0
-5621 5540 0
5621 -5553 -5539 -5540 0
-5632 5542 0
-5632 5543 0
5632 -5542 -5543 0
-5627 5552 0
-5627 5546 0
5627 -5552 -5546 0
-5624 5552 0
-5624 5553 0
5624 -5552 -5553 0
-5628 5551 0
-5628 5552 0
-5628 5553 0
5628 -5551 -5552 -5553 0
-5554 5581 0
-5554 5565 0
-5554 5557 0
5554 -5581 -5565 -5557 0
-5574 5568 0
-5574 5581 0
-5574 5565 0
5574 -5568 -5581 -5565 0
-5579 5568 0
-5579 5569 0
-5579 5565 0
5579 -5568 -5569 -5565 0
-5583 5567 0
-5583 5568 0
-5583 5569 0
5583 -5567 -5568 -5569 0
-5637 5571 0
-5637 5572 0
-5637 5573 0
-5637 5574 0
5637 -5571 -5572 -5573 -5574 0
-5641 5576 0
-5641 5577 0
-5641 5578 0
-5641 5579 0
5641 -5576 -5577 -5578 -5579 0
-5645 5581 0
-5645 5582 0
-5645 5583 0
5645 -5581 -5582 -5583 0
5647 -5585 0
5647 -5586 0
5647 -5587 0
-5647 5585 5586 5587 0
5650 -5589 0
5650 -5590 0
5650 -5591 0
-5650 5589 5590 5591 0
5665 -5593 0
5665 -5594 0
5665 -5595 0
-5665 5593 5594 5595 0
5668 -5597 0
5668 -5598 0
-5668 5597 5598 0
5671 -5600 0
5671 -5601 0
-5671 5600 5601 0
5674 -5603 0
5674 -5604 0
-5674 5603 5604 0
5692 -5606 0
5692 -5607 0
-5692 5606 5607 0
5695 -5609 0
5695 -5610 0
-5695 5609 5610 0
5698 -5612 0
5698 -5613 0
5698 -5614 0
-5698 5612 5613 5614 0
5615 -5616 0
5615 -5617 0
5615 -5618 0
-5615 5616 5617 5618 0
5633 -5620 0
5633 -5621 0
5633 -5622 0
-5633 5620 5621 5622 0
5713 -5624 0
5713 -5625 0
-5713 5624 5625 0
5716 -5627 0
5716 -5628 0
-5716 5627 5628 0
5719 -5630 0
5719 -5631 0
5719 -5632 0
5719 -5633 0
-5719 5630 5631 5632 5633 0
5634 -5635 0
5634 -5636 0
5634 -5637 0
-5634 5635 5636 5637 0
5638 -5639 0
5638 -5640 0
5638 -5641 0
-5638 5639 5640 5641 0
5642 -5643 0
5642 -5644 0
5642 -5645 0
-5642 5643 5644 5645 0
5653 5647 0
5653 5648 0
-5653 -5647 -5648 0
5656 5650 0
5656 5651 0
-5656 -5650 -5651 0
5652 5653 0
5652 5654 0
-5652 -5653 -5654 0
5655 5656 0
5655 5657 0
-5655 -5656 -5657 0
5658 5710 0
5658 5660 0
-5658 -5710 -5660 0
5661 5710 0
5661 5663 0
-5661 -5710 -5663 0
5677 5665 0
5677 5666 0
-5677 -5665 -5666 0
5680 5668 0
5680 5669 0
-5680 -5668 -5669 0
5683 5671 0
5683 5672 0
-5683 -5671 -5672 0
5686 5674 0
5686 5675 0
-5686 -5674 -5675 0
5676 5677 0
5676 5678 0
-5676 -5677 -5678 0
5747 5680 0
5747 5681 0
-5747 -5680 -5681 0
5745 5683 0
5745 5684 0
-5745 -5683 -5684 0
5739 5686 0
5739 5687 0
-5739 -5686 -5687 0
5688 5710 0
5688 5690 0
-5688 -5710 -5690 0
5701 5692 0
5701 5693 0
-5701 -5692 -5693 0
5704 5695 0
5704 5696 0
-5704 -5695 -5696 0
5707 5698 0
5707 5699 0
-5707 -5698 -5699 0
5743 5701 0
5743 5702 0
-5743 -5701 -5702 0
5741 5704 0
5741 5705 0
-5741 -5704 -5705 0
5706 5707 0
5706 5708 0
-5706 -5707 -5708 0
5709 5710 0
5709 5711 0
-5709 -5710 -5711 0
5722 5713 0
5722 5714 0
-5722 -5713 -5714 0
5725 5716 0
5725 5717 0
-5725 -5716 -5717 0
5728 5719 0
5728 5720 0
-5728 -5719 -5720 0
5751 5722 0
5751 5723 0
-5751 -5722 -5723 0
5749 5725 0
5749 5726 0
-5749 -5725 -5726 0
5727 5728 0
5727 5729 0
-5727 -5728 -5729 0
-5731 6392 0
5731 -6392 0
-5733 6557 0
5733 -6557 0
-5735 6374 0
5735 -6374 0
-5737 6560 0
5737 -6560 0
-5739 5833 0
5739 -5833 0
-5741 5841 0
5741 -5841 0
-5743 5797 0
5743 -5797 0
-5745 5801 0
5745 -5801 0
-5747 5805 0
5747 -5805 0
-5749 5813 0
5749 -5813 0
-5751 5821 0
5751 -5821 0
-5753 5829 0
5753 -5829 0
-5755 5837 0
5755 -5837 0
-5757 5845 0
5757 -5845 0
-5759 5849 0
5759 -5849 0
-5761 5853 0
5761 -5853 0
-5763 5809 0
5763 -5809 0
-5765 5817 0
5765 -5817 0
-5767 5825 0
5767 -5825 0
5857 5769 0
-5857 -5769 0
6504 5771 0
-6504 -5771 0
6680 5773 0
-6680 -5773 0
5859 5775 0
-5859 -5775 0
5861 5777 0
-5861 -5777 0
5863 5779 0
-5863 -5779 0
5865 5781 0
-5865 -5781 0
5867 5783 0
-5867 -5783 0
5869 5785 0
-5869 -5785 0
5871 5787 0
-5871 -5787 0
5873 5789 0
-5873 -5789 0
5875 5791 0
-5875 -5791 0
5792 5793 0
-5792 -5793 0
5794 5795 0
-5794 -5795 0
5799 5797 0
-5799 -5797 0
6399 5799 0
-6399 -5799 0
5803 5801 0
-5803 -5801 0
6251 5803 0
-6251 -5803 0
5807 5805 0
-5807 -5805 0
6322 5807 0
-6322 -5807 0
5811 5809 0
-5811 -5809 0
6260 5811 0
-6260 -5811 0
5815 5813 0
-5815 -5813 0
6254 5815 0
-6254 -5815 0
5819 5817 0
-5819 -5817 0
6263 5819 0
-6263 -5819 0
5823 5821 0
-5823 -5821 0
6469 5823 0
-6469 -5823 0
5827 5825 0
-5827 -5825 0
6266 5827 0
-6266 -5827 0
5831 5829 0
-5831 -5829 0
6472 5831 0
-6472 -5831 0
5835 5833 0
-5835 -5833 0
6316 5835 0
-6316 -5835 0
5839 5837 0
-5839 -5837 0
6325 5839 0
-6325 -5839 0
5843 5841 0
-5843 -5841 0
6248 5843 0
-6248 -5843 0
5847 5845 0
-5847 -5845 0
6402 5847 0
-6402 -5847 0
5851 5849 0
-5851 -5849 0
6319 5851 0
-6319 -5851 0
5855 5853 0
-5855 -5853 0
6257 5855 0
-6257 -5855 0
6537 5857 0
-6537 -5857 0
5889 5859 0
-5889 -5859 0
6541 5861 0
-6541 -5861 0
6546 5863 0
-6546 -5863 0
6502 5865 0
-6502 -5865 0
6414 5867 0
-6414 -5867 0
6364 5869 0
-6364 -5869 0
6243 5871 0
-6243 -5871 0
6244 5873 0
-6244 -5873 0
6245 5875 0
-6245 -5875 0
6247 5889 0
-6247 -5889 0
6250 5889 0
-6250 -5889 0
6253 5889 0
-6253 -5889 0
6256 5889 0
-6256 -5889 0
6259 5889 0
-6259 -5889 0
6262 5889 0
-6262 -5889 0
6265 5889 0
-6265 -5889 0
6480 6414 0
-6480 -6414 0
6481 6364 0
-6481 -6364 0
6421 6243 0
-6421 -6243 0
6590 6244 0
-6590 -6244 0
6509 6245 0
-6509 -6245 0
5943 6242 0
-5943 -6242 0
5905 6246 0
-5905 -6246 0
5945 5905 0
-5945 -5905 0
5909 6246 0
-5909 -6246 0
6300 5909 0
-6300 -5909 0
5913 6249 0
-5913 -6249 0
5949 5913 0
-5949 -5913 0
5917 6249 0
-5917 -6249 0
6303 5917 0
-6303 -5917 0
5921 6252 0
-5921 -6252 0
5953 5921 0
-5953 -5921 0
5925 6252 0
-5925 -6252 0
6306 5925 0
-6306 -5925 0
5929 6255 0
-5929 -6255 0
5928 5929 0
-5928 -5929 0
5933 6258 0
-5933 -6258 0
5932 5933 0
-5932 -5933 0
5937 6261 0
-5937 -6261 0
5936 5937 0
-5936 -5937 0
5941 6264 0
-5941 -6264 0
5940 5941 0
-5940 -5941 0
5957 5943 0
-5957 -5943 0
5947 5945 0
-5947 -5945 0
6548 5947 0
-6548 -5947 0
5951 5949 0
-5951 -5949 0
6543 5951 0
-6543 -5951 0
5955 5953 0
-5955 -5953 0
6523 5955 0
-6523 -5955 0
5959 5957 0
-5959 -5957 0
5958 5959 0
-5958 -5959 0
6618 6617 0
-6618 -6617 0
6621 6620 0
-6621 -6620 0
6438 6548 0
-6438 -6548 0
6382 6543 0
-6382 -6543 0
6516 6523 0
-6516 -6523 0
6624 6618 0
-6624 -6618 0
6627 6621 0
-6627 -6621 0
5977 6622 0
-5977 -6622 0
6309 5977 0
-6309 -5977 0
5981 6625 0
-5981 -6625 0
6312 5981 0
-6312 -5981 0
5987 6308 0
-5987 -6308 0
5989 6311 0
-5989 -6311 0
5991 5987 0
-5991 -5987 0
5995 5989 0
-5995 -5989 0
5993 5991 0
-5993 -5991 0
5999 5993 0
-5999 -5993 0
5997 5995 0
-5997 -5995 0
6003 5997 0
-6003 -5997 0
6001 5999 0
-6001 -5999 0
6387 6001 0
-6387 -6001 0
6630 6003 0
-6630 -6003 0
6633 6387 0
-6633 -6387 0
6315 6630 0
-6315 -6630 0
6321 6633 0
-6321 -6633 0
6013 6314 0
-6013 -6314 0
6043 6013 0
-6043 -6013 0
6017 6314 0
-6017 -6314 0
6327 6017 0
-6327 -6017 0
6021 6317 0
-6021 -6317 0
6047 6021 0
-6047 -6021 0
6025 6317 0
-6025 -6317 0
6330 6025 0
-6330 -6025 0
6029 6320 0
-6029 -6320 0
6051 6029 0
-6051 -6029 0
6033 6320 0
-6033 -6320 0
6333 6033 0
-6333 -6033 0
6037 6323 0
-6037 -6323 0
6055 6037 0
-6055 -6037 0
6041 6323 0
-6041 -6323 0
6336 6041 0
-6336 -6041 0
6045 6043 0
-6045 -6043 0
6552 6045 0
-6552 -6045 0
6049 6047 0
-6049 -6047 0
6357 6049 0
-6357 -6049 0
6053 6051 0
-6053 -6051 0
6542 6053 0
-6542 -6053 0
6057 6055 0
-6057 -6055 0
6461 6057 0
-6461 -6057 0
6067 6552 0
-6067 -6552 0
6535 6357 0
-6535 -6357 0
6388 6542 0
-6388 -6542 0
6539 6461 0
-6539 -6461 0
6071 6067 0
-6071 -6067 0
6073 6355 0
-6073 -6355 0
6573 6071 0
-6573 -6071 0
6737 6073 0
-6737 -6073 0
6636 6635 0
-6636 -6635 0
6639 6638 0
-6639 -6638 0
6642 6641 0
-6642 -6641 0
6645 6644 0
-6645 -6644 0
6648 6636 0
-6648 -6636 0
6651 6639 0
-6651 -6639 0
6654 6642 0
-6654 -6642 0
6657 6645 0
-6657 -6645 0
6093 6646 0
-6093 -6646 0
6395 6093 0
-6395 -6093 0
6097 6394 0
-6097 -6394 0
6099 6097 0
-6099 -6097 0
6101 6099 0
-6101 -6099 0
6103 6101 0
-6103 -6101 0
6105 6103 0
-6105 -6103 0
6443 6105 0
-6443 -6105 0
6660 6443 0
-6660 -6443 0
6398 6660 0
-6398 -6660 0
6113 6397 0
-6113 -6397 0
6127 6113 0
-6127 -6113 0
6117 6397 0
-6117 -6397 0
6404 6117 0
-6404 -6117 0
6121 6400 0
-6121 -6400 0
6430 6121 0
-6430 -6121 0
6125 6400 0
-6125 -6400 0
6407 6125 0
-6407 -6125 0
6129 6127 0
-6129 -6127 0
6547 6129 0
-6547 -6129 0
6133 6430 0
-6133 -6430 0
6705 6133 0
-6705 -6133 0
6444 6547 0
-6444 -6547 0
6551 6430 0
-6551 -6430 0
6141 6428 0
-6141 -6428 0
6735 6141 0
-6735 -6141 0
6151 6459 0
-6151 -6459 0
6663 6662 0
-6663 -6662 0
6666 6665 0
-6666 -6665 0
6669 6668 0
-6669 -6668 0
6733 6151 0
-6733 -6151 0
6672 6663 0
-6672 -6663 0
6675 6666 0
-6675 -6666 0
6678 6669 0
-6678 -6669 0
6161 6676 0
-6161 -6676 0
6465 6161 0
-6465 -6161 0
6165 6464 0
-6165 -6464 0
6167 6165 0
-6167 -6165 0
6169 6167 0
-6169 -6167 0
6171 6169 0
-6171 -6169 0
6173 6171 0
-6173 -6171 0
6521 6173 0
-6521 -6173 0
6681 6521 0
-6681 -6521 0
6468 6681 0
-6468 -6681 0
6181 6467 0
-6181 -6467 0
6195 6181 0
-6195 -6181 0
6185 6467 0
-6185 -6467 0
6474 6185 0
-6474 -6185 0
6189 6470 0
-6189 -6470 0
6505 6189 0
-6505 -6189 0
6193 6470 0
-6193 -6470 0
6477 6193 0
-6477 -6193 0
6197 6195 0
-6197 -6195 0
6493 6197 0
-6493 -6197 0
6201 6505 0
-6201 -6505 0
6701 6201 0
-6701 -6201 0
6522 6493 0
-6522 -6493 0
6538 6505 0
-6538 -6505 0
6215 6585 0
-6215 -6585 0
6217 6524 0
-6217 -6524 0
6684 6683 0
-6684 -6683 0
6687 6686 0
-6687 -6686 0
6723 6215 0
-6723 -6215 0
6731 6217 0
-6731 -6217 0
6690 6689 0
-6690 -6689 0
6693 6684 0
-6693 -6684 0
6696 6687 0
-6696 -6687 0
6233 6604 0
-6233 -6604 0
6235 6608 0
-6235 -6608 0
6237 6612 0
-6237 -6612 0
6699 6690 0
-6699 -6690 0
6725 6233 0
-6725 -6233 0
6727 6235 0
-6727 -6235 0
6729 6237 0
-6729 -6237 0
6241 6697 0
-6241 -6697 0
6240 6241 0
-6240 -6241 0
-6242 6243 0
-6242 6244 0
-6242 6245 0
6242 -6243 -6244 -6245 0
-6246 6247 0
-6246 6248 0
6246 -6247 -6248 0
-6249 6250 0
-6249 6251 0
6249 -6250 -6251 0
-6252 6253 0
-6252 6254 0
6252 -6253 -6254 0
-6255 6256 0
-6255 6257 0
6255 -6256 -6257 0
-6258 6259 0
-6258 6260 0
6258 -6259 -6260 0
-6261 6262 0
-6261 6263 0
6261 -6262 -6263 0
-6264 6265 0
-6264 6266 0
6264 -6265 -6266 0
-6582 6680 0
-6582 6421 0
6582 -6680 -6421 0
-6555 6680 0
-6555 6421 0
6555 -6680 -6421 0
-6563 6680 0
-6563 6421 0
6563 -6680 -6421 0
-6559 6680 0
-6559 6421 0
6559 -6680 -6421 0
-6583 6680 0
-6583 6480 0
-6583 6481 0
-6583 6509 0
6583 -6680 -6480 -6481 -6509 0
-6556 6680 0
-6556 6480 0
-6556 6364 0
-6556 6509 0
6556 -6680 -6480 -6364 -6509 0
-6565 6680 0
-6565 6414 0
-6565 6481 0
-6565 6509 0
6565 -6680 -6414 -6481 -6509 0
-6561 6680 0
-6561 6414 0
-6561 6364 0
-6561 6509 0
6561 -6680 -6414 -6364 -6509 0
-6299 6300 0
-6299 6301 0
6299 -6300 -6301 0
-6302 6303 0
-6302 6304 0
6302 -6303 -6304 0
-6305 6306 0
-6305 6307 0
6305 -6306 -6307 0
-6308 6309 0
-6308 6310 0
6308 -6309 -6310 0
-6311 6312 0
-6311 6313 0
6311 -6312 -6313 0
-6314 6315 0
-6314 6316 0
6314 -6315 -6316 0
-6317 6628 0
-6317 6319 0
6317 -6628 -6319 0
-6320 6321 0
-6320 6322 0
6320 -6321 -6322 0
-6323 6631 0
-6323 6325 0
6323 -6631 -6325 0
-6326 6327 0
-6326 6328 0
6326 -6327 -6328 0
-6329 6330 0
-6329 6331 0
6329 -6330 -6331 0
-6332 6333 0
-6332 6334 0
6332 -6333 -6334 0
-6335 6336 0
-6335 6337 0
6335 -6336 -6337 0
-6574 6630 0
-6574 6552 0
6574 -6630 -6552 0
-6601 6414 0
-6601 6364 0
-6601 6552 0
-6601 6509 0
6601 -6414 -6364 -6552 -6509 0
-6613 6504 0
-6613 6357 0
6613 -6504 -6357 0
-6614 6537 0
-6614 6357 0
6614 -6537 -6357 0
-6707 6504 0
-6707 6357 0
6707 -6504 -6357 0
-6355 6504 0
-6355 6357 0
6355 -6504 -6357 0
-6568 6633 0
-6568 6542 0
-6568 6543 0
6568 -6633 -6542 -6543 0
-6379 6480 0
-6379 6364 0
-6379 6542 0
6379 -6480 -6364 -6542 0
-6605 6504 0
-6605 6461 0
6605 -6504 -6461 0
-6606 6461 0
-6606 6541 0
6606 -6461 -6541 0
-6564 6504 0
-6564 6374 0
-6564 6535 0
6564 -6504 -6374 -6535 0
-6600 6543 0
-6600 6509 0
-6600 6379 0
6600 -6543 -6509 -6379 0
-6570 6388 0
-6570 6382 0
6570 -6388 -6382 0
-6567 6388 0
-6567 6543 0
6567 -6388 -6543 0
-6571 6387 0
-6571 6388 0
-6571 6543 0
6571 -6387 -6388 -6543 0
-6453 6504 0
-6453 6392 0
-6453 6539 0
6453 -6504 -6392 -6539 0
-6394 6395 0
-6394 6396 0
6394 -6395 -6396 0
-6397 6398 0
-6397 6399 0
6397 -6398 -6399 0
-6400 6658 0
-6400 6402 0
6400 -6658 -6402 0
-6403 6404 0
-6403 6405 0
6403 -6404 -6405 0
-6406 6407 0
-6406 6408 0
6406 -6407 -6408 0
-6577 6660 0
-6577 6547 0
-6577 6548 0
6577 -6660 -6547 -6548 0
-6435 6414 0
-6435 6481 0
-6435 6547 0
6435 -6414 -6481 -6547 0
-6513 6547 0
-6513 6548 0
-6513 6552 0
-6513 6421 0
6513 -6547 -6548 -6552 -6421 0
-6609 6504 0
-6609 6430 0
6609 -6504 -6430 0
-6610 6430 0
-6610 6546 0
6610 -6430 -6546 0
-6428 6504 0
-6428 6430 0
-6428 6535 0
6428 -6504 -6430 -6535 0
-6592 6548 0
-6592 6509 0
-6592 6435 0
6592 -6548 -6509 -6435 0
-6579 6444 0
-6579 6438 0
6579 -6444 -6438 0
-6576 6444 0
-6576 6548 0
6576 -6444 -6548 0
-6580 6443 0
-6580 6444 0
-6580 6548 0
6580 -6443 -6444 -6548 0
-6491 6539 0
-6491 6551 0
-6491 6535 0
6491 -6539 -6551 -6535 0
-6584 6551 0
-6584 6535 0
-6584 6453 0
6584 -6551 -6535 -6453 0
-6703 6504 0
-6703 6461 0
-6703 6551 0
-6703 6535 0
6703 -6504 -6461 -6551 -6535 0
-6459 6504 0
-6459 6461 0
-6459 6551 0
-6459 6535 0
6459 -6504 -6461 -6551 -6535 0
-6464 6465 0
-6464 6466 0
6464 -6465 -6466 0
-6467 6468 0
-6467 6469 0
6467 -6468 -6469 0
-6470 6679 0
-6470 6472 0
6470 -6679 -6472 0
-6473 6474 0
-6473 6475 0
6473 -6474 -6475 0
-6476 6477 0
-6476 6478 0
6476 -6477 -6478 0
-6510 6480 0
-6510 6481 0
-6510 6493 0
6510 -6480 -6481 -6493 0
-6595 6681 0
-6595 6493 0
-6595 6523 0
6595 -6681 -6493 -6523 0
-6588 6502 0
-6588 6493 0
-6588 6523 0
-6588 6491 0
6588 -6502 -6493 -6523 -6491 0
-6512 6493 0
-6512 6523 0
-6512 6542 0
-6512 6543 0
6512 -6493 -6523 -6542 -6543 0
-6586 6504 0
-6586 6505 0
6586 -6504 -6505 0
-6587 6505 0
-6587 6502 0
6587 -6505 -6502 0
-6527 6504 0
-6527 6505 0
-6527 6539 0
6527 -6504 -6505 -6539 0
-6591 6523 0
-6591 6509 0
-6591 6510 0
6591 -6523 -6509 -6510 0
-6602 6512 0
-6602 6513 0
6602 -6512 -6513 0
-6597 6522 0
-6597 6516 0
6597 -6522 -6516 0
-6594 6522 0
-6594 6523 0
6594 -6522 -6523 0
-6598 6521 0
-6598 6522 0
-6598 6523 0
6598 -6521 -6522 -6523 0
-6524 6551 0
-6524 6535 0
-6524 6527 0
6524 -6551 -6535 -6527 0
-6544 6538 0
-6544 6551 0
-6544 6535 0
6544 -6538 -6551 -6535 0
-6549 6538 0
-6549 6539 0
-6549 6535 0
6549 -6538 -6539 -6535 0
-6553 6537 0
-6553 6538 0
-6553 6539 0
6553 -6537 -6538 -6539 0
-6607 6541 0
-6607 6542 0
-6607 6543 0
-6607 6544 0
6607 -6541 -6542 -6543 -6544 0
-6611 6546 0
-6611 6547 0
-6611 6548 0
-6611 6549 0
6611 -6546 -6547 -6548 -6549 0
-6615 6551 0
-6615 6552 0
-6615 6553 0
6615 -6551 -6552 -6553 0
6617 -6555 0
6617 -6556 0
6617 -6557 0
-6617 6555 6556 6557 0
6620 -6559 0
6620 -6560 0
6620 -6561 0
-6620 6559 6560 6561 0
6635 -6563 0
6635 -6564 0
6635 -6565 0
-6635 6563 6564 6565 0
6638 -6567 0
6638 -6568 0
-6638 6567 6568 0
6641 -6570 0
6641 -6571 0
-6641 6570 6571 0
6644 -6573 0
6644 -6574 0
-6644 6573 6574 0
6662 -6576 0
6662 -6577 0
-6662 6576 6577 0
6665 -6579 0
6665 -6580 0
-6665 6579 6580 0
6668 -6582 0
6668 -6583 0
6668 -6584 0
-6668 6582 6583 6584 0
6585 -6586 0
6585 -6587 0
6585 -6588 0
-6585 6586 6587 6588 0
6603 -6590 0
6603 -6591 0
6603 -6592 0
-6603 6590 6591 6592 0
6683 -6594 0
6683 -6595 0
-6683 6594 6595 0
6686 -6597 0
6686 -6598 0
-6686 6597 6598 0
6689 -6600 0
6689 -6601 0
6689 -6602 0
6689 -6603 0
-6689 6600 6601 6602 6603 0
6604 -6605 0
6604 -6606 0
6604 -6607 0
-6604 6605 6606 6607 0
6608 -6609 0
6608 -6610 0
6608 -6611 0
-6608 6609 6610 6611 0
6612 -6613 0
6612 -6614 0
6612 -6615 0
-6612 6613 6614 6615 0
6623 6617 0
6623 6618 0
-6623 -6617 -6618 0
6626 6620 0
6626 6621 0
-6626 -6620 -6621 0
6622 6623 0
6622 6624 0
-6622 -6623 -6624 0
6625 6626 0
6625 6627 0
-6625 -6626 -6627 0
6628 6680 0
6628 6630 0
-6628 -6680 -6630 0
6631 6680 0
6631 6633 0
-6631 -6680 -6633 0
6647 6635 0
6647 6636 0
-6647 -6635 -6636 0
6650 6638 0
6650 6639 0
-6650 -6638 -6639 0
6653 6641 0
6653 6642 0
-6653 -6641 -6642 0
6656 6644 0
6656 6645 0
-6656 -6644 -6645 0
6646 6647 0
6646 6648 0
-6646 -6647 -6648 0
6717 6650 0
6717 6651 0
-6717 -6650 -6651 0
6715 6653 0
6715 6654 0
-6715 -6653 -6654 0
6709 6656 0
6709 6657 0
-6709 -6656 -6657 0
6658 6680 0
6658 6660 0
-6658 -6680 -6660 0
6671 6662 0
6671 6663 0
-6671 -6662 -6663 0
6674 6665 0
6674 6666 0
-6674 -6665 -6666 0
6677 6668 0
6677 6669 0
-6677 -6668 -6669 0
6713 6671 0
6713 6672 0
-6713 -6671 -6672 0
6711 6674 0
6711 6675 0
-6711 -6674 -6675 0
6676 6677 0
6676 6678 0
-6676 -6677 -6678 0
6679 6680 0
6679 6681 0
-6679 -6680 -6681 0
6692 6683 0
6692 6684 0
-6692 -6683 -6684 0
6695 6686 0
6695 6687 0
-6695 -6686 -6687 0
6698 6689 0
6698 6690 0
-6698 -6689 -6690 0
6721 6692 0
6721 6693 0
-6721 -6692 -6693 0
6719 6695 0
6719 6696 0
-6719 -6695 -6696 0
6697 6698 0
6697 6699 0
-6697 -6698 -6699 0
-6701 7362 0
6701 -7362 0
-6703 7527 0
6703 -7527 0
-6705 7344 0
6705 -7344 0
-6707 7530 0
6707 -7530 0
-6709 6803 0
6709 -6803 0
-6711 6811 0
6711 -6811 0
-6713 6767 0
6713 -6767 0
-6715 6771 0
6715 -6771 0
-6717 6775 0
6717 -6775 0
-6719 6783 0
6719 -6783 0
-6721 6791 0
6721 -6791 0
-6723 6799 0
6723 -6799 0
-6725 6807 0
6725 -6807 0
-6727 6815 0
6727 -6815 0
-6729 6819 0
6729 -6819 0
-6731 6823 0
6731 -6823 0
-6733 6779 0
6733 -6779 0
-6735 6787 0
6735 -6787 0
-6737 6795 0
6737 -6795 0
6827 6739 0
-6827 -6739 0
7474 6741 0
-7474 -6741 0
7650 6743 0
-7650 -6743 0
6829 6745 0
-6829 -6745 0
6831 6747 0
-6831 -6747 0
6833 6749 0
-6833 -6749 0
6835 6751 0
-6835 -6751 0
6837 6753 0
-6837 -6753 0
6839 6755 0
-6839 -6755 0
6841 6757 0
-6841 -6757 0
6843 6759 0
-6843 -6759 0
6845 6761 0
-6845 -6761 0
6762 6763 0
-6762 -6763 0
6764 6765 0
-6764 -6765 0
6769 6767 0
-6769 -6767 0
7369 6769 0
-7369 -6769 0
6773 6771 0
-6773 -6771 0
7221 6773 0
-7221 -6773 0
6777 6775 0
-6777 -6775 0
7292 6777 0
-7292 -6777 0
6781 6779 0
-6781 -6779 0
7230 6781 0
-7230 -6781 0
6785 6783 0
-6785 -6783 0
7224 6785 0
-7224 -6785 0
6789 6787 0
-6789 -6787 0
7233 6789 0
-7233 -6789 0
6793 6791 0
-6793 -6791 0
7439 6793 0
-7439 -6793 0
6797 6795 0
-6797 -6795 0
7236 6797 0
-7236 -6797 0
6801 6799 0
-6801 -6799 0
7442 6801 0
-7442 -6801 0
6805 6803 0
-6805 -6803 0
7286 6805 0
-7286 -6805 0
6809 6807 0
-6809 -6807 0
7295 6809 0
-7295 -6809 0
6813 6811 0
-6813 -6811 0
7218 6813 0
-7218 -6813 0
6817 6815 0
-6817 -6815 0
7372 6817 0
-7372 -6817 0
6821 6819 0
-6821 -6819 0
7289 6821 0
-7289 -6821 0
6825 6823 0
-6825 -6823 0
7227 6825 0
-7227 -6825 0
7507 6827 0
-7507 -6827 0
6859 6829 0
-6859 -6829 0
7511 6831 0
-7511 -6831 0
7516 6833 0
-7516 -6833 0
7472 6835 0
-7472 -6835 0
7384 6837 0
-7384 -6837 0
7334 6839 0
-7334 -6839 0
7213 6841 0
-7213 -6841 0
7214 6843 0
-7214 -6843 0
7215 6845 0
-7215 -6845 0
7217 6859 0
-7217 -6859 0
7220 6859 0
-7220 -6859 0
7223 6859 0
-7223 -6859 0
7226 6859 0
-7226 -6859 0
7229 6859 0
-7229 -6859 0
7232 6859 0
-7232 -6859 0
7235 6859 0
-7235 -6859 0
7450 7384 0
-7450 -7384 0
7451 7334 0
-7451 -7334 0
7391 7213 0
-7391 -7213 0
7560 7214 0
-7560 -7214 0
7479 7215 0
-7479 -7215 0
6913 7212 0
-6913 -7212 0
6875 7216 0
-6875 -7216 0
6915 6875 0
-6915 -6875 0
6879 7216 0
-6879 -7216 0
7270 6879 0
-7270 -6879 0
6883 7219 0
-6883 -7219 0
6919 6883 0
-6919 -6883 0
6887 7219 0
-6887 -7219 0
7273 6887 0
-7273 -6887 0
6891 7222 0
-6891 -7222 0
6923 6891 0
-6923 -6891 0
6895 7222 0
-6895 -7222 0
7276 6895 0
-7276 -6895 0
6899 7225 0
-6899 -7225 0
6898 6899 0
-6898 -6899 0
6903 7228 0
-6903 -7228 0
6902 6903 0
-6902 -6903 0
6907 7231 0
-6907 -7231 0
6906 6907 0
-6906 -6907 0
6911 7234 0
-6911 -7234 0
6910 6911 0
-6910 -6911 0
6927 6913 0
-6927 -6913 0
6917 6915 0
-6917 -6915 0
7518 6917 0
-7518 -6917 0
6921 6919 0
-6921 -6919 0
7513 6921 0
-7513 -6921 0
6925 6923 0
-6925 -6923 0
7493 6925 0
-7493 -6925 0
6929 6927 0
-6929 -6927 0
6928 6929 0
-6928 -6929 0
7588 7587 0
-7588 -7587 0
7591 7590 0
-7591 -7590 0
7408 7518 0
-7408 -7518 0
7352 7513 0
-7352 -7513 0
7486 7493 0
-7486 -7493 0
7594 7588 0
-7594 -7588 0
7597 7591 0
-7597 -7591 0
6947 7592 0
-6947 -7592 0
7279 6947 0
-7279 -6947 0
6951 7595 0
-6951 -7595 0
7282 6951 0
-7282 -6951 0
6957 7278 0
-6957 -7278 0
6959 7281 0
-6959 -7281 0
6961 6957 0
-6961 -6957 0
6965 6959 0
-6965 -6959 0
6963 6961 0
-6963 -6961 0
6969 6963 0
-6969 -6963 0
6967 6965 0
-6967 -6965 0
6973 6967 0
-6973 -6967 0
6971 6969 0
-6971 -6969 0
7357 6971 0
-7357 -6971 0
7600 6973 0
-7600 -6973 0
7603 7357 0
-7603 -7357 0
7285 7600 0
-7285 -7600 0
7291 7603 0
-7291 -7603 0
6983 7284 0
-6983 -7284 0
7013 6983 0
-7013 -6983 0
6987 7284 0
-6987 -7284 0
7297 6987 0
-7297 -6987 0
6991 7287 0
-6991 -7287 0
7017 6991 0
-7017 -6991 0
6995 7287 0
-6995 -7287 0
7300 6995 0
-7300 -6995 0
6999 7290 0
-6999 -7290 0
7021 6999 0
-7021 -6999 0
7003 7290 0
-7003 -7290 0
7303 7003 0
-7303 -7003 0
7007 7293 0
-7007 -7293 0
7025 7007 0
-7025 -7007 0
7011 7293 0
-7011 -7293 0
7306 7011 0
-7306 -7011 0
7015 7013 0
-7015 -7013 0
7522 7015 0
-7522 -7015 0
7019 7017 0
-7019 -7017 0
7327 7019 0
-7327 -7019 0
7023 7021 0
-7023 -7021 0
7512 7023 0
-7512 -7023 0
7027 7025 0
-7027 -7025 0
7431 7027 0
-7431 -7027 0
7037 7522 0
-7037 -7522 0
7505 7327 0
-7505 -7327 0
7358 7512 0
-7358 -7512 0
7509 7431 0
-7509 -7431 0
7041 7037 0
-7041 -7037 0
7043 7325 0
-7043 -7325 0
7543 7041 0
-7543 -7041 0
7707 7043 0
-7707 -7043 0
7606 7605 0
-7606 -7605 0
7609 7608 0
-7609 -7608 0
7612 7611 0
-7612 -7611 0
7615 7614 0
-7615 -7614 0
7618 7606 0
-7618 -7606 0
7621 7609 0
-7621 -7609 0
7624 7612 0
-7624 -7612 0
7627 7615 0
-7627 -7615 0
7063 7616 0
-7063 -7616 0
7365 7063 0
-7365 -7063 0
7067 7364 0
-7067 -7364 0
7069 7067 0
-7069 -7067 0
7071 7069 0
-7071 -7069 0
7073 7071 0
-7073 -7071 0
7075 7073 0
-7075 -7073 0
7413 7075 0
-7413 -7075 0
7630 7413 0
-7630 -7413 0
7368 7630 0
-7368 -7630 0
7083 7367 0
-7083 -7367 0
7097 7083 0
-7097 -7083 0
7087 7367 0
-7087 -7367 0
7374 7087 0
-7374 -7087 0
7091 7370 0
-7091 -7370 0
7400 7091 0
-7400 -7091 0
7095 7370 0
-7095 -7370 0
7377 7095 0
-7377 -7095 0
7099 7097 0
-7099 -7097 0
7517 7099 0
-7517 -7099 0
7103 7400 0
-7103 -7400 0
7675 7103 0
-7675 -7103 0
7414 7517 0
-7414 -7517 0
7521 7400 0
-7521 -7400 0
7111 7398 0
-7111 -7398 0
7705 7111 0
-7705 -7111 0
7121 7429 0
-7121 -7429 0
7633 7632 0
-7633 -7632 0
7636 7635 0
-7636 -7635 0
7639 7638 0
-7639 -7638 0
7703 7121 0
-7703 -7121 0
7642 7633 0
-7642 -7633 0
7645 7636 0
-7645 -7636 0
7648 7639 0
-7648 -7639 0
7131 7646 0
-7131 -7646 0
7435 7131 0
-7435 -7131 0
7135 7434 0
-7135 -7434 0
7137 7135 0
-7137 -7135 0
7139 7137 0
-7139 -7137 0
7141 7139 0
-7141 -7139 0
7143 7141 0
-7143 -7141 0
7491 7143 0
-7491 -7143 0
7651 7491 0
-7651 -7491 0
7438 7651 0
-7438 -7651 0
7151 7437 0
-7151 -7437 0
7165 7151 0
-7165 -7151 0
7155 7437 0
-7155 -7437 0
7444 7155 0
-7444 -7155 0
7159 7440 0
-7159 -7440 0
7475 7159 0
-7475 -7159 0
7163 7440 0
-7163 -7440 0
7447 7163 0
-7447 -7163 0
7167 7165 0
-7167 -7165 0
7463 7167 0
-7463 -7167 0
7171 7475 0
-7171 -7475 0
7671 7171 0
-7671 -7171 0
7492 7463 0
-7492 -7463 0
7508 7475 0
-7508 -7475 0
7185 7555 0
-7185 -7555 0
7187 7494 0
-7187 -7494 0
7654 7653 0
-7654 -7653 0
7657 7656 0
-7657 -7656 0
7693 7185 0
-7693 -7185 0
7701 7187 0
-7701 -7187 0
7660 7659 0
-7660 -7659 0
7663 7654 0
-7663 -7654 0
7666 7657 0
-7666 -7657 0
7203 7574 0
-7203 -7574 0
7205 7578 0
-7205 -7578 0
7207 7582 0
-7207 -7582 0
7669 7660 0
-7669 -7660 0
7695 7203 0
-7695 -7203 0
7697 7205 0
-7697 -7205 0
7699 7207 0
-7699 -7207 0
7211 7667 0
-7211 -7667 0
7210 7211 0
-7210 -7211 0
-7212 7213 0
-7212 7214 0
-7212 7215 0
7212 -7213 -7214 -7215 0
-7216 7217 0
-7216 7218 0
7216 -7217 -7218 0
-7219 7220 0
-7219 7221 0
7219 -7220 -7221 0
-7222 7223 0
-7222 7224 0
7222 -7223 -7224 0
-7225 7226 0
-7225 7227 0
7225 -7226 -7227 0
-7228 7229 0
-7228 7230 0
7228 -7229 -7230 0
-7231 7232 0
-7231 7233 0
7231 -7232 -7233 0
-7234 7235 0
-7234 7236 0
7234 -7235 -7236 0
-7552 7650 0
-7552 7391 0
7552 -7650 -7391 0
-7525 7650 0
-7525 7391 0
7525 -7650 -7391 0
-7533 7650 0
-7533 7391 0
7533 -7650 -7391 0
-7529 7650 0
-7529 7391 0
7529 -7650 -7391 0
-7553 7650 0
-7553 7450 0
-7553 7451 0
-7553 7479 0
7553 -7650 -7450 -7451 -7479 0
-7526 7650 0
-7526 7450 0
-7526 7334 0
-7526 7479 0
7526 -7650 -7450 -7334 -7479 0
-7535 7650 0
-7535 7384 0
-7535 7451 0
-7535 7479 0
7535 -7650 -7384 -7451 -7479 0
-7531 7650 0
-7531 7384 0
-7531 7334 0
-7531 7479 0
7531 -7650 -7384 -7334 -7479 0
-7269 7270 0
-7269 7271 0
7269 -7270 -7271 0
-7272 7273 0
-7272 7274 0
7272 -7273 -7274 0
-7275 7276 0
-7275 7277 0
7275 -7276 -7277 0
-7278 7279 0
-7278 7280 0
7278 -7279 -7280 0
-7281 7282 0
-7281 7283 0
7281 -7282 -7283 0
-7284 7285 0
-7284 7286 0
7284 -7285 -7286 0
-7287 7598 0
-7287 7289 0
7287 -7598 -7289 0
-7290 7291 0
-7290 7292 0
7290 -7291 -7292 0
-7293 7601 0
-7293 7295 0
7293 -7601 -7295 0
-7296 7297 0
-7296 7298 0
7296 -7297 -7298 0
-7299 7300 0
-7299 7301 0
7299 -7300 -7301 0
-7302 7303 0
-7302 7304 0
7302 -7303 -7304 0
-7305 7306 0
-7305 7307 0
7305 -7306 -7307 0
-7544 7600 0
-7544 7522 0
7544 -7600 -7522 0
-7571 7384 0
-7571 7334 0
-7571 7522 0
-7571 7479 0
7571 -7384 -7334 -7522 -7479 0
-7583 7474 0
-7583 7327 0
7583 -7474 -7327 0
-7584 7507 0
-7584 7327 0
7584 -7507 -7327 0
-7677 7474 0
-7677 7327 0
7677 -7474 -7327 0
-7325 7474 0
-7325 7327 0
7325 -7474 -7327 0
-7538 7603 0
-7538 7512 0
-7538 7513 0
7538 -7603 -7512 -7513 0
-7349 7450 0
-7349 7334 0
-7349 7512 0
7349 -7450 -7334 -7512 0
-7575 7474 0
-7575 7431 0
7575 -7474 -7431 0
-7576 7431 0
-7576 7511 0
7576 -7431 -7511 0
-7534 7474 0
-7534 7344 0
-7534 7505 0
7534 -7474 -7344 -7505 0
-7570 7513 0
-7570 7479 0
-7570 7349 0
7570 -7513 -7479 -7349 0
-7540 7358 0
-7540 7352 0
7540 -7358 -7352 0
-7537 7358 0
-7537 7513 0
7537 -7358 -7513 0
-7541 7357 0
-7541 7358 0
-7541 7513 0
7541 -7357 -7358 -7513 0
-7423 7474 0
-7423 7362 0
-7423 7509 0
7423 -7474 -7362 -7509 0
-7364 7365 0
-7364 7366 0
7364 -7365 -7366 0
-7367 7368 0
-7367 7369 0
7367 -7368 -7369 0
-7370 7628 0
-7370 7372 0
7370 -7628 -7372 0
-7373 7374 0
-7373 7375 0
7373 -7374 -7375 0
-7376 7377 0
-7376 7378 0
7376 -7377 -7378 0
-7547 7630 0
-7547 7517 0
-7547 7518 0
7547 -7630 -7517 -7518 0
-7405 7384 0
-7405 7451 0
-7405 7517 0
7405 -7384 -7451 -7517 0
-7483 7517 0
-7483 7518 0
-7483 7522 0
-7483 7391 0
7483 -7517 -7518 -7522 -7391 0
-7579 7474 0
-7579 7400 0
7579 -7474 -7400 0
-7580 7400 0
-7580 7516 0
7580 -7400 -7516 0
-7398 7474 0
-7398 7400 0
-7398 7505 0
7398 -7474 -7400 -7505 0
-7562 7518 0
-7562 7479 0
-7562 7405 0
7562 -7518 -7479 -7405 0
-7549 7414 0
-7549 7408 0
7549 -7414 -7408 0
-7546 7414 0
-7546 7518 0
7546 -7414 -7518 0
-7550 7413 0
-7550 7414 0
-7550 7518 0
7550 -7413 -7414 -7518 0
-7461 7509 0
-7461 7521 0
-7461 7505 0
7461 -7509 -7521 -7505 0
-7554 7521 0
-7554 7505 0
-7554 7423 0
7554 -7521 -7505 -7423 0
-7673 7474 0
-7673 7431 0
-7673 7521 0
-7673 7505 0
7673 -7474 -7431 -7521 -7505 0
-7429 7474 0
-7429 7431 0
-7429 7521 0
-7429 7505 0
7429 -7474 -7431 -7521 -7505 0
-7434 7435 0
-7434 7436 0
7434 -7435 -7436 0
-7437 7438 0
-7437 7439 0
7437 -7438 -7439 0
-7440 7649 0
-7440 7442 0
7440 -7649 -7442 0
-7443 7444 0
-7443 7445 0
7443 -7444 -7445 0
-7446 7447 0
-7446 7448 0
7446 -7447 -7448 0
-7480 7450 0
-7480 7451 0
-7480 7463 0
7480 -7450 -7451 -7463 0
-7565 7651 0
-7565 7463 0
-7565 7493 0
7565 -7651 -7463 -7493 0
-7558 7472 0
-7558 7463 0
-7558 7493 0
-7558 7461 0
7558 -7472 -7463 -7493 -7461 0
-7482 7463 0
-7482 7493 0
-7482 7512 0
-7482 7513 0
7482 -7463 -7493 -7512 -7513 0
-7556 7474 0
-7556 7475 0
7556 -7474 -7475 0
-7557 7475 0
-7557 7472 0
7557 -7475 -7472 0
-7497 7474 0
-7497 7475 0
-7497 7509 0
7497 -7474 -7475 -7509 0
-7561 7493 0
-7561 7479 0
-7561 7480 0
7561 -7493 -7479 -7480 0
-7572 7482 0
-7572 7483 0
7572 -7482 -7483 0
-7567 7492 0
-7567 7486 0
7567 -7492 -7486 0
-7564 7492 0
-7564 7493 0
7564 -7492 -7493 0
-7568 7491 0
-7568 7492 0
-7568 7493 0
7568 -7491 -7492 -7493 0
-7494 7521 0
-7494 7505 0
-7494 7497 0
7494 -7521 -7505 -7497 0
-7514 7508 0
-7514 7521 0
-7514 7505 0
7514 -7508 -7521 -7505 0
-7519 7508 0
-7519 7509 0
-7519 7505 0
7519 -7508 -7509 -7505 0
-7523 7507 0
-7523 7508 0
-7523 7509 0
7523 -7507 -7508 -7509 0
-7577 7511 0
-7577 7512 0
-7577 7513 0
-7577 7514 0
7577 -7511 -7512 -7513 -7514 0
-7581 7516 0
-7581 7517 0
-7581 7518 0
-7581 7519 0
7581 -7516 -7517 -7518 -7519 0
-7585 7521 0
-7585 7522 0
-7585 7523 0
7585 -7521 -7522 -7523 0
7587 -7525 0
7587 -7526 0
7587 -7527 0
-7587 7525 7526 7527 0
7590 -7529 0
7590 -7530 0
7590 -7531 0
-7590 7529 7530 7531 0
7605 -7533 0
7605 -7534 0
7605 -7535 0
-7605 7533 7534 7535 0
7608 -7537 0
7608 -7538 0
-7608 7537 7538 0
7611 -7540 0
7611 -7541 0
-7611 7540 7541 0
7614 -7543 0
7614 -7544 0
-7614 7543 7544 0
7632 -7546 0
7632 -7547 0
-7632 7546 7547 0
7635 -7549 0
7635 -7550 0
-7635 7549 7550 0
7638 -7552 0
7638 -7553 0
7638 -7554 0
-7638 7552 7553 7554 0
7555 -7556 0
7555 -7557 0
7555 -7558 0
-7555 7556 7557 7558 0
7573 -7560 0
7573 -7561 0
7573 -7562 0
-7573 7560 7561 7562 0
7653 -7564 0
7653 -7565 0
-7653 7564 7565 0
7656 -7567 0
7656 -7568 0
-7656 7567 7568 0
7659 -7570 0
7659 -7571 0
7659 -7572 0
7659 -7573 0
-7659 7570 7571 7572 7573 0
7574 -7575 0
7574 -7576 0
7574 -7577 0
-7574 7575 7576 7577 0
7578 -7579 0
7578 -7580 0
7578 -7581 0
-7578 7579 7580 7581 0
7582 -7583 0
7582 -7584 0
7582 -7585 0
-7582 7583 7584 7585 0
7593 7587 0
7593 7588 0
-7593 -7587 -7588 0
7596 7590 0
7596 7591 0
-7596 -7590 -7591 0
7592 7593 0
7592 7594 0
-7592 -7593 -7594 0
7595 7596 0
7595 7597 0
-7595 -7596 -7597 0
7598 7650 0
7598 7600 0
-7598 -7650 -7600 0
7601 7650 0
7601 7603 0
-7601 -7650 -7603 0
7617 7605 0
7617 7606 0
-7617 -7605 -7606 0
7620 7608 0
7620 7609 0
-7620 -7608 -7609 0
7623 7611 0
7623 7612 0
-7623 -7611 -7612 0
7626 7614 0
7626 7615 0
-7626 -7614 -7615 0
7616 7617 0
7616 7618 0
-7616 -7617 -7618 0
7687 7620 0
7687 7621 0
-7687 -7620 -7621 0
7685 7623 0
7685 7624 0
-7685 -7623 -7624 0
7679 7626 0
7679 7627 0
-7679 -7626 -7627 0
7628 7650 0
7628 7630 0
-7628 -7650 -7630 0
7641 7632 0
7641 7633 0
-7641 -7632 -7633 0
7644 7635 0
7644 7636 0
-7644 -7635 -7636 0
7647 7638 0
7647 7639 0
-7647 -7638 -7639 0
7683 7641 0
7683 7642 0
-7683 -7641 -7642 0
7681 7644 0
7681 7645 0
-7681 -7644 -7645 0
7646 7647 0
7646 7648 0
-7646 -7647 -7648 0
7649 7650 0
7649 7651 0
-7649 -7650 -7651 0
7662 7653 0
7662 7654 0
-7662 -7653 -7654 0
7665 7656 0
7665 7657 0
-7665 -7656 -7657 0
7668 7659 0
7668 7660 0
-7668 -7659 -7660 0
7691 7662 0
7691 7663 0
-7691 -7662 -7663 0
7689 7665 0
7689 7666 0
-7689 -7665 -7666 0
7667 7668 0
7667 7669 0
-7667 -7668 -7669 0
-7671 8332 0
7671 -8332 0
-7673 8497 0
7673 -8497 0
-7675 8314 0
7675 -8314 0
-7677 8500 0
7677 -8500 0
-7679 7773 0
7679 -7773 0
-7681 7781 0
7681 -7781 0
-7683 7737 0
7683 -7737 0
-7685 7741 0
7685 -7741 0
-7687 7745 0
7687 -7745 0
-7689 7753 0
7689 -7753 0
-7691 7761 0
7691 -7761 0
-7693 7769 0
7693 -7769 0
-7695 7777 0
7695 -7777 0
-7697 7785 0
7697 -7785 0
-7699 7789 0
7699 -7789 0
-7701 7793 0
7701 -7793 0
-7703 7749 0
7703 -7749 0
-7705 7757 0
7705 -7757 0
-7707 7765 0
7707 -7765 0
7797 7709 0
-7797 -7709 0
8444 7711 0
-8444 -7711 0
8620 7713 0
-8620 -7713 0
7799 7715 0
-7799 -7715 0
7801 7717 0
-7801 -7717 0
7803 7719 0
-7803 -7719 0
7805 7721 0
-7805 -7721 0
7807 7723 0
-7807 -7723 0
7809 7725 0
-7809 -7725 0
7811 7727 0
-7811 -7727 0
7813 7729 0
-7813 -7729 0
7815 7731 0
-7815 -7731 0
7732 7733 0
-7732 -7733 0
7734 7735 0
-7734 -7735 0
7739 7737 0
-7739 -7737 0
8339 7739 0
-8339 -7739 0
7743 7741 0
-7743 -7741 0
8191 7743 0
-8191 -7743 0
7747 7745 0
-7747 -7745 0
8262 7747 0
-8262 -7747 0
7751 7749 0
-7751 -7749 0
8200 7751 0
-8200 -7751 0
7755 7753 0
-7755 -7753 0
8194 7755 0
-8194 -7755 0
7759 7757 0
-7759 -7757 0
8203 7759 0
-8203 -7759 0
7763 7761 0
-7763 -7761 0
8409 7763 0
-8409 -7763 0
7767 7765 0
-7767 -7765 0
8206 7767 0
-8206 -7767 0
7771 7769 0
-7771 -7769 0
8412 7771 0
-8412 -7771 0
7775 7773 0
-7775 -7773 0
8256 7775 0
-8256 -7775 0
7779 7777 0
-7779 -7777 0
8265 7779 0
-8265 -7779 0
7783 7781 0
-7783 -7781 0
8188 7783 0
-8188 -7783 0
7787 7785 0
-7787 -7785 0
8342 7787 0
-8342 -7787 0
7791 7789 0
-7791 -7789 0
8259 7791 0
-8259 -7791 0
7795 7793 0
-7795 -7793 0
8197 7795 0
-8197 -7795 0
8477 7797 0
-8477 -7797 0
7829 7799 0
-7829 -7799 0
8481 7801 0
-8481 -7801 0
8486 7803 0
-8486 -7803 0
8442 7805 0
-8442 -7805 0
8354 7807 0
-8354 -7807 0
8304 7809 0
-8304 -7809 0
8183 7811 0
-8183 -7811 0
8184 7813 0
-8184 -7813 0
8185 7815 0
-8185 -7815 0
8187 7829 0
-8187 -7829 0
8190 7829 0
-8190 -7829 0
8193 7829 0
-8193 -7829 0
8196 7829 0
-8196 -7829 0
8199 7829 0
-8199 -7829 0
8202 7829 0
-8202 -7829 0
8205 7829 0
-8205 -7829 0
8420 8354 0
-8420 -8354 0
8421 8304 0
-8421 -8304 0
8361 8183 0
-8361 -8183 0
8530 8184 0
-8530 -8184 0
8449 8185 0
-8449 -8185 0
7883 8182 0
-7883 -8182 0
7845 8186 0
-7845 -8186 0
7885 7845 0
-7885 -7845 0
7849 8186 0
-7849 -8186 0
8240 7849 0
-8240 -7849 0
7853 8189 0
-7853 -8189 0
7889 7853 0
-7889 -7853 0
7857 8189 0
-7857 -8189 0
8243 7857 0
-8243 -7857 0
7861 8192 0
-7861 -8192 0
7893 7861 0
-7893 -7861 0
7865 8192 0
-7865 -8192 0
8246 7865 0
-8246 -7865 0
7869 8195 0
-7869 -8195 0
7868 7869 0
-7868 -7869 0
7873 8198 0
-7873 -8198 0
7872 7873 0
-7872 -7873 0
7877 8201 0
-7877 -8201 0
7876 7877 0
-7876 -7877 0
7881 8204 0
-7881 -8204 0
7880 7881 0
-7880 -7881 0
7897 7883 0
-7897 -7883 0
7887 7885 0
-7887 -7885 0
8488 7887 0
-8488 -7887 0
7891 7889 0
-7891 -7889 0
8483 7891 0
-8483 -7891 0
7895 7893 0
-7895 -7893 0
8463 7895 0
-8463 -7895 0
7899 7897 0
-7899 -7897 0
7898 7899 0
-7898 -7899 0
8558 8557 0
-8558 -8557 0
8561 8560 0
-8561 -8560 0
8378 8488 0
-8378 -8488 0
8322 8483 0
-8322 -8483 0
8456 8463 0
-8456 -8463 0
8564 8558 0
-8564 -8558 0
8567 8561 0
-8567 -8561 0
7917 8562 0
-7917 -8562 0
8249 7917 0
-8249 -7917 0
7921 8565 0
-7921 -8565 0
8252 7921 0
-8252 -7921 0
7927 8248 0
-7927 -8248 0
7929 8251 0
-7929 -8251 0
7931 7927 0
-7931 -7927 0
7935 7929 0
-7935 -7929 0
7933 7931 0
-7933 -7931 0
7939 7933 0
-7939 -7933 0
7937 7935 0
-7937 -7935 0
7943 7937 0
-7943 -7937 0
7941 7939 0
-7941 -7939 0
8327 7941 0
-8327 -7941 0
8570 7943 0
-8570 -7943 0
8573 8327 0
-8573 -8327 0
8255 8570 0
-8255 -8570 0
8261 8573 0
-8261 -8573 0
7953 8254 0
-7953 -8254 0
7983 7953 0
-7983 -7953 0
7957 8254 0
-7957 -8254 0
8267 7957 0
-8267 -7957 0
7961 8257 0
-7961 -8257 0
7987 7961 0
-7987 -7961 0
7965 8257 0
-7965 -8257 0
8270 7965 0
-8270 -7965 0
7969 8260 0
-7969 -8260 0
7991 7969 0
-7991 -7969 0
7973 8260 0
-7973 -8260 0
8273 7973 0
-8273 -7973 0
7977 8263 0
-7977 -8263 0
7995 7977 0
-7995 -7977 0
7981 8263 0
-7981 -8263 0
8276 7981 0
-8276 -7981 0
7985 7983 0
-7985 -7983 0
8492 7985 0
-8492 -7985 0
7989 7987 0
-7989 -7987 0
8297 7989 0
-8297 -7989 0
7993 7991 0
-7993 -7991 0
8482 7993 0
-8482 -7993 0
7997 7995 0
-7997 -7995 0
8401 7997 0
-8401 -7997 0
8007 8492 0
-8007 -8492 0
8475 8297 0
-8475 -8297 0
8328 8482 0
-8328 -8482 0
8479 8401 0
-8479 -8401 0
8011 8007 0
-8011 -8007 0
8013 8295 0
-8013 -8295 0
8513 8011 0
-8513 -8011 0
8677 8013 0
-8677 -8013 0
8576 8575 0
-8576 -8575 0
8579 8578 0
-8579 -8578 0
8582 8581 0
-8582 -8581 0
8585 8584 0
-8585 -8584 0
8588 8576 0
-8588 -8576 0
8591 8579 0
-8591 -8579 0
8594 8582 0
-8594 -8582 0
8597 8585 0
-8597 -8585 0
8033 8586 0
-8033 -8586 0
8335 8033 0
-8335 -8033 0
8037 8334 0
-8037 -8334 0
8039 8037 0
-8039 -8037 0
8041 8039 0
-8041 -8039 0
8043 8041 0
-8043 -8041 0
8045 8043 0
-8045 -8043 0
8383 8045 0
-8383 -8045 0
8600 8383 0
-8600 -8383 0
8338 8600 0
-8338 -8600 0
8053 8337 0
-8053 -8337 0
8067 8053 0
-8067 -8053 0
8057 8337 0
-8057 -8337 0
8344 8057 0
-8344 -8057 0
8061 8340 0
-8061 -8340 0
8370 8061 0
-8370 -8061 0
8065 8340 0
-8065 -8340 0
8347 8065 0
-8347 -8065 0
8069 8067 0
-8069 -8067 0
8487 8069 0
-8487 -8069 0
8073 8370 0
-8073 -8370 0
8645 8073 0
-8645 -8073 0
8384 8487 0
-8384 -8487 0
8491 8370 0
-8491 -8370 0
8081 8368 0
-8081 -8368 0
8675 8081 0
-8675 -8081 0
8091 8399 0
-8091 -8399 0
8603 8602 0
-8603 -8602 0
8606 8605 0
-8606 -8605 0
8609 8608 0
-8609 -8608 0
8673 8091 0
-8673 -8091 0
8612 8603 0
-8612 -8603 0
8615 8606 0
-8615 -8606 0
8618 8609 0
-8618 -8609 0
8101 8616 0
-8101 -8616 0
8405 8101 0
-8405 -8101 0
8105 8404 0
-8105 -8404 0
8107 8105 0
-8107 -8105 0
8109 8107 0
-8109 -8107 0
8111 8109 0
-8111 -8109 0
8113 8111 0
-8113 -8111 0
8461 8113 0
-8461 -8113 0
8621 8461 0
-8621 -8461 0
8408 8621 0
-8408 -8621 0
8121 8407 0
-8121 -8407 0
8135 8121 0
-8135 -8121 0
8125 8407 0
-8125 -8407 0
8414 8125 0
-8414 -8125 0
8129 8410 0
-8129 -8410 0
8445 8129 0
-8445 -8129 0
8133 8410 0
-8133 -8410 0
8417 8133 0
-8417 -8133 0
8137 8135 0
-8137 -8135 0
8433 8137 0
-8433 -8137 0
8141 8445 0
-8141 -8445 0
8641 8141 0
-8641 -8141 0
8462 8433 0
-8462 -8433 0
8478 8445 0
-8478 -8445 0
8155 8525 0
-8155 -8525 0
8157 8464 0
-8157 -8464 0
8624 8623 0
-8624 -8623 0
8627 8626 0
-8627 -8626 0
8663 8155 0
-8663 -8155 0
8671 8157 0
-8671 -8157 0
8630 8629 0
-8630 -8629 0
8633 8624 0
-8633 -8624 0
8636 8627 0
-8636 -8627 0
8173 8544 0
-8173 -8544 0
8175 8548 0
-8175 -8548 0
8177 8552 0
-8177 -8552 0
8639 8630 0
-8639 -8630 0
8665 8173 0
-8665 -8173 0
8667 8175 0
-8667 -8175 0
8669 8177 0
-8669 -8177 0
8181 8637 0
-8181 -8637 0
8180 8181 0
-8180 -8181 0
-8182 8183 0
-8182 8184 0
-8182 8185 0
8182 -8183 -8184 -8185 0
-8186 8187 0
-8186 8188 0
8186 -8187 -8188 0
-8189 8190 0
-8189 8191 0
8189 -8190 -8191 0
-8192 8193 0
-8192 8194 0
8192 -8193 -8194 0
-8195 8196 0
-8195 8197 0
8195 -8196 -8197 0
-8198 8199 0
-8198 8200 0
8198 -8199 -8200 0
-8201 8202 0
-8201 8203 0
8201 -8202 -8203 0
-8204 8205 0
-8204 8206 0
8204 -8205 -8206 0
-8522 8620 0
-8522 8361 0
8522 -8620 -8361 0
-8495 8620 0
-8495 8361 0
8495 -8620 -8361 0
-8503 8620 0
-8503 8361 0
8503 -8620 -8361 0
-8499 8620 0
-8499 8361 0
8499 -8620 -8361 0
-8523 8620 0
-8523 8420 0
-8523 8421 0
-8523 8449 0
8523 -8620 -8420 -8421 -8449 0
-8496 8620 0
-8496 8420 0
-8496 8304 0
-8496 8449 0
8496 -8620 -8420 -8304 -8449 0
-8505 8620 0
-8505 8354 0
-8505 8421 0
-8505 8449 0
8505 -8620 -8354 -8421 -8449 0
-8501 8620 0
-8501 8354 0
-8501 8304 0
-8501 8449 0
8501 -8620 -8354 -8304 -8449 0
-8239 8240 0
-8239 8241 0
8239 -8240 -8241 0
-8242 8243 0
-8242 8244 0
8242 -8243 -8244 0
-8245 8246 0
-8245 8247 0
8245 -8246 -8247 0
-8248 8249 0
-8248 8250 0
8248 -8249 -8250 0
-8251 8252 0
-8251 8253 0
8251 -8252 -8253 0
-8254 8255 0
-8254 8256 0
8254 -8255 -8256 0
-8257 8568 0
-8257 8259 0
8257 -8568 -8259 0
-8260 8261 0
-8260 8262 0
8260 -8261 -8262 0
-8263 8571 0
-8263 8265 0
8263 -8571 -8265 0
-8266 8267 0
-8266 8268 0
8266 -8267 -8268 0
-8269 8270 0
-8269 8271 0
8269 -8270 -8271 0
-8272 8273 0
-8272 8274 0
8272 -8273 -8274 0
-8275 8276 0
-8275 8277 0
8275 -8276 -8277 0
-8514 8570 0
-8514 8492 0
8514 -8570 -8492 0
-8541 8354 0
-8541 8304 0
-8541 8492 0
-8541 8449 0
8541 -8354 -8304 -8492 -8449 0
-8553 8444 0
-8553 8297 0
8553 -8444 -8297 0
-8554 8477 0
-8554 8297 0
8554 -8477 -8297 0
-8647 8444 0
-8647 8297 0
8647 -8444 -8297 0
-8295 8444 0
-8295 8297 0
8295 -8444 -8297 0
-8508 8573 0
-8508 8482 0
-8508 8483 0
8508 -8573 -8482 -8483 0
-8319 8420 0
-8319 8304 0
-8319 8482 0
8319 -8420 -8304 -8482 0
-8545 8444 0
-8545 8401 0
8545 -8444 -8401 0
-8546 8401 0
-8546 8481 0
8546 -8401 -8481 0
-8504 8444 0
-8504 8314 0
-8504 8475 0
8504 -8444 -8314 -8475 0
-8540 8483 0
-8540 8449 0
-8540 8319 0
8540 -8483 -8449 -8319 0
-8510 8328 0
-8510 8322 0
8510 -8328 -8322 0
-8507 8328 0
-8507 8483 0
8507 -8328 -8483 0
-8511 8327 0
-8511 8328 0
-8511 8483 0
8511 -8327 -8328 -8483 0
-8393 8444 0
-8393 8332 0
-8393 8479 0
8393 -8444 -8332 -8479 0
-8334 8335 0
-8334 8336 0
8334 -8335 -8336 0
-8337 8338 0
-8337 8339 0
8337 -8338 -8339 0
-8340 8598 0
-8340 8342 0
8340 -8598 -8342 0
-8343 8344 0
-8343 8345 0
8343 -8344 -8345 0
-8346 8347 0
-8346 8348 0
8346 -8347 -8348 0
-8517 8600 0
-8517 8487 0
-8517 8488 0
8517 -8600 -8487 -8488 0
-8375 8354 0
-8375 8421 0
-8375 8487 0
8375 -8354 -8421 -8487 0
-8453 8487 0
-8453 8488 0
-8453 8492 0
-8453 8361 0
8453 -8487 -8488 -8492 -8361 0
-8549 8444 0
-8549 8370 0
8549 -8444 -8370 0
-8550 8370 0
-8550 8486 0
8550 -8370 -8486 0
-8368 8444 0
-8368 8370 0
-8368 8475 0
8368 -8444 -8370 -8475 0
-8532 8488 0
-8532 8449 0
-8532 8375 0
8532 -8488 -8449 -8375 0
-8519 8384 0
-8519 8378 0
8519 -8384 -8378 0
-8516 8384 0
-8516 8488 0
8516 -8384 -8488 0
-8520 8383 0
-8520 8384 0
-8520 8488 0
8520 -8383 -8384 -8488 0
-8431 8479 0
-8431 8491 0
-8431 8475 0
8431 -8479 -8491 -8475 0
-8524 8491 0
-8524 8475 0
-8524 8393 0
8524 -8491 -8475 -8393 0
-8643 8444 0
-8643 8401 0
-8643 8491 0
-8643 8475 0
8643 -8444 -8401 -8491 -8475 0
-8399 8444 0
-8399 8401 0
-8399 8491 0
-8399 8475 0
8399 -8444 -8401 -8491 -8475 0
-8404 8405 0
-8404 8406 0
8404 -8405 -8406 0
-8407 8408 0
-8407 8409 0
8407 -8408 -8409 0
-8410 8619 0
-8410 8412 0
8410 -8619 -8412 0
-8413 8414 0
-8413 8415 0
8413 -8414 -8415 0
-8416 8417 0
-8416 8418 0
8416 -8417 -8418 0
-8450 8420 0
-8450 8421 0
-8450 8433 0
8450 -8420 -8421 -8433 0
-8535 8621 0
-8535 8433 0
-8535 8463 0
8535 -8621 -8433 -8463 0
-8528 8442 0
-8528 8433 0
-8528 8463 0
-8528 8431 0
8528 -8442 -8433 -8463 -8431 0
-8452 8433 0
-8452 8463 0
-8452 8482 0
-8452 8483 0
8452 -8433 -8463 -8482 -8483 0
-8526 8444 0
-8526 8445 0
8526 -8444 -8445 0
-8527 8445 0
-8527 8442 0
8527 -8445 -8442 0
-8467 8444 0
-8467 8445 0
-8467 8479 0
8467 -8444 -8445 -8479 0
-8531 8463 0
-8531 8449 0
-8531 8450 0
8531 -8463 -8449 -8450 0
-8542 8452 0
-8542 8453 0
8542 -8452 -8453 0
-8537 8462 0
-8537 8456 0
8537 -8462 -8456 0
-8534 8462 0
-8534 8463 0
8534 -8462 -8463 0
-8538 8461 0
-8538 8462 0
-8538 8463 0
8538 -8461 -8462 -8463 0
-8464 8491 0
-8464 8475 0
-8464 8467 0
8464 -8491 -8475 -8467 0
-8484 8478 0
-8484 8491 0
-8484 8475 0
8484 -8478 -8491 -8475 0
-8489 8478 0
-8489 8479 0
-8489 8475 0
8489 -8478 -8479 -8475 0
-8493 8477 0
-8493 8478 0
-8493 8479 0
8493 -8477 -8478 -8479 0
-8547 8481 0
-8547 8482 0
-8547 8483 0
-8547 8484 0
8547 -8481 -8482 -8483 -8484 0
-8551 8486 0
-8551 8487 0
-8551 8488 0
-8551 8489 0
8551 -8486 -8487 -8488 -8489 0
-8555 8491 0
-8555 8492 0
-8555 8493 0
8555 -8491 -8492 -8493 0
8557 -8495 0
8557 -8496 0
8557 -8497 0
-8557 8495 8496 8497 0
8560 -8499 0
8560 -8500 0
8560 -8501 0
-8560 8499 8500 8501 0
8575 -8503 0
8575 -8504 0
8575 -8505 0
-8575 8503 8504 8505 0
8578 -8507 0
8578 -8508 0
-8578 8507 8508 0
8581 -8510 0
8581 -8511 0
-8581 8510 8511 0
8584 -8513 0
8584 -8514 0
-8584 8513 8514 0
8602 -8516 0
8602 -8517 0
-8602 8516 8517 0
8605 -8519 0
8605 -8520 0
-8605 8519 8520 0
8608 -8522 0
8608 -8523 0
8608 -8524 0
-8608 8522 8523 8524 0
8525 -8526 0
8525 -8527 0
8525 -8528 0
-8525 8526 8527 8528 0
8543 -8530 0
8543 -8531 0
8543 -8532 0
-8543 8530 8531 8532 0
8623 -8534 0
8623 -8535 0
-8623 8534 8535 0
8626 -8537 0
8626 -8538 0
-8626 8537 8538 0
8629 -8540 0
8629 -8541 0
8629 -8542 0
8629 -8543 0
-8629 8540 8541 8542 8543 0
8544 -8545 0
8544 -8546 0
8544 -8547 0
-8544 8545 8546 8547 0
8548 -8549 0
8548 -8550 0
8548 -8551 0
-8548 8549 8550 8551 0
8552 -8553 0
8552 -8554 0
8552 -8555 0
-8552 8553 8554 8555 0
8563 8557 0
8563 8558 0
-8563 -8557 -8558 0
8566 8560 0
8566 8561 0
-8566 -8560 -8561 0
8562 8563 0
8562 8564 0
-8562 -8563 -8564 0
8565 8566 0
8565 8567 0
-8565 -8566 -8567 0
8568 8620 0
8568 8570 0
-8568 -8620 -8570 0
8571 8620 0
8571 8573 0
-8571 -8620 -8573 0
8587 8575 0
8587 8576 0
-8587 -8575 -8576 0
8590 8578 0
8590 8579 0
-8590 -8578 -8579 0
8593 8581 0
8593 8582 0
-8593 -8581 -8582 0
8596 8584 0
8596 8585 0
-8596 -8584 -8585 0
8586 8587 0
8586 8588 0
-8586 -8587 -8588 0
8657 8590 0
8657 8591 0
-8657 -8590 -8591 0
8655 8593 0
8655 8594 0
-8655 -8593 -8594 0
8649 8596 0
8649 8597 0
-8649 -8596 -8597 0
8598 8620 0
8598 8600 0
-8598 -8620 -8600 0
8611 8602 0
8611 8603 0
-8611 -8602 -8603 0
8614 8605 0
8614 8606 0
-8614 -8605 -8606 0
8617 8608 0
8617 8609 0
-8617 -8608 -8609 0
8653 8611 0
8653 8612 0
-8653 -8611 -8612 0
8651 8614 0
8651 8615 0
-8651 -8614 -8615 0
8616 8617 0
8616 8618 0
-8616 -8617 -8618 0
8619 8620 0
8619 8621 0
-8619 -8620 -8621 0
8632 8623 0
8632 8624 0
-8632 -8623 -8624 0
8635 8626 0
8635 8627 0
-8635 -8626 -8627 0
8638 8629 0
8638 8630 0
-8638 -8629 -8630 0
8661 8632 0
8661 8633 0
-8661 -8632 -8633 0
8659 8635 0
8659 8636 0
-8659 -8635 -8636 0
8637 8638 0
8637 8639 0
-8637 -8638 -8639 0
-8641 9302 0
8641 -9302 0
-8643 9467 0
8643 -9467 0
-8645 9284 0
8645 -9284 0
-8647 9470 0
8647 -9470 0
-8649 8743 0
8649 -8743 0
-8651 8751 0
8651 -8751 0
-8653 8707 0
8653 -8707 0
-8655 8711 0
8655 -8711 0
-8657 8715 0
8657 -8715 0
-8659 8723 0
8659 -8723 0
-8661 8731 0
8661 -8731 0
-8663 8739 0
8663 -8739 0
-8665 8747 0
8665 -8747 0
-8667 8755 0
8667 -8755 0
-8669 8759 0
8669 -8759 0
-8671 8763 0
8671 -8763 0
-8673 8719 0
8673 -8719 0
-8675 8727 0
8675 -8727 0
-8677 8735 0
8677 -8735 0
8767 8679 0
-8767 -8679 0
9414 8681 0
-9414 -8681 0
9590 8683 0
-9590 -8683 0
8769 8685 0
-8769 -8685 0
8771 8687 0
-8771 -8687 0
8773 8689 0
-8773 -8689 0
8775 8691 0
-8775 -8691 0
8777 8693 0
-8777 -8693 0
8779 8695 0
-8779 -8695 0
8781 8697 0
-8781 -8697 0
8783 8699 0
-8783 -8699 0
8785 8701 0
-8785 -8701 0
8702 8703 0
-8702 -8703 0
8704 8705 0
-8704 -8705 0
8709 8707 0
-8709 -8707 0
9309 8709 0
-9309 -8709 0
8713 8711 0
-8713 -8711 0
9161 8713 0
-9161 -8713 0
8717 8715 0
-8717 -8715 0
9232 8717 0
-9232 -8717 0
8721 8719 0
-8721 -8719 0
9170 8721 0
-9170 -8721 0
8725 8723 0
-8725 -8723 0
9164 8725 0
-9164 -8725 0
8729 8727 0
-8729 -8727 0
9173 8729 0
-9173 -8729 0
8733 8731 0
-8733 -8731 0
9379 8733 0
-9379 -8733 0
8737 8735 0
-8737 -8735 0
9176 8737 0
-9176 -8737 0
8741 8739 0
-8741 -8739 0
9382 8741 0
-9382 -8741 0
8745 8743 0
-8745 -8743 0
9226 8745 0
-9226 -8745 0
8749 8747 0
-8749 -8747 0
9235 8749 0
-9235 -8749 0
8753 8751 0
-8753 -8751 0
9158 8753 0
-9158 -8753 0
8757 8755 0
-8757 -8755 0
9312 8757 0
-9312 -8757 0
8761 8759 0
-8761 -8759 0
9229 8761 0
-9229 -8761 0
8765 8763 0
-8765 -8763 0
9167 8765 0
-9167 -8765 0
9447 8767 0
-9447 -8767 0
8799 8769 0
-8799 -8769 0
9451 8771 0
-9451 -8771 0
9456 8773 0
-9456 -8773 0
9412 8775 0
-9412 -8775 0
9324 8777 0
-9324 -8777 0
9274 8779 0
-9274 -8779 0
9153 8781 0
-9153 -8781 0
9154 8783 0
-9154 -8783 0
9155 8785 0
-9155 -8785 0
9157 8799 0
-9157 -8799 0
9160 8799 0
-9160 -8799 0
9163 8799 0
-9163 -8799 0
9166 8799 0
-9166 -8799 0
9169 8799 0
-9169 -8799 0
9172 8799 0
-9172 -8799 0
9175 8799 0
-9175 -8799 0
9390 9324 0
-9390 -9324 0
9391 9274 0
-9391 -9274 0
9331 9153 0
-9331 -9153 0
9500 9154 0
-9500 -9154 0
9419 9155 0
-9419 -9155 0
8853 9152 0
-8853 -9152 0
8815 9156 0
-8815 -9156 0
8855 8815 0
-8855 -8815 0
8819 9156 0
-8819 -9156 0
9210 8819 0
-9210 -8819 0
8823 9159 0
-8823 -9159 0
8859 8823 0
-8859 -8823 0
8827 9159 0
-8827 -9159 0
9213 8827 0
-9213 -8827 0
8831 9162 0
-8831 -9162 0
8863 8831 0
-8863 -8831 0
8835 9162 0
-8835 -9162 0
9216 8835 0
-9216 -8835 0
8839 9165 0
-8839 -9165 0
8838 8839 0
-8838 -8839 0
8843 9168 0
-8843 -9168 0
8842 8843 0
-8842 -8843 0
8847 9171 0
-8847 -9171 0
8846 8847 0
-8846 -8847 0
8851 9174 0
-8851 -9174 0
8850 8851 0
-8850 -8851 0
8867 8853 0
-8867 -8853 0
8857 8855 0
-8857 -8855 0
9458 8857 0
-9458 -8857 0
8861 8859 0
-8861 -8859 0
9453 8861 0
-9453 -8861 0
8865 8863 0
-8865 -8863 0
9433 8865 0
-9433 -8865 0
8869 8867 0
-8869 -8867 0
8868 8869 0
-8868 -8869 0
9528 9527 0
-9528 -9527 0
9531 9530 0
-9531 -9530 0
9348 9458 0
-9348 -9458 0
9292 9453 0
-9292 -9453 0
9426 9433 0
-9426 -9433 0
9534 9528 0
-9534 -9528 0
9537 9531 0
-9537 -9531 0
8887 9532 0
-8887 -9532 0
9219 8887 0
-9219 -8887 0
8891 9535 0
-8891 -9535 0
9222 8891 0
-9222 -8891 0
8897 9218 0
-8897 -9218 0
8899 9221 0
-8899 -9221 0
8901 8897 0
-8901 -8897 0
8905 8899 0
-8905 -8899 0
8903 8901 0
-8903 -8901 0
8909 8903 0
-8909 -8903 0
8907 8905 0
-8907 -8905 0
8913 8907 0
-8913 -8907 0
8911 8909 0
-8911 -8909 0
9297 8911 0
-9297 -8911 0
9540 8913 0
-9540 -8913 0
9543 9297 0
-9543 -9297 0
9225 9540 0
-9225 -9540 0
9231 9543 0
-9231 -9543 0
8923 9224 0
-8923 -9224 0
8953 8923 0
-8953 -8923 0
8927 9224 0
-8927 -9224 0
9237 8927 0
-9237 -8927 0
8931 9227 0
-8931 -9227 0
8957 8931 0
-8957 -8931 0
8935 9227 0
-8935 -9227 0
9240 8935 0
-9240 -8935 0
8939 9230 0
-8939 -9230 0
8961 8939 0
-8961 -8939 0
8943 9230 0
-8943 -9230 0
9243 8943 0
-9243 -8943 0
8947 9233 0
-8947 -9233 0
8965 8947 0
-8965 -8947 0
8951 9233 0
-8951 -9233 0
9246 8951 0
-9246 -8951 0
8955 8953 0
-8955 -8953 0
9462 8955 0
-9462 -8955 0
8959 8957 0
-8959 -8957 0
9267 8959 0
-9267 -8959 0
8963 8961 0
-8963 -8961 0
9452 8963 0
-9452 -8963 0
8967 8965 0
-8967 -8965 0
9371 8967 0
-9371 -8967 0
8977 9462 0
-8977 -9462 0
9445 9267 0
-9445 -9267 0
9298 9452 0
-9298 -9452 0
9449 9371 0
-9449 -9371 0
8981 8977 0
-8981 -8977 0
8983 9265 0
-8983 -9265 0
9483 8981 0
-9483 -8981 0
9647 8983 0
-9647 -8983 0
9546 9545 0
-9546 -9545 0
9549 9548 0
-9549 -9548 0
9552 9551 0
-9552 -9551 0
9555 9554 0
-9555 -9554 0
9558 9546 0
-9558 -9546 0
9561 9549 0
-9561 -9549 0
9564 9552 0
-9564 -9552 0
9567 9555 0
-9567 -9555 0
9003 9556 0
-9003 -9556 0
9305 9003 0
-9305 -9003 0
9007 9304 0
-9007 -9304 0
9009 9007 0
-9009 -9007 0
9011 9009 0
-9011 -9009 0
9013 9011 0
-9013 -9011 0
9015 9013 0
-9015 -9013 0
9353 9015 0
-9353 -9015 0
9570 9353 0
-9570 -9353 0
9308 9570 0
-9308 -9570 0
9023 9307 0
-9023 -9307 0
9037 9023 0
-9037 -9023 0
9027 9307 0
-9027 -9307 0
9314 9027 0
-9314 -9027 0
9031 9310 0
-9031 -9310 0
9340 9031 0
-9340 -9031 0
9035 9310 0
-9035 -9310 0
9317 9035 0
-9317 -9035 0
9039 9037 0
-9039 -9037 0
9457 9039 0
-9457 -9039 0
9043 9340 0
-9043 -9340 0
9615 9043 0
-9615 -9043 0
9354 9457 0
-9354 -9457 0
9461 9340 0
-9461 -9340 0
9051 9338 0
-9051 -9338 0
9645 9051 0
-9645 -9051 0
9061 9369 0
-9061 -9369 0
9573 9572 0
-9573 -9572 0
9576 9575 0
-9576 -9575 0
9579 9578 0
-9579 -9578 0
9643 9061 0
-9643 -9061 0
9582 9573 0
-9582 -9573 0
9585 9576 0
-9585 -9576 0
9588 9579 0
-9588 -9579 0
9071 9586 0
-9071 -9586 0
9375 9071 0
-9375 -9071 0
9075 9374 0
-9075 -9374 0
9077 9075 0
-9077 -9075 0
9079 9077 0
-9079 -9077 0
9081 9079 0
-9081 -9079 0
9083 9081 0
-9083 -9081 0
9431 9083 0
-9431 -9083 0
9591 9431 0
-9591 -9431 0
9378 9591 0
-9378 -9591 0
9091 9377 0
-9091 -9377 0
9105 9091 0
-9105 -9091 0
9095 9377 0
-9095 -9377 0
9384 9095 0
-9384 -9095 0
9099 9380 0
-9099 -9380 0
9415 9099 0
-9415 -9099 0
9103 9380 0
-9103 -9380 0
9387 9103 0
-9387 -9103 0
9107 9105 0
-9107 -9105 0
9403 9107 0
-9403 -9107 0
9111 9415 0
-9111 -9415 0
9611 9111 0
-9611 -9111 0
9432 9403 0
-9432 -9403 0
9448 9415 0
-9448 -9415 0
9125 9495 0
-9125 -9495 0
9127 9434 0
-9127 -9434 0
9594 9593 0
-9594 -9593 0
9597 9596 0
-9597 -9596 0
9633 9125 0
-9633 -9125 0
9641 9127 0
-9641 -9127 0
9600 9599 0
-9600 -9599 0
9603 9594 0
-9603 -9594 0
9606 9597 0
-9606 -9597 0
9143 9514 0
-9143 -9514 0
9145 9518 0
-9145 -9518 0
9147 9522 0
-9147 -9522 0
9609 9600 0
-9609 -9600 0
9635 9143 0
-9635 -9143 0
9637 9145 0
-9637 -9145 0
9639 9147 0
-9639 -9147 0
9151 9607 0
-9151 -9607 0
9150 9151 0
-9150 -9151 0
-9152 9153 0
-9152 9154 0
-9152 9155 0
9152 -9153 -9154 -9155 0
-9156 9157 0
-9156 9158 0
9156 -9157 -9158 0
-9159 9160 0
-9159 9161 0
9159 -9160 -9161 0
-9162 9163 0
-9162 9164 0
9162 -9163 -9164 0
-9165 9166 0
-9165 9167 0
9165 -9166 -9167 0
-9168 9169 0
-9168 9170 0
9168 -9169 -9170 0
-9171 9172 0
-9171 9173 0
9171 -9172 -9173 0
-9174 9175 0
-9174 9176 0
9174 -9175 -9176 0
-9492 9590 0
-9492 9331 0
9492 -9590 -9331 0
-9465 9590 0
-9465 9331 0
9465 -9590 -9331 0
-9473 9590 0
-9473 9331 0
9473 -9590 -9331 0
-9469 9590 0
-9469 9331 0
9469 -9590 -9331 0
-9493 9590 0
-9493 9390 0
-9493 9391 0
-9493 9419 0
9493 -9590 -9390 -9391 -9419 0
-9466 9590 0
-9466 9390 0
-9466 9274 0
-9466 9419 0
9466 -9590 -9390 -9274 -9419 0
-9475 9590 0
-9475 9324 0
-9475 9391 0
-9475 9419 0
9475 -9590 -9324 -9391 -9419 0
-9471 9590 0
-9471 9324 0
-9471 9274 0
-9471 9419 0
9471 -9590 -9324 -9274 -9419 0
-9209 9210 0
-9209 9211 0
9209 -9210 -9211 0
-9212 9213 0
-9212 9214 0
9212 -9213 -9214 0
-9215 9216 0
-9215 9217 0
9215 -9216 -9217 0
-9218 9219 0
-9218 9220 0
9218 -9219 -9220 0
-9221 9222 0
-9221 9223 0
9221 -9222 -9223 0
-9224 9225 0
-9224 9226 0
9224 -9225 -9226 0
-9227 9538 0
-9227 9229 0
9227 -9538 -9229 0
-9230 9231 0
-9230 9232 0
9230 -9231 -9232 0
-9233 9541 0
-9233 9235 0
9233 -9541 -9235 0
-9236 9237 0
-9236 9238 0
9236 -9237 -9238 0
-9239 9240 0
-9239 9241 0
9239 -9240 -9241 0
-9242 9243 0
-9242 9244 0
9242 -9243 -9244 0
-9245 9246 0
-9245 9247 0
9245 -9246 -9247 0
-9484 9540 0
-9484 9462 0
9484 -9540 -9462 0
-9511 9324 0
-9511 9274 0
-9511 9462 0
-9511 9419 0
9511 -9324 -9274 -9462 -9419 0
-9523 9414 0
-9523 9267 0
9523 -9414 -9267 0
-9524 9447 0
-9524 9267 0
9524 -9447 -9267 0
-9617 9414 0
-9617 9267 0
9617 -9414 -9267 0
-9265 9414 0
-9265 9267 0
9265 -9414 -9267 0
-9478 9543 0
-9478 9452 0
-9478 9453 0
9478 -9543 -9452 -9453 0
-9289 9390 0
-9289 9274 0
-9289 9452 0
9289 -9390 -9274 -9452 0
-9515 9414 0
-9515 9371 0
9515 -9414 -9371 0
-9516 9371 0
-9516 9451 0
9516 -9371 -9451 0
-9474 9414 0
-9474 9284 0
-9474 9445 0
9474 -9414 -9284 -9445 0
-9510 9453 0
-9510 9419 0
-9510 9289 0
9510 -9453 -9419 -9289 0
-9480 9298 0
-9480 9292 0
9480 -9298 -9292 0
-9477 9298 0
-9477 9453 0
9477 -9298 -9453 0
-9481 9297 0
-9481 9298 0
-9481 9453 0
9481 -9297 -9298 -9453 0
-9363 9414 0
-9363 9302 0
-9363 9449 0
9363 -9414 -9302 -9449 0
-9304 9305 0
-9304 9306 0
9304 -9305 -9306 0
-9307 9308 0
-9307 9309 0
9307 -9308 -9309 0
-9310 9568 0
-9310 9312 0
9310 -9568 -9312 0
-9313 9314 0
-9313 9315 0
9313 -9314 -9315 0
-9316 9317 0
-9316 9318 0
9316 -9317 -9318 0
-9487 9570 0
-9487 9457 0
-9487 9458 0
9487 -9570 -9457 -9458 0
-9345 9324 0
-9345 9391 0
-9345 9457 0
9345 -9324 -9391 -9457 0
-9423 9457 0
-9423 9458 0
-9423 9462 0
-9423 9331 0
9423 -9457 -9458 -9462 -9331 0
-9519 9414 0
-9519 9340 0
9519 -9414 -9340 0
-9520 9340 0
-9520 9456 0
9520 -9340 -9456 0
-9338 9414 0
-9338 9340 0
-9338 9445 0
9338 -9414 -9340 -9445 0
-9502 9458 0
-9502 9419 0
-9502 9345 0
9502 -9458 -9419 -9345 0
-9489 9354 0
-9489 9348 0
9489 -9354 -9348 0
-9486 9354 0
-9486 9458 0
9486 -9354 -9458 0
-9490 9353 0
-9490 9354 0
-9490 9458 0
9490 -9353 -9354 -9458 0
-9401 9449 0
-9401 9461 0
-9401 9445 0
9401 -9449 -9461 -9445 0
-9494 9461 0
-9494 9445 0
-9494 9363 0
9494 -9461 -9445 -9363 0
-9613 9414 0
-9613 9371 0
-9613 9461 0
-9613 9445 0
9613 -9414 -9371 -9461 -9445 0
-9369 9414 0
-9369 9371 0
-9369 9461 0
-9369 9445 0
9369 -9414 -9371 -9461 -9445 0
-9374 9375 0
-9374 9376 0
9374 -9375 -9376 0
-9377 9378 0
-9377 9379 0
9377 -9378 -9379 0
-9380 9589 0
-9380 9382 0
9380 -9589 -9382 0
-9383 9384 0
-9383 9385 0
9383 -9384 -9385 0
-9386 9387 0
-9386 9388 0
9386 -9387 -9388 0
-9420 9390 0
-9420 9391 0
-9420 9403 0
9420 -9390 -9391 -9403 0
-9505 9591 0
-9505 9403 0
-9505 9433 0
9505 -9591 -9403 -9433 0
-9498 9412 0
-9498 9403 0
-9498 9433 0
-9498 9401 0
9498 -9412 -9403 -9433 -9401 0
-9422 9403 0
-9422 9433 0
-9422 9452 0
-9422 9453 0
9422 -9403 -9433 -9452 -9453 0
-9496 9414 0
-9496 9415 0
9496 -9414 -9415 0
-9497 9415 0
-9497 9412 0
9497 -9415 -9412 0
-9437 9414 0
-9437 9415 0
-9437 9449 0
9437 -9414 -9415 -9449 0
-9501 9433 0
-9501 9419 0
-9501 9420 0
9501 -9433 -9419 -9420 0
-9512 9422 0
-9512 9423 0
9512 -9422 -9423 0
-9507 9432 0
-9507 9426 0
9507 -9432 -9426 0
-9504 9432 0
-9504 9433 0
9504 -9432 -9433 0
-9508 9431 0
-9508 9432 0
-9508 9433 0
9508 -9431 -9432 -9433 0
-9434 9461 0
-9434 9445 0
-9434 9437 0
9434 -9461 -9445 -9437 0
-9454 9448 0
-9454 9461 0
-9454 9445 0
9454 -9448 -9461 -9445 0
-9459 9448 0
-9459 9449 0
-9459 9445 0
9459 -9448 -9449 -9445 0
-9463 9447 0
-9463 9448 0
-9463 9449 0
9463 -9447 -9448 -9449 0
-9517 9451 0
-9517 9452 0
-9517 9453 0
-9517 9454 0
9517 -9451 -9452 -9453 -9454 0
-9521 9456 0
-9521 9457 0
-9521 9458 0
-9521 9459 0
9521 -9456 -9457 -9458 -9459 0
-9525 9461 0
-9525 9462 0
-9525 9463 0
9525 -9461 -9462 -9463 0
9527 -9465 0
9527 -9466 0
9527 -9467 0
-9527 9465 9466 9467 0
9530 -9469 0
9530 -9470 0
9530 -9471 0
-9530 9469 9470 9471 0
9545 -9473 0
9545 -9474 0
9545 -9475 0
-9545 9473 9474 9475 0
9548 -9477 0
9548 -9478 0
-9548 9477 9478 0
9551 -9480 0
9551 -9481 0
-9551 9480 9481 0
9554 -9483 0
9554 -9484 0
-9554 9483 9484 0
9572 -9486 0
9572 -9487 0
-9572 9486 9487 0
9575 -9489 0
9575 -9490 0
-9575 9489 9490 0
9578 -9492 0
9578 -9493 0
9578 -9494 0
-9578 9492 9493 9494 0
9495 -9496 0
9495 -9497 0
9495 -9498 0
-9495 9496 9497 9498 0
9513 -9500 0
9513 -9501 0
9513 -9502 0
-9513 9500 9501 9502 0
9593 -9504 0
9593 -9505 0
-9593 9504 9505 0
9596 -9507 0
9596 -9508 0
-9596 9507 9508 0
9599 -9510 0
9599 -9511 0
9599 -9512 0
9599 -9513 0
-9599 9510 9511 9512 9513 0
9514 -9515 0
9514 -9516 0
9514 -9517 0
-9514 9515 9516 9517 0
9518 -9519 0
9518 -9520 0
9518 -9521 0
-9518 9519 9520 9521 0
9522 -9523 0
9522 -9524 0
9522 -9525 0
-9522 9523 9524 9525 0
9533 9527 0
9533 9528 0
-9533 -9527 -9528 0
9536 9530 0
9536 9531 0
-9536 -9530 -9531 0
9532 9533 0
9532 9534 0
-9532 -9533 -9534 0
9535 9536 0
9535 9537 0
-9535 -9536 -9537 0
9538 9590 0
9538 9540 0
-9538 -9590 -9540 0
9541 9590 0
9541 9543 0
-9541 -9590 -9543 0
9557 9545 0
9557 9546 0
-9557 -9545 -9546 0
9560 9548 0
9560 9549 0
-9560 -9548 -9549 0
9563 9551 0
9563 9552 0
-9563 -9551 -9552 0
9566 9554 0
9566 9555 0
-9566 -9554 -9555 0
9556 9557 0
9556 9558 0
-9556 -9557 -9558 0
9627 9560 0
9627 9561 0
-9627 -9560 -9561 0
9625 9563 0
9625 9564 0
-9625 -9563 -9564 0
9619 9566 0
9619 9567 0
-9619 -9566 -9567 0
9568 9590 0
9568 9570 0
-9568 -9590 -9570 0
9581 9572 0
9581 9573 0
-9581 -9572 -9573 0
9584 9575 0
9584 9576 0
-9584 -9575 -9576 0
9587 9578 0
9587 9579 0
-9587 -9578 -9579 0
9623 9581 0
9623 9582 0
-9623 -9581 -9582 0
9621 9584 0
9621 9585 0
-9621 -9584 -9585 0
9586 9587 0
9586 9588 0
-9586 -9587 -9588 0
9589 9590 0
9589 9591 0
-9589 -9590 -9591 0
9602 9593 0
9602 9594 0
-9602 -9593 -9594 0
9605 9596 0
9605 9597 0
-9605 -9596 -9597 0
9608 9599 0
9608 9600 0
-9608 -9599 -9600 0
9631 9602 0
9631 9603 0
-9631 -9602 -9603 0
9629 9605 0
9629 9606 0
-9629 -9605 -9606 0
9607 9608 0
9607 9609 0
-9607 -9608 -9609 0
-9611 10272 0
9611 -10272 0
-9613 10437 0
9613 -10437 0
-9615 10254 0
9615 -10254 0
-9617 10440 0
9617 -10440 0
-9619 9713 0
9619 -9713 0
-9621 9721 0
9621 -9721 0
-9623 9677 0
9623 -9677 0
-9625 9681 0
9625 -9681 0
-9627 9685 0
9627 -9685 0
-9629 9693 0
9629 -9693 0
-9631 9701 0
9631 -9701 0
-9633 9709 0
9633 -9709 0
-9635 9717 0
9635 -9717 0
-9637 9725 0
9637 -9725 0
-9639 9729 0
9639 -9729 0
-9641 9733 0
9641 -9733 0
-9643 9689 0
9643 -9689 0
-9645 9697 0
9645 -9697 0
-9647 9705 0
9647 -9705 0
9737 9649 0
-9737 -9649 0
10384 9651 0
-10384 -9651 0
10560 9653 0
-10560 -9653 0
9739 9655 0
-9739 -9655 0
9741 9657 0
-9741 -9657 0
9743 9659 0
-9743 -9659 0
9745 9661 0
-9745 -9661 0
9747 9663 0
-9747 -9663 0
9749 9665 0
-9749 -9665 0
9751 9667 0
-9751 -9667 0
9753 9669 0
-9753 -9669 0
9755 9671 0
-9755 -9671 0
9672 9673 0
-9672 -9673 0
9674 9675 0
-9674 -9675 0
9679 9677 0
-9679 -9677 0
10279 9679 0
-10279 -9679 0
9683 9681 0
-9683 -9681 0
10131 9683 0
-10131 -9683 0
9687 9685 0
-9687 -9685 0
10202 9687 0
-10202 -9687 0
9691 9689 0
-9691 -9689 0
10140 9691 0
-10140 -9691 0
9695 9693 0
-9695 -9693 0
10134 9695 0
-10134 -9695 0
9699 9697 0
-9699 -9697 0
10143 9699 0
-10143 -9699 0
9703 9701 0
-9703 -9701 0
10349 9703 0
-10349 -9703 0
9707 9705 0
-9707 -9705 0
10146 9707 0
-10146 -9707 0
9711 9709 0
-9711 -9709 0
10352 9711 0
-10352 -9711 0
9715 9713 0
-9715 -9713 0
10196 9715 0
-10196 -9715 0
9719 9717 0
-9719 -9717 0
10205 9719 0
-10205 -9719 0
9723 9721 0
-9723 -9721 0
10128 9723 0
-10128 -9723 0
9727 9725 0
-9727 -9725 0
10282 9727 0
-10282 -9727 0
9731 9729 0
-9731 -9729 0
10199 9731 0
-10199 -9731 0
9735 9733 0
-9735 -9733 0
10137 9735 0
-10137 -9735 0
10417 9737 0
-10417 -9737 0
9769 9739 0
-9769 -9739 0
10421 9741 0
-10421 -9741 0
10426 9743 0
-10426 -9743 0
10382 9745 0
-10382 -9745 0
10294 9747 0
-10294 -9747 0
10244 9749 0
-10244 -9749 0
10123 9751 0
-10123 -9751 0
10124 9753 0
-10124 -9753 0
10125 9755 0
-10125 -9755 0
10127 9769 0
-10127 -9769 0
10130 9769 0
-10130 -9769 0
10133 9769 0
-10133 -9769 0
10136 9769 0
-10136 -9769 0
10139 9769 0
-10139 -9769 0
10142 9769 0
-10142 -9769 0
10145 9769 0
-10145 -9769 0
10360 10294 0
-10360 -10294 0
10361 10244 0
-10361 -10244 0
10301 10123 0
-10301 -10123 0
10470 10124 0
-10470 -10124 0
10389 10125 0
-10389 -10125 0
9823 10122 0
-9823 -10122 0
9785 10126 0
-9785 -10126 0
9825 9785 0
-9825 -9785 0
9789 10126 0
-9789 -10126 0
10180 9789 0
-10180 -9789 0
9793 10129 0
-9793 -10129 0
9829 9793 0
-9829 -9793 0
9797 10129 0
-9797 -10129 0
10183 9797 0
-10183 -9797 0
9801 10132 0
-9801 -10132 0
9833 9801 0
-9833 -9801 0
9805 10132 0
-9805 -10132 0
10186 9805 0
-10186 -9805 0
9809 10135 0
-9809 -10135 0
9808 9809 0
-9808 -9809 0
9813 10138 0
-9813 -10138 0
9812 9813 0
-9812 -9813 0
9817 10141 0
-9817 -10141 0
9816 9817 0
-9816 -9817 0
9821 10144 0
-9821 -10144 0
9820 9821 0
-9820 -9821 0
9837 9823 0
-9837 -9823 0
9827 9825 0
-9827 -9825 0
10428 9827 0
-10428 -9827 0
9831 9829 0
-9831 -9829 0
10423 9831 0
-10423 -9831 0
9835 9833 0
-9835 -9833 0
10403 9835 0
-10403 -9835 0
9839 9837 0
-9839 -9837 0
9838 9839 0
-9838 -9839 0
10498 10497 0
-10498 -10497 0
10501 10500 0
-10501 -10500 0
10318 10428 0
-10318 -10428 0
10262 10423 0
-10262 -10423 0
10396 10403 0
-10396 -10403 0
10504 10498 0
-10504 -10498 0
10507 10501 0
-10507 -10501 0
9857 10502 0
-9857 -10502 0
10189 9857 0
-10189 -9857 0
9861 10505 0
-9861 -10505 0
10192 9861 0
-10192 -9861 0
9867 10188 0
-9867 -10188 0
9869 10191 0
-9869 -10191 0
9871 9867 0
-9871 -9867 0
9875 9869 0
-9875 -9869 0
9873 9871 0
-9873 -9871 0
9879 9873 0
-9879 -9873 0
9877 9875 0
-9877 -9875 0
9883 9877 0
-9883 -9877 0
9881 9879 0
-9881 -9879 0
10267 9881 0
-10267 -9881 0
10510 9883 0
-10510 -9883 0
10513 10267 0
-10513 -10267 0
10195 10510 0
-10195 -10510 0
10201 10513 0
-10201 -10513 0
9893 10194 0
-9893 -10194 0
9923 9893 0
-9923 -9893 0
9897 10194 0
-9897 -10194 0
10207 9897 0
-10207 -9897 0
9901 10197 0
-9901 -10197 0
9927 9901 0
-9927 -9901 0
9905 10197 0
-9905 -10197 0
10210 9905 0
-10210 -9905 0
9909 10200 0
-9909 -10200 0
9931 9909 0
-9931 -9909 0
9913 10200 0
-9913 -10200 0
10213 9913 0
-10213 -9913 0
9917 10203 0
-9917 -10203 0
9935 9917 0
-9935 -9917 0
9921 10203 0
-9921 -10203 0
10216 9921 0
-10216 -9921 0
9925 9923 0
-9925 -9923 0
10432 9925 0
-10432 -9925 0
9929 9927 0
-9929 -9927 0
10237 9929 0
-10237 -9929 0
9933 9931 0
-9933 -9931 0
10422 9933 0
-10422 -9933 0
9937 9935 0
-9937 -9935 0
10341 9937 0
-10341 -9937 0
9947 10432 0
-9947 -10432 0
10415 10237 0
-10415 -10237 0
10268 10422 0
-10268 -10422 0
10419 10341 0
-10419 -10341 0
9951 9947 0
-9951 -9947 0
9953 10235 0
-9953 -10235 0
10453 9951 0
-10453 -9951 0
10617 9953 0
-10617 -9953 0
10516 10515 0
-10516 -10515 0
10519 10518 0
-10519 -10518 0
10522 10521 0
-10522 -10521 0
10525 10524 0
-10525 -10524 0
10528 10516 0
-10528 -10516 0
10531 10519 0
-10531 -10519 0
10534 10522 0
-10534 -10522 0
10537 10525 0
-10537 -10525 0
9973 10526 0
-9973 -10526 0
10275 9973 0
-10275 -9973 0
9977 10274 0
-9977 -10274 0
9979 9977 0
-9979 -9977 0
9981 9979 0
-9981 -9979 0
9983 9981 0
-9983 -9981 0
9985 9983 0
-9985 -9983 0
10323 9985 0
-10323 -9985 0
10540 10323 0
-10540 -10323 0
10278 10540 0
-10278 -10540 0
9993 10277 0
-9993 -10277 0
10007 9993 0
-10007 -9993 0
9997 10277 0
-9997 -10277 0
10284 9997 0
-10284 -9997 0
10001 10280 0
-10001 -10280 0
10310 10001 0
-10310 -10001 0
10005 10280 0
-10005 -10280 0
10287 10005 0
-10287 -10005 0
10009 10007 0
-10009 -10007 0
10427 10009 0
-10427 -10009 0
10013 10310 0
-10013 -10310 0
10585 10013 0
-10585 -10013 0
10324 10427 0
-10324 -10427 0
10431 10310 0
-10431 -10310 0
10021 10308 0
-10021 -10308 0
10615 10021 0
-10615 -10021 0
10031 10339 0
-10031 -10339 0
10543 10542 0
-10543 -10542 0
10546 10545 0
-10546 -10545 0
10549 10548 0
-10549 -10548 0
10613 10031 0
-10613 -10031 0
10552 10543 0
-10552 -10543 0
10555 10546 0
-10555 -10546 0
10558 10549 0
-10558 -10549 0
10041 10556 0
-10041 -10556 0
10345 10041 0
-10345 -10041 0
10045 10344 0
-10045 -10344 0
10047 10045 0
-10047 -10045 0
10049 10047 0
-10049 -10047 0
10051 10049 0
-10051 -10049 0
10053 10051 0
-10053 -10051 0
10401 10053 0
-10401 -10053 0
10561 10401 0
-10561 -10401 0
10348 10561 0
-10348 -10561 0
10061 10347 0
-10061 -10347 0
10075 10061 0
-10075 -10061 0
10065 10347 0
-10065 -10347 0
10354 10065 0
-10354 -10065 0
10069 10350 0
-10069 -10350 0
10385 10069 0
-10385 -10069 0
10073 10350 0
-10073 -10350 0
10357 10073 0
-10357 -10073 0
10077 10075 0
-10077 -10075 0
10373 10077 0
-10373 -10077 0
10081 10385 0
-10081 -10385 0
10581 10081 0
-10581 -10081 0
10402 10373 0
-10402 -10373 0
10418 10385 0
-10418 -10385 0
10095 10465 0
-10095 -10465 0
10097 10404 0
-10097 -10404 0
10564 10563 0
-10564 -10563 0
10567 10566 0
-10567 -10566 0
10603 10095 0
-10603 -10095 0
10611 10097 0
-10611 -10097 0
10570 10569 0
-10570 -10569 0
10573 10564 0
-10573 -10564 0
10576 10567 0
-10576 -10567 0
10113 10484 0
-10113 -10484 0
10115 10488 0
-10115 -10488 0
10117 10492 0
-10117 -10492 0
10579 10570 0
-10579 -10570 0
10605 10113 0
-10605 -10113 0
10607 10115 0
-10607 -10115 0
10609 10117 0
-10609 -10117 0
10121 10577 0
-10121 -10577 0
10120 10121 0
-10120 -10121 0
-10122 10123 0
-10122 10124 0
-10122 10125 0
10122 -10123 -10124 -10125 0
-10126 10127 0
-10126 10128 0
10126 -10127 -10128 0
-10129 10130 0
-10129 10131 0
10129 -10130 -10131 0
-10132 10133 0
-10132 10134 0
10132 -10133 -10134 0
-10135 10136 0
-10135 10137 0
10135 -10136 -10137 0
-10138 10139 0
-10138 10140 0
10138 -10139 -10140 0
-10141 10142 0
-10141 10143 0
10141 -10142 -10143 0
-10144 10145 0
-10144 10146 0
10144 -10145 -10146 0
-10462 10560 0
-10462 10301 0
10462 -10560 -10301 0
-10435 10560 0
-10435 10301 0
10435 -10560 -10301 0
-10443 10560 0
-10443 10301 0
10443 -10560 -10301 0
-10439 10560 0
-10439 10301 0
10439 -10560 -10301 0
-10463 10560 0
-10463 10360 0
-10463 10361 0
-10463 10389 0
10463 -10560 -10360 -10361 -10389 0
-10436 10560 0
-10436 10360 0
-10436 10244 0
-10436 10389 0
10436 -10560 -10360 -10244 -10389 0
-10445 10560 0
-10445 10294 0
-10445 10361 0
-10445 10389 0
10445 -10560 -10294 -10361 -10389 0
-10441 10560 0
-10441 10294 0
-10441 10244 0
-10441 10389 0
10441 -10560 -10294 -10244 -10389 0
-10179 10180 0
-10179 10181 0
10179 -10180 -10181 0
-10182 10183 0
-10182 10184 0
10182 -10183 -10184 0
-10185 10186 0
-10185 10187 0
10185 -10186 -10187 0
-10188 10189 0
-10188 10190 0
10188 -10189 -10190 0
-10191 10192 0
-10191 10193 0
10191 -10192 -10193 0
-10194 10195 0
-10194 10196 0
10194 -10195 -10196 0
-10197 10508 0
-10197 10199 0
10197 -10508 -10199 0
-10200 10201 0
-10200 10202 0
10200 -10201 -10202 0
-10203 10511 0
-10203 10205 0
10203 -10511 -10205 0
-10206 10207 0
-10206 10208 0
10206 -10207 -10208 0
-10209 10210 0
-10209 10211 0
10209 -10210 -10211 0
-10212 10213 0
-10212 10214 0
10212 -10213 -10214 0
-10215 10216 0
-10215 10217 0
10215 -10216 -10217 0
-10454 10510 0
-10454 10432 0
10454 -10510 -10432 0
-10481 10294 0
-10481 10244 0
-10481 10432 0
-10481 10389 0
10481 -10294 -10244 -10432 -10389 0
-10493 10384 0
-10493 10237 0
10493 -10384 -10237 0
-10494 10417 0
-10494 10237 0
10494 -10417 -10237 0
-10587 10384 0
-10587 10237 0
10587 -10384 -10237 0
-10235 10384 0
-10235 10237 0
10235 -10384 -10237 0
-10448 10513 0
-10448 10422 0
-10448 10423 0
10448 -10513 -10422 -10423 0
-10259 10360 0
-10259 10244 0
-10259 10422 0
10259 -10360 -10244 -10422 0
-10485 10384 0
-10485 10341 0
10485 -10384 -10341 0
-10486 10341 0
-10486 10421 0
10486 -10341 -10421 0
-10444 10384 0
-10444 10254 0
-10444 10415 0
10444 -10384 -10254 -10415 0
-10480 10423 0
-10480 10389 0
-10480 10259 0
10480 -10423 -10389 -10259 0
-10450 10268 0
-10450 10262 0
10450 -10268 -10262 0
-10447 10268 0
-10447 10423 0
10447 -10268 -10423 0
-10451 10267 0
-10451 10268 0
-10451 10423 0
10451 -10267 -10268 -10423 0
-10333 10384 0
-10333 10272 0
-10333 10419 0
10333 -10384 -10272 -10419 0
-10274 10275 0
-10274 10276 0
10274 -10275 -10276 0
-10277 10278 0
-10277 10279 0
10277 -10278 -10279 0
-10280 10538 0
-10280 10282 0
10280 -10538 -10282 0
-10283 10284 0
-10283 10285 0
10283 -10284 -10285 0
-10286 10287 0
-10286 10288 0
10286 -10287 -10288 0
-10457 10540 0
-10457 10427 0
-10457 10428 0
10457 -10540 -10427 -10428 0
-10315 10294 0
-10315 10361 0
-10315 10427 0
10315 -10294 -10361 -10427 0
-10393 10427 0
-10393 10428 0
-10393 10432 0
-10393 10301 0
10393 -10427 -10428 -10432 -10301 0
-10489 10384 0
-10489 10310 0
10489 -10384 -10310 0
-10490 10310 0
-10490 10426 0
10490 -10310 -10426 0
-10308 10384 0
-10308 10310 0
-10308 10415 0
10308 -10384 -10310 -10415 0
-10472 10428 0
-10472 10389 0
-10472 10315 0
10472 -10428 -10389 -10315 0
-10459 10324 0
-10459 10318 0
10459 -10324 -10318 0
-10456 10324 0
-10456 10428 0
10456 -10324 -10428 0
-10460 10323 0
-10460 10324 0
-10460 10428 0
10460 -10323 -10324 -10428 0
-10371 10419 0
-10371 10431 0
-10371 10415 0
10371 -10419 -10431 -10415 0
-10464 10431 0
-10464 10415 0
-10464 10333 0
10464 -10431 -10415 -10333 0
-10583 10384 0
-10583 10341 0
-10583 10431 0
-10583 10415 0
10583 -10384 -10341 -10431 -10415 0
-10339 10384 0
-10339 10341 0
-10339 10431 0
-10339 10415 0
10339 -10384 -10341 -10431 -10415 0
-10344 10345 0
-10344 10346 0
10344 -10345 -10346 0
-10347 10348 0
-10347 10349 0
10347 -10348 -10349 0
-10350 10559 0
-10350 10352 0
10350 -10559 -10352 0
-10353 10354 0
-10353 10355 0
10353 -10354 -10355 0
-10356 10357 0
-10356 10358 0
10356 -10357 -10358 0
-10390 10360 0
-10390 10361 0
-10390 10373 0
10390 -10360 -10361 -10373 0
-10475 10561 0
-10475 10373 0
-10475 10403 0
10475 -10561 -10373 -10403 0
-10468 10382 0
-10468 10373 0
-10468 10403 0
-10468 10371 0
10468 -10382 -10373 -10403 -10371 0
-10392 10373 0
-10392 10403 0
-10392 10422 0
-10392 10423 0
10392 -10373 -10403 -10422 -10423 0
-10466 10384 0
-10466 10385 0
10466 -10384 -10385 0
-10467 10385 0
-10467 10382 0
10467 -10385 -10382 0
-10407 10384 0
-10407 10385 0
-10407 10419 0
10407 -10384 -10385 -10419 0
-10471 10403 0
-10471 10389 0
-10471 10390 0
10471 -10403 -10389 -10390 0
-10482 10392 0
-10482 10393 0
10482 -10392 -10393 0
-10477 10402 0
-10477 10396 0
10477 -10402 -10396 0
-10474 10402 0
-10474 10403 0
10474 -10402 -10403 0
-10478 10401 0
-10478 10402 0
-10478 10403 0
10478 -10401 -10402 -10403 0
-10404 10431 0
-10404 10415 0
-10404 10407 0
10404 -10431 -10415 -10407 0
-10424 10418 0
-10424 10431 0
-10424 10415 0
10424 -10418 -10431 -10415 0
-10429 10418 0
-10429 10419 0
-10429 10415 0
10429 -10418 -10419 -10415 0
-10433 10417 0
-10433 10418 0
-10433 10419 0
10433 -10417 -10418 -10419 0
-10487 10421 0
-10487 10422 0
-10487 10423 0
-10487 10424 0
10487 -10421 -10422 -10423 -10424 0
-10491 10426 0
-10491 10427 0
-10491 10428 0
-10491 10429 0
10491 -10426 -10427 -10428 -10429 0
-10495 10431 0
-10495 10432 0
-10495 10433 0
10495 -10431 -10432 -10433 0
10497 -10435 0
10497 -10436 0
10497 -10437 0
-10497 10435 10436 10437 0
10500 -10439 0
10500 -10440 0
10500 -10441 0
-10500 10439 10440 10441 0
10515 -10443 0
10515 -10444 0
10515 -10445 0
-10515 10443 10444 10445 0
10518 -10447 0
10518 -10448 0
-10518 10447 10448 0
10521 -10450 0
10521 -10451 0
-10521 10450 10451 0
10524 -10453 0
10524 -10454 0
-10524 10453 10454 0
10542 -10456 0
10542 -10457 0
-10542 10456 10457 0
10545 -10459 0
10545 -10460 0
-10545 10459 10460 0
10548 -10462 0
10548 -10463 0
10548 -10464 0
-10548 10462 10463 10464 0
10465 -10466 0
10465 -10467 0
10465 -10468 0
-10465 10466 10467 10468 0
10483 -10470 0
10483 -10471 0
10483 -10472 0
-10483 10470 10471 10472 0
10563 -10474 0
10563 -10475 0
-10563 10474 10475 0
10566 -10477 0
10566 -10478 0
-10566 10477 10478 0
10569 -10480 0
10569 -10481 0
10569 -10482 0
10569 -10483 0
-10569 10480 10481 10482 10483 0
10484 -10485 0
10484 -10486 0
10484 -10487 0
-10484 10485 10486 10487 0
10488 -10489 0
10488 -10490 0
10488 -10491 0
-10488 10489 10490 10491 0
10492 -10493 0
10492 -10494 0
10492 -10495 0
-10492 10493 10494 10495 0
10503 10497 0
10503 10498 0
-10503 -10497 -10498 0
10506 10500 0
10506 10501 0
-10506 -10500 -10501 0
10502 10503 0
10502 10504 0
-10502 -10503 -10504 0
10505 10506 0
10505 10507 0
-10505 -10506 -10507 0
10508 10560 0
10508 10510 0
-10508 -10560 -10510 0
10511 10560 0
10511 10513 0
-10511 -10560 -10513 0
10527 10515 0
10527 10516 0
-10527 -10515 -10516 0
10530 10518 0
10530 10519 0
-10530 -10518 -10519 0
10533 10521 0
10533 10522 0
-10533 -10521 -10522 0
10536 10524 0
10536 10525 0
-10536 -10524 -10525 0
10526 10527 0
10526 10528 0
-10526 -10527 -10528 0
10597 10530 0
10597 10531 0
-10597 -10530 -10531 0
10595 10533 0
10595 10534 0
-10595 -10533 -10534 0
10589 10536 0
10589 10537 0
-10589 -10536 -10537 0
10538 10560 0
10538 10540 0
-10538 -10560 -10540 0
10551 10542 0
10551 10543 0
-10551 -10542 -10543 0
10554 10545 0
10554 10546 0
-10554 -10545 -10546 0
10557 10548 0
10557 10549 0
-10557 -10548 -10549 0
10593 10551 0
10593 10552 0
-10593 -10551 -10552 0
10591 10554 0
10591 10555 0
-10591 -10554 -10555 0
10556 10557 0
10556 10558 0
-10556 -10557 -10558 0
10559 10560 0
10559 10561 0
-10559 -10560 -10561 0
10572 10563 0
10572 10564 0
-10572 -10563 -10564 0
10575 10566 0
10575 10567 0
-10575 -10566 -10567 0
10578 10569 0
10578 10570 0
-10578 -10569 -10570 0
10601 10572 0
10601 10573 0
-10601 -10572 -10573 0
10599 10575 0
10599 10576 0
-10599 -10575 -10576 0
10577 10578 0
10577 10579 0
-10577 -10578 -10579 0
-10581 11242 0
10581 -11242 0
-10583 11407 0
10583 -11407 0
-10585 11224 0
10585 -11224 0
-10587 11410 0
10587 -11410 0
-10589 10683 0
10589 -10683 0
-10591 10691 0
10591 -10691 0
-10593 10647 0
10593 -10647 0
-10595 10651 0
10595 -10651 0
-10597 10655 0
10597 -10655 0
-10599 10663 0
10599 -10663 0
-10601 10671 0
10601 -10671 0
-10603 10679 0
10603 -10679 0
-10605 10687 0
10605 -10687 0
-10607 10695 0
10607 -10695 0
-10609 10699 0
10609 -10699 0
-10611 10703 0
10611 -10703 0
-10613 10659 0
10613 -10659 0
-10615 10667 0
10615 -10667 0
-10617 10675 0
10617 -10675 0
10707 10619 0
-10707 -10619 0
11354 10621 0
-11354 -10621 0
11530 10623 0
-11530 -10623 0
10709 10625 0
-10709 -10625 0
10711 10627 0
-10711 -10627 0
10713 10629 0
-10713 -10629 0
10715 10631 0
-10715 -10631 0
10717 10633 0
-10717 -10633 0
10719 10635 0
-10719 -10635 0
10721 10637 0
-10721 -10637 0
10723 10639 0
-10723 -10639 0
10725 10641 0
-10725 -10641 0
10642 10643 0
-10642 -10643 0
10644 10645 0
-10644 -10645 0
10649 10647 0
-10649 -10647 0
11249 10649 0
-11249 -10649 0
10653 10651 0
-10653 -10651 0
11101 10653 0
-11101 -10653 0
10657 10655 0
-10657 -10655 0
11172 10657 0
-11172 -10657 0
10661 10659 0
-10661 -10659 0
11110 10661 0
-11110 -10661 0
10665 10663 0
-10665 -10663 0
11104 10665 0
-11104 -10665 0
10669 10667 0
-10669 -10667 0
11113 10669 0
-11113 -10669 0
10673 10671 0
-10673 -10671 0
11319 10673 0
-11319 -10673 0
10677 10675 0
-10677 -10675 0
11116 10677 0
-11116 -10677 0
10681 10679 0
-10681 -10679 0
11322 10681 0
-11322 -10681 0
10685 10683 0
-10685 -10683 0
11166 10685 0
-11166 -10685 0
10689 10687 0
-10689 -10687 0
11175 10689 0
-11175 -10689 0
10693 10691 0
-10693 -10691 0
11098 10693 0
-11098 -10693 0
10697 10695 0
-10697 -10695 0
11252 10697 0
-11252 -10697 0
10701 10699 0
-10701 -10699 0
11169 10701 0
-11169 -10701 0
10705 10703 0
-10705 -10703 0
11107 10705 0
-11107 -10705 0
11387 10707 0
-11387 -10707 0
10739 10709 0
-10739 -10709 0
11391 10711 0
-11391 -10711 0
11396 10713 0
-11396 -10713 0
11352 10715 0
-11352 -10715 0
11264 10717 0
-11264 -10717 0
11214 10719 0
-11214 -10719 0
11093 10721 0
-11093 -10721 0
11094 10723 0
-11094 -10723 0
11095 10725 0
-11095 -10725 0
11097 10739 0
-11097 -10739 0
11100 10739 0
-11100 -10739 0
11103 10739 0
-11103 -10739 0
11106 10739 0
-11106 -10739 0
11109 10739 0
-11109 -10739 0
11112 10739 0
-11112 -10739 0
11115 10739 0
-11115 -10739 0
11330 11264 0
-11330 -11264 0
11331 11214 0
-11331 -11214 0
11271 11093 0
-11271 -11093 0
11440 11094 0
-11440 -11094 0
11359 11095 0
-11359 -11095 0
10793 11092 0
-10793 -11092 0
10755 11096 0
-10755 -11096 0
10795 10755 0
-10795 -10755 0
10759 11096 0
-10759 -11096 0
11150 10759 0
-11150 -10759 0
10763 11099 0
-10763 -11099 0
10799 10763 0
-10799 -10763 0
10767 11099 0
-10767 -11099 0
11153 10767 0
-11153 -10767 0
10771 11102 0
-10771 -11102 0
10803 10771 0
-10803 -10771 0
10775 11102 0
-10775 -11102 0
11156 10775 0
-11156 -10775 0
10779 11105 0
-10779 -11105 0
10778 10779 0
-10778 -10779 0
10783 11108 0
-10783 -11108 0
10782 10783 0
-10782 -10783 0
10787 11111 0
-10787 -11111 0
10786 10787 0
-10786 -10787 0
10791 11114 0
-10791 -11114 0
10790 10791 0
-10790 -10791 0
10807 10793 0
-10807 -10793 0
10797 10795 0
-10797 -10795 0
11398 10797 0
-11398 -10797 0
10801 10799 0
-10801 -10799 0
11393 10801 0
-11393 -10801 0
10805 10803 0
-10805 -10803 0
11373 10805 0
-11373 -10805 0
10809 10807 0
-10809 -10807 0
10808 10809 0
-10808 -10809 0
11468 11467 0
-11468 -11467 0
11471 11470 0
-11471 -11470 0
11288 11398 0
-11288 -11398 0
11232 11393 0
-11232 -11393 0
11366 11373 0
-11366 -11373 0
11474 11468 0
-11474 -11468 0
11477 11471 0
-11477 -11471 0
10827 11472 0
-10827 -11472 0
11159 10827 0
-11159 -10827 0
10831 11475 0
-10831 -11475 0
11162 10831 0
-11162 -10831 0
10837 11158 0
-10837 -11158 0
10839 11161 0
-10839 -11161 0
10841 10837 0
-10841 -10837 0
10845 10839 0
-10845 -10839 0
10843 10841 0
-10843 -10841 0
10849 10843 0
-10849 -10843 0
10847 10845 0
-10847 -10845 0
10853 10847 0
-10853 -10847 0
10851 10849 0
-10851 -10849 0
11237 10851 0
-11237 -10851 0
11480 10853 0
-11480 -10853 0
11483 11237 0
-11483 -11237 0
11165 11480 0
-11165 -11480 0
11171 11483 0
-11171 -11483 0
10863 11164 0
-10863 -11164 0
10893 10863 0
-10893 -10863 0
10867 11164 0
-10867 -11164 0
11177 10867 0
-11177 -10867 0
10871 11167 0
-10871 -11167 0
10897 10871 0
-10897 -10871 0
10875 11167 0
-10875 -11167 0
11180 10875 0
-11180 -10875 0
10879 11170 0
-10879 -11170 0
10901 10879 0
-10901 -10879 0
10883 11170 0
-10883 -11170 0
11183 10883 0
-11183 -10883 0
10887 11173 0
-10887 -11173 0
10905 10887 0
-10905 -10887 0
10891 11173 0
-10891 -11173 0
11186 10891 0
-11186 -10891 0
10895 10893 0
-10895 -10893 0
11402 10895 0
-11402 -10895 0
10899 10897 0
-10899 -10897 0
11207 10899 0
-11207 -10899 0
10903 10901 0
-10903 -10901 0
11392 10903 0
-11392 -10903 0
10907 10905 0
-10907 -10905 0
11311 10907 0
-11311 -10907 0
10917 11402 0
-10917 -11402 0
11385 11207 0
-11385 -11207 0
11238 11392 0
-11238 -11392 0
11389 11311 0
-11389 -11311 0
10921 10917 0
-10921 -10917 0
10923 11205 0
-10923 -11205 0
11423 10921 0
-11423 -10921 0
11587 10923 0
-11587 -10923 0
11486 11485 0
-11486 -11485 0
11489 11488 0
-11489 -11488 0
11492 11491 0
-11492 -11491 0
11495 11494 0
-11495 -11494 0
11498 11486 0
-11498 -11486 0
11501 11489 0
-11501 -11489 0
11504 11492 0
-11504 -11492 0
11507 11495 0
-11507 -11495 0
10943 11496 0
-10943 -11496 0
11245 10943 0
-11245 -10943 0
10947 11244 0
-10947 -11244 0
10949 10947 0
-10949 -10947 0
10951 10949 0
-10951 -10949 0
10953 10951 0
-10953 -10951 0
10955 10953 0
-10955 -10953 0
11293 10955 0
-11293 -10955 0
11510 11293 0
-11510 -11293 0
11248 11510 0
-11248 -11510 0
10963 11247 0
-10963 -11247 0
10977 10963 0
-10977 -10963 0
10967 11247 0
-10967 -11247 0
11254 10967 0
-11254 -10967 0
10971 11250 0
-10971 -11250 0
11280 10971 0
-11280 -10971 0
10975 11250 0
-10975 -11250 0
11257 10975 0
-11257 -10975 0
10979 10977 0
-10979 -10977 0
11397 10979 0
-11397 -10979 0
10983 11280 0
-10983 -11280 0
11555 10983 0
-11555 -10983 0
11294 11397 0
-11294 -11397 0
11401 11280 0
-11401 -11280 0
10991 11278 0
-10991 -11278 0
11585 10991 0
-11585 -10991 0
11001 11309 0
-11001 -11309 0
11513 11512 0
-11513 -11512 0
11516 11515 0
-11516 -11515 0
11519 11518 0
-11519 -11518 0
11583 11001 0
-11583 -11001 0
11522 11513 0
-11522 -11513 0
11525 11516 0
-11525 -11516 0
11528 11519 0
-11528 -11519 0
11011 11526 0
-11011 -11526 0
11315 11011 0
-11315 -11011 0
11015 11314 0
-11015 -11314 0
11017 11015 0
-11017 -11015 0
11019 11017 0
-11019 -11017 0
11021 11019 0
-11021 -11019 0
11023 11021 0
-11023 -11021 0
11371 11023 0
-11371 -11023 0
11531 11371 0
-11531 -11371 0
11318 11531 0
-11318 -11531 0
11031 11317 0
-11031 -11317 0
11045 11031 0
-11045 -11031 0
11035 11317 0
-11035 -11317 0
11324 11035 0
-11324 -11035 0
11039 11320 0
-11039 -11320 0
11355 11039 0
-11355 -11039 0
11043 11320 0
-11043 -11320 0
11327 11043 0
-11327 -11043 0
11047 11045 0
-11047 -11045 0
11343 11047 0
-11343 -11047 0
11051 11355 0
-11051 -11355 0
11551 11051 0
-11551 -11051 0
11372 11343 0
-11372 -11343 0
11388 11355 0
-11388 -11355 0
11065 11435 0
-11065 -11435 0
11067 11374 0
-11067 -11374 0
11534 11533 0
-11534 -11533 0
11537 11536 0
-11537 -11536 0
11573 11065 0
-11573 -11065 0
11581 11067 0
-11581 -11067 0
11540 11539 0
-11540 -11539 0
11543 11534 0
-11543 -11534 0
11546 11537 0
-11546 -11537 0
11083 11454 0
-11083 -11454 0
11085 11458 0
-11085 -11458 0
11087 11462 0
-11087 -11462 0
11549 11540 0
-11549 -11540 0
11575 11083 0
-11575 -11083 0
11577 11085 0
-11577 -11085 0
11579 11087 0
-11579 -11087 0
11091 11547 0
-11091 -11547 0
11090 11091 0
-11090 -11091 0
-11092 11093 0
-11092 11094 0
-11092 11095 0
11092 -11093 -11094 -11095 0
-11096 11097 0
-11096 11098 0
11096 -11097 -11098 0
-11099 11100 0
-11099 11101 0
11099 -11100 -11101 0
-11102 11103 0
-11102 11104 0
11102 -11103 -11104 0
-11105 11106 0
-11105 11107 0
11105 -11106 -11107 0
-11108 11109 0
-11108 11110 0
11108 -11109 -11110 0
-11111 11112 0
-11111 11113 0
11111 -11112 -11113 0
-11114 11115 0
-11114 11116 0
11114 -11115 -11116 0
-11432 11530 0
-11432 11271 0
11432 -11530 -11271 0
-11405 11530 0
-11405 11271 0
11405 -11530 -11271 0
-11413 11530 0
-11413 11271 0
11413 -11530 -11271 0
-11409 11530 0
-11409 11271 0
11409 -11530 -11271 0
-11433 11530 0
-11433 11330 0
-11433 11331 0
-11433 11359 0
11433 -11530 -11330 -11331 -11359 0
-11406 11530 0
-11406 11330 0
-11406 11214 0
-11406 11359 0
11406 -11530 -11330 -11214 -11359 0
-11415 11530 0
-11415 11264 0
-11415 11331 0
-11415 11359 0
11415 -11530 -11264 -11331 -11359 0
-11411 11530 0
-11411 11264 0
-11411 11214 0
-11411 11359 0
11411 -11530 -11264 -11214 -11359 0
-11149 11150 0
-11149 11151 0
11149 -11150 -11151 0
-11152 11153 0
-11152 11154 0
11152 -11153 -11154 0
-11155 11156 0
-11155 11157 0
11155 -11156 -11157 0
-11158 11159 0
-11158 11160 0
11158 -11159 -11160 0
-11161 11162 0
-11161 11163 0
11161 -11162 -11163 0
-11164 11165 0
-11164 11166 0
11164 -11165 -11166 0
-11167 11478 0
-11167 11169 0
11167 -11478 -11169 0
-11170 11171 0
-11170 11172 0
11170 -11171 -11172 0
-11173 11481 0
-11173 11175 0
11173 -11481 -11175 0
-11176 11177 0
-11176 11178 0
11176 -11177 -11178 0
-11179 11180 0
-11179 11181 0
11179 -11180 -11181 0
-11182 11183 0
-11182 11184 0
11182 -11183 -11184 0
-11185 11186 0
-11185 11187 0
11185 -11186 -11187 0
-11424 11480 0
-11424 11402 0
11424 -11480 -11402 0
-11451 11264 0
-11451 11214 0
-11451 11402 0
-11451 11359 0
11451 -11264 -11214 -11402 -11359 0
-11463 11354 0
-11463 11207 0
11463 -11354 -11207 0
-11464 11387 0
-11464 11207 0
11464 -11387 -11207 0
-11557 11354 0
-11557 11207 0
11557 -11354 -11207 0
-11205 11354 0
-11205 11207 0
11205 -11354 -11207 0
-11418 11483 0
-11418 11392 0
-11418 11393 0
11418 -11483 -11392 -11393 0
-11229 11330 0
-11229 11214 0
-11229 11392 0
11229 -11330 -11214 -11392 0
-11455 11354 0
-11455 11311 0
11455 -11354 -11311 0
-11456 11311 0
-11456 11391 0
11456 -11311 -11391 0
-11414 11354 0
-11414 11224 0
-11414 11385 0
11414 -11354 -11224 -11385 0
-11450 11393 0
-11450 11359 0
-11450 11229 0
11450 -11393 -11359 -11229 0
-11420 11238 0
-11420 11232 0
11420 -11238 -11232 0
-11417 11238 0
-11417 11393 0
11417 -11238 -11393 0
-11421 11237 0
-11421 11238 0
-11421 11393 0
11421 -11237 -11238 -11393 0
-11303 11354 0
-11303 11242 0
-11303 11389 0
11303 -11354 -11242 -11389 0
-11244 11245 0
-11244 11246 0
11244 -11245 -11246 0
-11247 11248 0
-11247 11249 0
11247 -11248 -11249 0
-11250 11508 0
-11250 11252 0
11250 -11508 -11252 0
-11253 11254 0
-11253 11255 0
11253 -11254 -11255 0
-11256 11257 0
-11256 11258 0
11256 -11257 -11258 0
-11427 11510 0
-11427 11397 0
-11427 11398 0
11427 -11510 -11397 -11398 0
-11285 11264 0
-11285 11331 0
-11285 11397 0
11285 -11264 -11331 -11397 0
-11363 11397 0
-11363 11398 0
-11363 11402 0
-11363 11271 0
11363 -11397 -11398 -11402 -11271 0
-11459 11354 0
-11459 11280 0
11459 -11354 -11280 0
-11460 11280 0
-11460 11396 0
11460 -11280 -11396 0
-11278 11354 0
-11278 11280 0
-11278 11385 0
11278 -11354 -11280 -11385 0
-11442 11398 0
-11442 11359 0
-11442 11285 0
11442 -11398 -11359 -11285 0
-11429 11294 0
-11429 11288 0
11429 -11294 -11288 0
-11426 11294 0
-11426 11398 0
11426 -11294 -11398 0
-11430 11293 0
-11430 11294 0
-11430 11398 0
11430 -11293 -11294 -11398 0
-11341 11389 0
-11341 11401 0
-11341 11385 0
11341 -11389 -11401 -11385 0
-11434 11401 0
-11434 11385 0
-11434 11303 0
11434 -11401 -11385 -11303 0
-11553 11354 0
-11553 11311 0
-11553 11401 0
-11553 11385 0
11553 -11354 -11311 -11401 -11385 0
-11309 11354 0
-11309 11311 0
-11309 11401 0
-11309 11385 0
11309 -11354 -11311 -11401 -11385 0
-11314 11315 0
-11314 11316 0
11314 -11315 -11316 0
-11317 11318 0
-11317 11319 0
11317 -11318 -11319 0
-11320 11529 0
-11320 11322 0
11320 -11529 -11322 0
-11323 11324 0
-11323 11325 0
11323 -11324 -11325 0
-11326 11327 0
-11326 11328 0
11326 -11327 -11328 0
-11360 11330 0
-11360 11331 0
-11360 11343 0
11360 -11330 -11331 -11343 0
-11445 11531 0
-11445 11343 0
-11445 11373 0
11445 -11531 -11343 -11373 0
-11438 11352 0
-11438 11343 0
-11438 11373 0
-11438 11341 0
11438 -11352 -11343 -11373 -11341 0
-11362 11343 0
-11362 11373 0
-11362 11392 0
-11362 11393 0
11362 -11343 -11373 -11392 -11393 0
-11436 11354 0
-11436 11355 0
11436 -11354 -11355 0
-11437 11355 0
-11437 11352 0
11437 -11355 -11352 0
-11377 11354 0
-11377 11355 0
-11377 11389 0
11377 -11354 -11355 -11389 0
-11441 11373 0
-11441 11359 0
-11441 11360 0
11441 -11373 -11359 -11360 0
-11452 11362 0
-11452 11363 0
11452 -11362 -11363 0
-11447 11372 0
-11447 11366 0
11447 -11372 -11366 0
-11444 11372 0
-11444 11373 0
11444 -11372 -11373 0
-11448 11371 0
-11448 11372 0
-11448 11373 0
11448 -11371 -11372 -11373 0
-11374 11401 0
-11374 11385 0
-11374 11377 0
11374 -11401 -11385 -11377 0
-11394 11388 0
-11394 11401 0
-11394 11385 0
11394 -11388 -11401 -11385 0
-11399 11388 0
-11399 11389 0
-11399 11385 0
11399 -11388 -11389 -11385 0
-11403 11387 0
-11403 11388 0
-11403 11389 0
11403 -11387 -11388 -11389 0
-11457 11391 0
-11457 11392 0
-11457 11393 0
-11457 11394 0
11457 -11391 -11392 -11393 -11394 0
-11461 11396 0
-11461 11397 0
-11461 11398 0
-11461 11399 0
11461 -11396 -11397 -11398 -11399 0
-11465 11401 0
-11465 11402 0
-11465 11403 0
11465 -11401 -11402 -11403 0
11467 -11405 0
11467 -11406 0
11467 -11407 0
-11467 11405 11406 11407 0
11470 -11409 0
11470 -11410 0
11470 -11411 0
-11470 11409 11410 11411 0
11485 -11413 0
11485 -11414 0
11485 -11415 0
-11485 11413 11414 11415 0
11488 -11417 0
11488 -11418 0
-11488 11417 11418 0
11491 -11420 0
11491 -11421 0
-11491 11420 11421 0
11494 -11423 0
11494 -11424 0
-11494 11423 11424 0
11512 -11426 0
11512 -11427 0
-11512 11426 11427 0
11515 -11429 0
11515 -11430 0
-11515 11429 11430 0
11518 -11432 0
11518 -11433 0
11518 -11434 0
-11518 11432 11433 11434 0
11435 -11436 0
11435 -11437 0
11435 -11438 0
-11435 11436 11437 11438 0
11453 -11440 0
11453 -11441 0
11453 -11442 0
-11453 11440 11441 11442 0
11533 -11444 0
11533 -11445 0
-11533 11444 11445 0
11536 -11447 0
11536 -11448 0
-11536 11447 11448 0
11539 -11450 0
11539 -11451 0
11539 -11452 0
11539 -11453 0
-11539 11450 11451 11452 11453 0
11454 -11455 0
11454 -11456 0
11454 -11457 0
-11454 11455 11456 11457 0
11458 -11459 0
11458 -11460 0
11458 -11461 0
-11458 11459 11460 11461 0
11462 -11463 0
11462 -11464 0
11462 -11465 0
-11462 11463 11464 11465 0
11473 11467 0
11473 11468 0
-11473 -11467 -11468 0
11476 11470 0
11476 11471 0
-11476 -11470 -11471 0
11472 11473 0
11472 11474 0
-11472 -11473 -11474 0
11475 11476 0
11475 11477 0
-11475 -11476 -11477 0
11478 11530 0
11478 11480 0
-11478 -11530 -11480 0
11481 11530 0
11481 11483 0
-11481 -11530 -11483 0
11497 11485 0
11497 11486 0
-11497 -11485 -11486 0
11500 11488 0
11500 11489 0
-11500 -11488 -11489 0
11503 11491 0
11503 11492 0
-11503 -11491 -11492 0
11506 11494 0
11506 11495 0
-11506 -11494 -11495 0
11496 11497 0
11496 11498 0
-11496 -11497 -11498 0
11567 11500 0
11567 11501 0
-11567 -11500 -11501 0
11565 11503 0
11565 11504 0
-11565 -11503 -11504 0
11559 11506 0
11559 11507 0
-11559 -11506 -11507 0
11508 11530 0
11508 11510 0
-11508 -11530 -11510 0
11521 11512 0
11521 11513 0
-11521 -11512 -11513 0
11524 11515 0
11524 11516 0
-11524 -11515 -11516 0
11527 11518 0
11527 11519 0
-11527 -11518 -11519 0
11563 11521 0
11563 11522 0
-11563 -11521 -11522 0
11561 11524 0
11561 11525 0
-11561 -11524 -11525 0
11526 11527 0
11526 11528 0
-11526 -11527 -11528 0
11529 11530 0
11529 11531 0
-11529 -11530 -11531 0
11542 11533 0
11542 11534 0
-11542 -11533 -11534 0
11545 11536 0
11545 11537 0
-11545 -11536 -11537 0
11548 11539 0
11548 11540 0
-11548 -11539 -11540 0
11571 11542 0
11571 11543 0
-11571 -11542 -11543 0
11569 11545 0
11569 11546 0
-11569 -11545 -11546 0
11547 11548 0
11547 11549 0
-11547 -11548 -11549 0
-11551 12212 0
11551 -12212 0
-11553 12377 0
11553 -12377 0
-11555 12194 0
11555 -12194 0
-11557 12380 0
11557 -12380 0
-11559 11653 0
11559 -11653 0
-11561 11661 0
11561 -11661 0
-11563 11617 0
11563 -11617 0
-11565 11621 0
11565 -11621 0
-11567 11625 0
11567 -11625 0
-11569 11633 0
11569 -11633 0
-11571 11641 0
11571 -11641 0
-11573 11649 0
11573 -11649 0
-11575 11657 0
11575 -11657 0
-11577 11665 0
11577 -11665 0
-11579 11669 0
11579 -11669 0
-11581 11673 0
11581 -11673 0
-11583 11629 0
11583 -11629 0
-11585 11637 0
11585 -11637 0
-11587 11645 0
11587 -11645 0
11677 11589 0
-11677 -11589 0
12324 11591 0
-12324 -11591 0
12500 11593 0
-12500 -11593 0
11679 11595 0
-11679 -11595 0
11681 11597 0
-11681 -11597 0
11683 11599 0
-11683 -11599 0
11685 11601 0
-11685 -11601 0
11687 11603 0
-11687 -11603 0
11689 11605 0
-11689 -11605 0
11691 11607 0
-11691 -11607 0
11693 11609 0
-11693 -11609 0
11695 11611 0
-11695 -11611 0
11612 11613 0
-11612 -11613 0
11614 11615 0
-11614 -11615 0
11619 11617 0
-11619 -11617 0
12219 11619 0
-12219 -11619 0
11623 11621 0
-11623 -11621 0
12071 11623 0
-12071 -11623 0
11627 11625 0
-11627 -11625 0
12142 11627 0
-12142 -11627 0
11631 11629 0
-11631 -11629 0
12080 11631 0
-12080 -11631 0
11635 11633 0
-11635 -11633 0
12074 11635 0
-12074 -11635 0
11639 11637 0
-11639 -11637 0
12083 11639 0
-12083 -11639 0
11643 11641 0
-11643 -11641 0
12289 11643 0
-12289 -11643 0
11647 11645 0
-11647 -11645 0
12086 11647 0
-12086 -11647 0
11651 11649 0
-11651 -11649 0
12292 11651 0
-12292 -11651 0
11655 11653 0
-11655 -11653 0
12136 11655 0
-12136 -11655 0
11659 11657 0
-11659 -11657 0
12145 11659 0
-12145 -11659 0
11663 11661 0
-11663 -11661 0
12068 11663 0
-12068 -11663 0
11667 11665 0
-11667 -11665 0
12222 11667 0
-12222 -11667 0
11671 11669 0
-11671 -11669 0
12139 11671 0
-12139 -11671 0
11675 11673 0
-11675 -11673 0
12077 11675 0
-12077 -11675 0
12357 11677 0
-12357 -11677 0
11709 11679 0
-11709 -11679 0
12361 11681 0
-12361 -11681 0
12366 11683 0
-12366 -11683 0
12322 11685 0
-12322 -11685 0
12234 11687 0
-12234 -11687 0
12184 11689 0
-12184 -11689 0
12063 11691 0
-12063 -11691 0
12064 11693 0
-12064 -11693 0
12065 11695 0
-12065 -11695 0
12067 11709 0
-12067 -11709 0
12070 11709 0
-12070 -11709 0
12073 11709 0
-12073 -11709 0
12076 11709 0
-12076 -11709 0
12079 11709 0
-12079 -11709 0
12082 11709 0
-12082 -11709 0
12085 11709 0
-12085 -11709 0
12300 12234 0
-12300 -12234 0
12301 12184 0
-12301 -12184 0
12241 12063 0
-12241 -12063 0
12410 12064 0
-12410 -12064 0
12329 12065 0
-12329 -12065 0
11763 12062 0
-11763 -12062 0
11725 12066 0
-11725 -12066 0
11765 11725 0
-11765 -11725 0
11729 12066 0
-11729 -12066 0
12120 11729 0
-12120 -11729 0
11733 12069 0
-11733 -12069 0
11769 11733 0
-11769 -11733 0
11737 12069 0
-11737 -12069 0
12123 11737 0
-12123 -11737 0
11741 12072 0
-11741 -12072 0
11773 11741 0
-11773 -11741 0
11745 12072 0
-11745 -12072 0
12126 11745 0
-12126 -11745 0
11749 12075 0
-11749 -12075 0
11748 11749 0
-11748 -11749 0
11753 12078 0
-11753 -12078 0
11752 11753 0
-11752 -11753 0
11757 12081 0
-11757 -12081 0
11756 11757 0
-11756 -11757 0
11761 12084 0
-11761 -12084 0
11760 11761 0
-11760 -11761 0
11777 11763 0
-11777 -11763 0
11767 11765 0
-11767 -11765 0
12368 11767 0
-12368 -11767 0
11771 11769 0
-11771 -11769 0
12363 11771 0
-12363 -11771 0
11775 11773 0
-11775 -11773 0
12343 11775 0
-12343 -11775 0
11779 11777 0
-11779 -11777 0
11778 11779 0
-11778 -11779 0
12438 12437 0
-12438 -12437 0
12441 12440 0
-12441 -12440 0
12258 12368 0
-12258 -12368 0
12202 12363 0
-12202 -12363 0
12336 12343 0
-12336 -12343 0
12444 12438 0
-12444 -12438 0
12447 12441 0
-12447 -12441 0
11797 12442 0
-11797 -12442 0
12129 11797 0
-12129 -11797 0
11801 12445 0
-11801 -12445 0
12132 11801 0
-12132 -11801 0
11807 12128 0
-11807 -12128 0
11809 12131 0
-11809 -12131 0
11811 11807 0
-11811 -11807 0
11815 11809 0
-11815 -11809 0
11813 11811 0
-11813 -11811 0
11819 11813 0
-11819 -11813 0
11817 11815 0
-11817 -11815 0
11823 11817 0
-11823 -11817 0
11821 11819 0
-11821 -11819 0
12207 11821 0
-12207 -11821 0
12450 11823 0
-12450 -11823 0
12453 12207 0
-12453 -12207 0
12135 12450 0
-12135 -12450 0
12141 12453 0
-12141 -12453 0
11833 12134 0
-11833 -12134 0
11863 11833 0
-11863 -11833 0
11837 12134 0
-11837 -12134 0
12147 11837 0
-12147 -11837 0
11841 12137 0
-11841 -12137 0
11867 11841 0
-11867 -11841 0
11845 12137 0
-11845 -12137 0
12150 11845 0
-12150 -11845 0
11849 12140 0
-11849 -12140 0
11871 11849 0
-11871 -11849 0
11853 12140 0
-11853 -12140 0
12153 11853 0
-12153 -11853 0
11857 12143 0
-11857 -12143 0
11875 11857 0
-11875 -11857 0
11861 12143 0
-11861 -12143 0
12156 11861 0
-12156 -11861 0
11865 11863 0
-11865 -11863 0
12372 11865 0
-12372 -11865 0
11869 11867 0
-11869 -11867 0
12177 11869 0
-12177 -11869 0
11873 11871 0
-11873 -11871 0
12362 11873 0
-12362 -11873 0
11877 11875 0
-11877 -11875 0
12281 11877 0
-12281 -11877 0
11887 12372 0
-11887 -12372 0
12355 12177 0
-12355 -12177 0
12208 12362 0
-12208 -12362 0
12359 12281 0
-12359 -12281 0
11891 11887 0
-11891 -11887 0
11893 12175 0
-11893 -12175 0
12393 11891 0
-12393 -11891 0
12557 11893 0
-12557 -11893 0
12456 12455 0
-12456 -12455 0
12459 12458 0
-12459 -12458 0
12462 12461 0
-12462 -12461 0
12465 12464 0
-12465 -12464 0
12468 12456 0
-12468 -12456 0
12471 12459 0
-12471 -12459 0
12474 12462 0
-12474 -12462 0
12477 12465 0
-12477 -12465 0
11913 12466 0
-11913 -12466 0
12215 11913 0
-12215 -11913 0
11917 12214 0
-11917 -12214 0
11919 11917 0
-11919 -11917 0
11921 11919 0
-11921 -11919 0
11923 11921 0
-11923 -11921 0
11925 11923 0
-11925 -11923 0
12263 11925 0
-12263 -11925 0
12480 12263 0
-12480 -12263 0
12218 12480 0
-12218 -12480 0
11933 12217 0
-11933 -12217 0
11947 11933 0
-11947 -11933 0
11937 12217 0
-11937 -12217 0
12224 11937 0
-12224 -11937 0
11941 12220 0
-11941 -12220 0
12250 11941 0
-12250 -11941 0
11945 12220 0
-11945 -12220 0
12227 11945 0
-12227 -11945 0
11949 11947 0
-11949 -11947 0
12367 11949 0
-12367 -11949 0
11953 12250 0
-11953 -12250 0
12525 11953 0
-12525 -11953 0
12264 12367 0
-12264 -12367 0
12371 12250 0
-12371 -12250 0
11961 12248 0
-11961 -12248 0
12555 11961 0
-12555 -11961 0
11971 12279 0
-11971 -12279 0
12483 12482 0
-12483 -12482 0
12486 12485 0
-12486 -12485 0
12489 12488 0
-12489 -12488 0
12553 11971 0
-12553 -11971 0
12492 12483 0
-12492 -12483 0
12495 12486 0
-12495 -12486 0
12498 12489 0
-12498 -12489 0
11981 12496 0
-11981 -12496 0
12285 11981 0
-12285 -11981 0
11985 12284 0
-11985 -12284 0
11987 11985 0
-11987 -11985 0
11989 11987 0
-11989 -11987 0
11991 11989 0
-11991 -11989 0
11993 11991 0
-11993 -11991 0
12341 11993 0
-12341 -11993 0
12501 12341 0
-12501 -12341 0
12288 12501 0
-12288 -12501 0
12001 12287 0
-12001 -12287 0
12015 12001 0
-12015 -12001 0
12005 12287 0
-12005 -12287 0
12294 12005 0
-12294 -12005 0
12009 12290 0
-12009 -12290 0
12325 12009 0
-12325 -12009 0
12013 12290 0
-12013 -12290 0
12297 12013 0
-12297 -12013 0
12017 12015 0
-12017 -12015 0
12313 12017 0
-12313 -12017 0
12021 12325 0
-12021 -12325 0
12521 12021 0
-12521 -12021 0
12342 12313 0
-12342 -12313 0
12358 12325 0
-12358 -12325 0
12035 12405 0
-12035 -12405 0
12037 12344 0
-12037 -12344 0
12504 12503 0
-12504 -12503 0
12507 12506 0
-12507 -12506 0
12543 12035 0
-12543 -12035 0
12551 12037 0
-12551 -12037 0
12510 12509 0
-12510 -12509 0
12513 12504 0
-12513 -12504 0
12516 12507 0
-12516 -12507 0
12053 12424 0
-12053 -12424 0
12055 12428 0
-12055 -12428 0
12057 12432 0
-12057 -12432 0
12519 12510 0
-12519 -12510 0
12545 12053 0
-12545 -12053 0
12547 12055 0
-12547 -12055 0
12549 12057 0
-12549 -12057 0
12061 12517 0
-12061 -12517 0
12060 12061 0
-12060 -12061 0
-12062 12063 0
-12062 12064 0
-12062 12065 0
12062 -12063 -12064 -12065 0
-12066 12067 0
-12066 12068 0
12066 -12067 -12068 0
-12069 12070 0
-12069 12071 0
12069 -12070 -12071 0
-12072 12073 0
-12072 12074 0
12072 -12073 -12074 0
-12075 12076 0
-12075 12077 0
12075 -12076 -12077 0
-12078 12079 0
-12078 12080 0
12078 -12079 -12080 0
-12081 12082 0
-12081 12083 0
12081 -12082 -12083 0
-12084 12085 0
-12084 12086 0
12084 -12085 -12086 0
-12402 12500 0
-12402 12241 0
12402 -12500 -12241 0
-12375 12500 0
-12375 12241 0
12375 -12500 -12241 0
-12383 12500 0
-12383 12241 0
12383 -12500 -12241 0
-12379 12500 0
-12379 12241 0
12379 -12500 -12241 0
-12403 12500 0
-12403 12300 0
-12403 12301 0
-12403 12329 0
12403 -12500 -12300 -12301 -12329 0
-12376 12500 0
-12376 12300 0
-12376 12184 0
-12376 12329 0
12376 -12500 -12300 -12184 -12329 0
-12385 12500 0
-12385 12234 0
-12385 12301 0
-12385 12329 0
12385 -12500 -12234 -12301 -12329 0
-12381 12500 0
-12381 12234 0
-12381 12184 0
-12381 12329 0
12381 -12500 -12234 -12184 -12329 0
-12119 12120 0
-12119 12121 0
12119 -12120 -12121 0
-12122 12123 0
-12122 12124 0
12122 -12123 -12124 0
-12125 12126 0
-12125 12127 0
12125 -12126 -12127 0
-12128 12129 0
-12128 12130 0
12128 -12129 -12130 0
-12131 12132 0
-12131 12133 0
12131 -12132 -12133 0
-12134 12135 0
-12134 12136 0
12134 -12135 -12136 0
-12137 12448 0
-12137 12139 0
12137 -12448 -12139 0
-12140 12141 0
-12140 12142 0
12140 -12141 -12142 0
-12143 12451 0
-12143 12145 0
12143 -12451 -12145 0
-12146 12147 0
-12146 12148 0
12146 -12147 -12148 0
-12149 12150 0
-12149 12151 0
12149 -12150 -12151 0
-12152 12153 0
-12152 12154 0
12152 -12153 -12154 0
-12155 12156 0
-12155 12157 0
12155 -12156 -12157 0
-12394 12450 0
-12394 12372 0
12394 -12450 -12372 0
-12421 12234 0
-12421 12184 0
-12421 12372 0
-12421 12329 0
12421 -12234 -12184 -12372 -12329 0
-12433 12324 0
-12433 12177 0
12433 -12324 -12177 0
-12434 12357 0
-12434 12177 0
12434 -12357 -12177 0
-12527 12324 0
-12527 12177 0
12527 -12324 -12177 0
-12175 12324 0
-12175 12177 0
12175 -12324 -12177 0
-12388 12453 0
-12388 12362 0
-12388 12363 0
12388 -12453 -12362 -12363 0
-12199 12300 0
-12199 12184 0
-12199 12362 0
12199 -12300 -12184 -12362 0
-12425 12324 0
-12425 12281 0
12425 -12324 -12281 0
-12426 12281 0
-12426 12361 0
12426 -12281 -12361 0
-12384 12324 0
-12384 12194 0
-12384 12355 0
12384 -12324 -12194 -12355 0
-12420 12363 0
-12420 12329 0
-12420 12199 0
12420 -12363 -12329 -12199 0
-12390 12208 0
-12390 12202 0
12390 -12208 -12202 0
-12387 12208 0
-12387 12363 0
12387 -12208 -12363 0
-12391 12207 0
-12391 12208 0
-12391 12363 0
12391 -12207 -12208 -12363 0
-12273 12324 0
-12273 12212 0
-12273 12359 0
12273 -12324 -12212 -12359 0
-12214 12215 0
-12214 12216 0
12214 -12215 -12216 0
-12217 12218 0
-12217 12219 0
12217 -12218 -12219 0
-12220 12478 0
-12220 12222 0
12220 -12478 -12222 0
-12223 12224 0
-12223 12225 0
12223 -12224 -12225 0
-12226 12227 0
-12226 12228 0
12226 -12227 -12228 0
-12397 12480 0
-12397 12367 0
-12397 12368 0
12397 -12480 -12367 -12368 0
-12255 12234 0
-12255 12301 0
-12255 12367 0
12255 -12234 -12301 -12367 0
-12333 12367 0
-12333 12368 0
-12333 12372 0
-12333 12241 0
12333 -12367 -12368 -12372 -12241 0
-12429 12324 0
-12429 12250 0
12429 -12324 -12250 0
-12430 12250 0
-12430 12366 0
12430 -12250 -12366 0
-12248 12324 0
-12248 12250 0
-12248 12355 0
12248 -12324 -12250 -12355 0
-12412 12368 0
-12412 12329 0
-12412 12255 0
12412 -12368 -12329 -12255 0
-12399 12264 0
-12399 12258 0
12399 -12264 -12258 0
-12396 12264 0
-12396 12368 0
12396 -12264 -12368 0
-12400 12263 0
-12400 12264 0
-12400 12368 0
12400 -12263 -12264 -12368 0
-12311 12359 0
-12311 12371 0
-12311 12355 0
12311 -12359 -12371 -12355 0
-12404 12371 0
-12404 12355 0
-12404 12273 0
12404 -12371 -12355 -12273 0
-12523 12324 0
-12523 12281 0
-12523 12371 0
-12523 12355 0
12523 -12324 -12281 -12371 -12355 0
-12279 12324 0
-12279 12281 0
-12279 12371 0
-12279 12355 0
12279 -12324 -12281 -12371 -12355 0
-12284 12285 0
-12284 12286 0
12284 -12285 -12286 0
-12287 12288 0
-12287 12289 0
12287 -12288 -12289 0
-12290 12499 0
-12290 12292 0
12290 -12499 -12292 0
-12293 12294 0
-12293 12295 0
12293 -12294 -12295 0
-12296 12297 0
-12296 12298 0
12296 -12297 -12298 0
-12330 12300 0
-12330 12301 0
-12330 12313 0
12330 -12300 -12301 -12313 0
-12415 12501 0
-12415 12313 0
-12415 12343 0
12415 -12501 -12313 -12343 0
-12408 12322 0
-12408 12313 0
-12408 12343 0
-12408 12311 0
12408 -12322 -12313 -12343 -12311 0
-12332 12313 0
-12332 12343 0
-12332 12362 0
-12332 12363 0
12332 -12313 -12343 -12362 -12363 0
-12406 12324 0
-12406 12325 0
12406 -12324 -12325 0
-12407 12325 0
-12407 12322 0
12407 -12325 -12322 0
-12347 12324 0
-12347 12325 0
-12347 12359 0
12347 -12324 -12325 -12359 0
-12411 12343 0
-12411 12329 0
-12411 12330 0
12411 -12343 -12329 -12330 0
-12422 12332 0
-12422 12333 0
12422 -12332 -12333 0
-12417 12342 0
-12417 12336 0
12417 -12342 -12336 0
-12414 12342 0
-12414 12343 0
12414 -12342 -12343 0
-12418 12341 0
-12418 12342 0
-12418 12343 0
12418 -12341 -12342 -12343 0
-12344 12371 0
-12344 12355 0
-12344 12347 0
12344 -12371 -12355 -12347 0
-12364 12358 0
-12364 12371 0
-12364 12355 0
12364 -12358 -12371 -12355 0
-12369 12358 0
-12369 12359 0
-12369 12355 0
12369 -12358 -12359 -12355 0
-12373 12357 0
-12373 12358 0
-12373 12359 0
12373 -12357 -12358 -12359 0
-12427 12361 0
-12427 12362 0
-12427 12363 0
-12427 12364 0
12427 -12361 -12362 -12363 -12364 0
-12431 12366 0
-12431 12367 0
-12431 12368 0
-12431 12369 0
12431 -12366 -12367 -12368 -12369 0
-12435 12371 0
-12435 12372 0
-12435 12373 0
12435 -12371 -12372 -12373 0
12437 -12375 0
12437 -12376 0
12437 -12377 0
-12437 12375 12376 12377 0
12440 -12379 0
12440 -12380 0
12440 -12381 0
-12440 12379 12380 12381 0
12455 -12383 0
12455 -12384 0
12455 -12385 0
-12455 12383 12384 12385 0
12458 -12387 0
12458 -12388 0
-12458 12387 12388 0
12461 -12390 0
12461 -12391 0
-12461 12390 12391 0
12464 -12393 0
12464 -12394 0
-12464 12393 12394 0
12482 -12396 0
12482 -12397 0
-12482 12396 12397 0
12485 -12399 0
12485 -12400 0
-12485 12399 12400 0
12488 -12402 0
12488 -12403 0
12488 -12404 0
-12488 12402 12403 12404 0
12405 -12406 0
12405 -12407 0
12405 -12408 0
-12405 12406 12407 12408 0
12423 -12410 0
12423 -12411 0
12423 -12412 0
-12423 12410 12411 12412 0
12503 -12414 0
12503 -12415 0
-12503 12414 12415 0
12506 -12417 0
12506 -12418 0
-12506 12417 12418 0
12509 -12420 0
12509 -12421 0
12509 -12422 0
12509 -12423 0
-12509 12420 12421 12422 12423 0
12424 -12425 0
12424 -12426 0
12424 -12427 0
-12424 12425 12426 12427 0
12428 -12429 0
12428 -12430 0
12428 -12431 0
-12428 12429 12430 12431 0
12432 -12433 0
12432 -12434 0
12432 -12435 0
-12432 12433 12434 12435 0
12443 12437 0
12443 12438 0
-12443 -12437 -12438 0
12446 12440 0
12446 12441 0
-12446 -12440 -12441 0
12442 12443 0
12442 12444 0
-12442 -12443 -12444 0
12445 12446 0
12445 12447 0
-12445 -12446 -12447 0
12448 12500 0
12448 12450 0
-12448 -12500 -12450 0
12451 12500 0
12451 12453 0
-12451 -12500 -12453 0
12467 12455 0
12467 12456 0
-12467 -12455 -12456 0
12470 12458 0
12470 12459 0
-12470 -12458 -12459 0
12473 12461 0
12473 12462 0
-12473 -12461 -12462 0
12476 12464 0
12476 12465 0
-12476 -12464 -12465 0
12466 12467 0
12466 12468 0
-12466 -12467 -12468 0
12537 12470 0
12537 12471 0
-12537 -12470 -12471 0
12535 12473 0
12535 12474 0
-12535 -12473 -12474 0
12529 12476 0
12529 12477 0
-12529 -12476 -12477 0
12478 12500 0
12478 12480 0
-12478 -12500 -12480 0
12491 12482 0
12491 12483 0
-12491 -12482 -12483 0
12494 12485 0
12494 12486 0
-12494 -12485 -12486 0
12497 12488 0
12497 12489 0
-12497 -12488 -12489 0
12533 12491 0
12533 12492 0
-12533 -12491 -12492 0
12531 12494 0
12531 12495 0
-12531 -12494 -12495 0
12496 12497 0
12496 12498 0
-12496 -12497 -12498 0
12499 12500 0
12499 12501 0
-12499 -12500 -12501 0
12512 12503 0
12512 12504 0
-12512 -12503 -12504 0
12515 12506 0
12515 12507 0
-12515 -12506 -12507 0
12518 12509 0
12518 12510 0
-12518 -12509 -12510 0
12541 12512 0
12541 12513 0
-12541 -12512 -12513 0
12539 12515 0
12539 12516 0
-12539 -12515 -12516 0
12517 12518 0
12517 12519 0
-12517 -12518 -12519 0
-12521 13182 0
12521 -13182 0
-12523 13347 0
12523 -13347 0
-12525 13164 0
12525 -13164 0
-12527 13350 0
12527 -13350 0
-12529 12623 0
12529 -12623 0
-12531 12631 0
12531 -12631 0
-12533 12587 0
12533 -12587 0
-12535 12591 0
12535 -12591 0
-12537 12595 0
12537 -12595 0
-12539 12603 0
12539 -12603 0
-12541 12611 0
12541 -12611 0
-12543 12619 0
12543 -12619 0
-12545 12627 0
12545 -12627 0
-12547 12635 0
12547 -12635 0
-12549 12639 0
12549 -12639 0
-12551 12643 0
12551 -12643 0
-12553 12599 0
12553 -12599 0
-12555 12607 0
12555 -12607 0
-12557 12615 0
12557 -12615 0
12647 12559 0
-12647 -12559 0
13294 12561 0
-13294 -12561 0
13470 12563 0
-13470 -12563 0
12649 12565 0
-12649 -12565 0
12651 12567 0
-12651 -12567 0
12653 12569 0
-12653 -12569 0
12655 12571 0
-12655 -12571 0
12657 12573 0
-12657 -12573 0
12659 12575 0
-12659 -12575 0
12661 12577 0
-12661 -12577 0
12663 12579 0
-12663 -12579 0
12665 12581 0
-12665 -12581 0
12582 12583 0
-12582 -12583 0
12584 12585 0
-12584 -12585 0
12589 12587 0
-12589 -12587 0
13189 12589 0
-13189 -12589 0
12593 12591 0
-12593 -12591 0
13041 12593 0
-13041 -12593 0
12597 12595 0
-12597 -12595 0
13112 12597 0
-13112 -12597 0
12601 12599 0
-12601 -12599 0
13050 12601 0
-13050 -12601 0
12605 12603 0
-12605 -12603 0
13044 12605 0
-13044 -12605 0
12609 12607 0
-12609 -12607 0
13053 12609 0
-13053 -12609 0
12613 12611 0
-12613 -12611 0
13259 12613 0
-13259 -12613 0
12617 12615 0
-12617 -12615 0
13056 12617 0
-13056 -12617 0
12621 12619 0
-12621 -12619 0
13262 12621 0
-13262 -12621 0
12625 12623 0
-12625 -12623 0
13106 12625 0
-13106 -12625 0
12629 12627 0
-12629 -12627 0
13115 12629 0
-13115 -12629 0
12633 12631 0
-12633 -12631 0
13038 12633 0
-13038 -12633 0
12637 12635 0
-12637 -12635 0
13192 12637 0
-13192 -12637 0
12641 12639 0
-12641 -12639 0
13109 12641 0
-13109 -12641 0
12645 12643 0
-12645 -12643 0
13047 12645 0
-13047 -12645 0
13327 12647 0
-13327 -12647 0
12679 12649 0
-12679 -12649 0
13331 12651 0
-13331 -12651 0
13336 12653 0
-13336 -12653 0
13292 12655 0
-13292 -12655 0
13204 12657 0
-13204 -12657 0
13154 12659 0
-13154 -12659 0
13033 12661 0
-13033 -12661 0
13034 12663 0
-13034 -12663 0
13035 12665 0
-13035 -12665 0
13037 12679 0
-13037 -12679 0
13040 12679 0
-13040 -12679 0
13043 12679 0
-13043 -12679 0
13046 12679 0
-13046 -12679 0
13049 12679 0
-13049 -12679 0
13052 12679 0
-13052 -12679 0
13055 12679 0
-13055 -12679 0
13270 13204 0
-13270 -13204 0
13271 13154 0
-13271 -13154 0
13211 13033 0
-13211 -13033 0
13380 13034 0
-13380 -13034 0
13299 13035 0
-13299 -13035 0
12733 13032 0
-12733 -13032 0
12695 13036 0
-12695 -13036 0
12735 12695 0
-12735 -12695 0
12699 13036 0
-12699 -13036 0
13090 12699 0
-13090 -12699 0
12703 13039 0
-12703 -13039 0
12739 12703 0
-12739 -12703 0
12707 13039 0
-12707 -13039 0
13093 12707 0
-13093 -12707 0
12711 13042 0
-12711 -13042 0
12743 12711 0
-12743 -12711 0
12715 13042 0
-12715 -13042 0
13096 12715 0
-13096 -12715 0
12719 13045 0
-12719 -13045 0
12718 12719 0
-12718 -12719 0
12723 13048 0
-12723 -13048 0
12722 12723 0
-12722 -12723 0
12727 13051 0
-12727 -13051 0
12726 12727 0
-12726 -12727 0
12731 13054 0
-12731 -13054 0
12730 12731 0
-12730 -12731 0
12747 12733 0
-12747 -12733 0
12737 12735 0
-12737 -12735 0
13338 12737 0
-13338 -12737 0
12741 12739 0
-12741 -12739 0
13333 12741 0
-13333 -12741 0
12745 12743 0
-12745 -12743 0
13313 12745 0
-13313 -12745 0
12749 12747 0
-12749 -12747 0
12748 12749 0
-12748 -12749 0
13408 13407 0
-13408 -13407 0
13411 13410 0
-13411 -13410 0
13228 13338 0
-13228 -13338 0
13172 13333 0
-13172 -13333 0
13306 13313 0
-13306 -13313 0
13414 13408 0
-13414 -13408 0
13417 13411 0
-13417 -13411 0
12767 13412 0
-12767 -13412 0
13099 12767 0
-13099 -12767 0
12771 13415 0
-12771 -13415 0
13102 12771 0
-13102 -12771 0
12777 13098 0
-12777 -13098 0
12779 13101 0
-12779 -13101 0
12781 12777 0
-12781 -12777 0
12785 12779 0
-12785 -12779 0
12783 12781 0
-12783 -12781 0
12789 12783 0
-12789 -12783 0
12787 12785 0
-12787 -12785 0
12793 12787 0
-12793 -12787 0
12791 12789 0
-12791 -12789 0
13177 12791 0
-13177 -12791 0
13420 12793 0
-13420 -12793 0
13423 13177 0
-13423 -13177 0
13105 13420 0
-13105 -13420 0
13111 13423 0
-13111 -13423 0
12803 13104 0
-12803 -13104 0
12833 12803 0
-12833 -12803 0
12807 13104 0
-12807 -13104 0
13117 12807 0
-13117 -12807 0
12811 13107 0
-12811 -13107 0
12837 12811 0
-12837 -12811 0
12815 13107 0
-12815 -13107 0
13120 12815 0
-13120 -12815 0
12819 13110 0
-12819 -13110 0
12841 12819 0
-12841 -12819 0
12823 13110 0
-12823 -13110 0
13123 12823 0
-13123 -12823 0
12827 13113 0
-12827 -13113 0
12845 12827 0
-12845 -12827 0
12831 13113 0
-12831 -13113 0
13126 12831 0
-13126 -12831 0
12835 12833 0
-12835 -12833 0
13342 12835 0
-13342 -12835 0
12839 12837 0
-12839 -12837 0
13147 12839 0
-13147 -12839 0
12843 12841 0
-12843 -12841 0
13332 12843 0
-13332 -12843 0
12847 12845 0
-12847 -12845 0
13251 12847 0
-13251 -12847 0
12857 13342 0
-12857 -13342 0
13325 13147 0
-13325 -13147 0
13178 13332 0
-13178 -13332 0
13329 13251 0
-13329 -13251 0
12861 12857 0
-12861 -12857 0
12863 13145 0
-12863 -13145 0
13363 12861 0
-13363 -12861 0
13527 12863 0
-13527 -12863 0
13426 13425 0
-13426 -13425 0
13429 13428 0
-13429 -13428 0
13432 13431 0
-13432 -13431 0
13435 13434 0
-13435 -13434 0
13438 13426 0
-13438 -13426 0
13441 13429 0
-13441 -13429 0
13444 13432 0
-13444 -13432 0
13447 13435 0
-13447 -13435 0
12883 13436 0
-12883 -13436 0
13185 12883 0
-13185 -12883 0
12887 13184 0
-12887 -13184 0
12889 12887 0
-12889 -12887 0
12891 12889 0
-12891 -12889 0
12893 12891 0
-12893 -12891 0
12895 12893 0
-12895 -12893 0
13233 12895 0
-13233 -12895 0
13450 13233 0
-13450 -13233 0
13188 13450 0
-13188 -13450 0
12903 13187 0
-12903 -13187 0
12917 12903 0
-12917 -12903 0
12907 13187 0
-12907 -13187 0
13194 12907 0
-13194 -12907 0
12911 13190 0
-12911 -13190 0
13220 12911 0
-13220 -12911 0
12915 13190 0
-12915 -13190 0
13197 12915 0
-13197 -12915 0
12919 12917 0
-12919 -12917 0
13337 12919 0
-13337 -12919 0
12923 13220 0
-12923 -13220 0
13495 12923 0
-13495 -12923 0
13234 13337 0
-13234 -13337 0
13341 13220 0
-13341 -13220 0
12931 13218 0
-12931 -13218 0
13525 12931 0
-13525 -12931 0
12941 13249 0
-12941 -13249 0
13453 13452 0
-13453 -13452 0
13456 13455 0
-13456 -13455 0
13459 13458 0
-13459 -13458 0
13523 12941 0
-13523 -12941 0
13462 13453 0
-13462 -13453 0
13465 13456 0
-13465 -13456 0
13468 13459 0
-13468 -13459 0
12951 13466 0
-12951 -13466 0
13255 12951 0
-13255 -12951 0
12955 13254 0
-12955 -13254 0
12957 12955 0
-12957 -12955 0
12959 12957 0
-12959 -12957 0
12961 12959 0
-12961 -12959 0
12963 12961 0
-12963 -12961 0
13311 12963 0
-13311 -12963 0
13471 13311 0
-13471 -13311 0
13258 13471 0
-13258 -13471 0
12971 13257 0
-12971 -13257 0
12985 12971 0
-12985 -12971 0
12975 13257 0
-12975 -13257 0
13264 12975 0
-13264 -12975 0
12979 13260 0
-12979 -13260 0
13295 12979 0
-13295 -12979 0
12983 13260 0
-12983 -13260 0
13267 12983 0
-13267 -12983 0
12987 12985 0
-12987 -12985 0
13283 12987 0
-13283 -12987 0
12991 13295 0
-12991 -13295 0
13491 12991 0
-13491 -12991 0
13312 13283 0
-13312 -13283 0
13328 13295 0
-13328 -13295 0
13005 13375 0
-13005 -13375 0
13007 13314 0
-13007 -13314 0
13474 13473 0
-13474 -13473 0
13477 13476 0
-13477 -13476 0
13513 13005 0
-13513 -13005 0
13521 13007 0
-13521 -13007 0
13480 13479 0
-13480 -13479 0
13483 13474 0
-13483 -13474 0
13486 13477 0
-13486 -13477 0
13023 13394 0
-13023 -13394 0
13025 13398 0
-13025 -13398 0
13027 13402 0
-13027 -13402 0
13489 13480 0
-13489 -13480 0
13515 13023 0
-13515 -13023 0
13517 13025 0
-13517 -13025 0
13519 13027 0
-13519 -13027 0
13031 13487 0
-13031 -13487 0
13030 13031 0
-13030 -13031 0
-13032 13033 0
-13032 13034 0
-13032 13035 0
13032 -13033 -13034 -13035 0
-13036 13037 0
-13036 13038 0
13036 -13037 -13038 0
-13039 13040 0
-13039 13041 0
13039 -13040 -13041 0
-13042 13043 0
-13042 13044 0
13042 -13043 -13044 0
-13045 13046 0
-13045 13047 0
13045 -13046 -13047 0
-13048 13049 0
-13048 13050 0
13048 -13049 -13050 0
-13051 13052 0
-13051 13053 0
13051 -13052 -13053 0
-13054 13055 0
-13054 13056 0
13054 -13055 -13056 0
-13372 13470 0
-13372 13211 0
13372 -13470 -13211 0
-13345 13470 0
-13345 13211 0
13345 -13470 -13211 0
-13353 13470 0
-13353 13211 0
13353 -13470 -13211 0
-13349 13470 0
-13349 13211 0
13349 -13470 -13211 0
-13373 13470 0
-13373 13270 0
-13373 13271 0
-13373 13299 0
13373 -13470 -13270 -13271 -13299 0
-13346 13470 0
-13346 13270 0
-13346 13154 0
-13346 13299 0
13346 -13470 -13270 -13154 -13299 0
-13355 13470 0
-13355 13204 0
-13355 13271 0
-13355 13299 0
13355 -13470 -13204 -13271 -13299 0
-13351 13470 0
-13351 13204 0
-13351 13154 0
-13351 13299 0
13351 -13470 -13204 -13154 -13299 0
-13089 13090 0
-13089 13091 0
13089 -13090 -13091 0
-13092 13093 0
-13092 13094 0
13092 -13093 -13094 0
-13095 13096 0
-13095 13097 0
13095 -13096 -13097 0
-13098 13099 0
-13098 13100 0
13098 -13099 -13100 0
-13101 13102 0
-13101 13103 0
13101 -13102 -13103 0
-13104 13105 0
-13104 13106 0
13104 -13105 -13106 0
-13107 13418 0
-13107 13109 0
13107 -13418 -13109 0
-13110 13111 0
-13110 13112 0
13110 -13111 -13112 0
-13113 13421 0
-13113 13115 0
13113 -13421 -13115 0
-13116 13117 0
-13116 13118 0
13116 -13117 -13118 0
-13119 13120 0
-13119 13121 0
13119 -13120 -13121 0
-13122 13123 0
-13122 13124 0
13122 -13123 -13124 0
-13125 13126 0
-13125 13127 0
13125 -13126 -13127 0
-13364 13420 0
-13364 13342 0
13364 -13420 -13342 0
-13391 13204 0
-13391 13154 0
-13391 13342 0
-13391 13299 0
13391 -13204 -13154 -13342 -13299 0
-13403 13294 0
-13403 13147 0
13403 -13294 -13147 0
-13404 13327 0
-13404 13147 0
13404 -13327 -13147 0
-13497 13294 0
-13497 13147 0
13497 -13294 -13147 0
-13145 13294 0
-13145 13147 0
13145 -13294 -13147 0
-13358 13423 0
-13358 13332 0
-13358 13333 0
13358 -13423 -13332 -13333 0
-13169 13270 0
-13169 13154 0
-13169 13332 0
13169 -13270 -13154 -13332 0
-13395 13294 0
-13395 13251 0
13395 -13294 -13251 0
-13396 13251 0
-13396 13331 0
13396 -13251 -13331 0
-13354 13294 0
-13354 13164 0
-13354 13325 0
13354 -13294 -13164 -13325 0
-13390 13333 0
-13390 13299 0
-13390 13169 0
13390 -13333 -13299 -13169 0
-13360 13178 0
-13360 13172 0
13360 -13178 -13172 0
-13357 13178 0
-13357 13333 0
13357 -13178 -13333 0
-13361 13177 0
-13361 13178 0
-13361 13333 0
13361 -13177 -13178 -13333 0
-13243 13294 0
-13243 13182 0
-13243 13329 0
13243 -13294 -13182 -13329 0
-13184 13185 0
-13184 13186 0
13184 -13185 -13186 0
-13187 13188 0
-13187 13189 0
13187 -13188 -13189 0
-13190 13448 0
-13190 13192 0
13190 -13448 -13192 0
-13193 13194 0
-13193 13195 0
13193 -13194 -13195 0
-13196 13197 0
-13196 13198 0
13196 -13197 -13198 0
-13367 13450 0
-13367 13337 0
-13367 13338 0
13367 -13450 -13337 -13338 0
-13225 13204 0
-13225 13271 0
-13225 13337 0
13225 -13204 -13271 -13337 0
-13303 13337 0
-13303 13338 0
-13303 13342 0
-13303 13211 0
13303 -13337 -13338 -13342 -13211 0
-13399 13294 0
-13399 13220 0
13399 -13294 -13220 0
-13400 13220 0
-13400 13336 0
13400 -13220 -13336 0
-13218 13294 0
-13218 13220 0
-13218 13325 0
13218 -13294 -13220 -13325 0
-13382 13338 0
-13382 13299 0
-13382 13225 0
13382 -13338 -13299 -13225 0
-13369 13234 0
-13369 13228 0
13369 -13234 -13228 0
-13366 13234 0
-13366 13338 0
13366 -13234 -13338 0
-13370 13233 0
-13370 13234 0
-13370 13338 0
13370 -13233 -13234 -13338 0
-13281 13329 0
-13281 13341 0
-13281 13325 0
13281 -13329 -13341 -13325 0
-13374 13341 0
-13374 13325 0
-13374 13243 0
13374 -13341 -13325 -13243 0
-13493 13294 0
-13493 13251 0
-13493 13341 0
-13493 13325 0
13493 -13294 -13251 -13341 -13325 0
-13249 13294 0
-13249 13251 0
-13249 13341 0
-13249 13325 0
13249 -13294 -13251 -13341 -13325 0
-13254 13255 0
-13254 13256 0
13254 -13255 -13256 0
-13257 13258 0
-13257 13259 0
13257 -13258 -13259 0
-13260 13469 0
-13260 13262 0
13260 -13469 -13262 0
-13263 13264 0
-13263 13265 0
13263 -13264 -13265 0
-13266 13267 0
-13266 13268 0
13266 -13267 -13268 0
-13300 13270 0
-13300 13271 0
-13300 13283 0
13300 -13270 -13271 -13283 0
-13385 13471 0
-13385 13283 0
-13385 13313 0
13385 -13471 -13283 -13313 0
-13378 13292 0
-13378 13283 0
-13378 13313 0
-13378 13281 0
13378 -13292 -13283 -13313 -13281 0
-13302 13283 0
-13302 13313 0
-13302 13332 0
-13302 13333 0
13302 -13283 -13313 -13332 -13333 0
-13376 13294 0
-13376 13295 0
13376 -13294 -13295 0
-13377 13295 0
-13377 13292 0
13377 -13295 -13292 0
-13317 13294 0
-13317 13295 0
-13317 13329 0
13317 -13294 -13295 -13329 0
-13381 13313 0
-13381 13299 0
-13381 13300 0
13381 -13313 -13299 -13300 0
-13392 13302 0
-13392 13303 0
13392 -13302 -13303 0
-13387 13312 0
-13387 13306 0
13387 -13312 -13306 0
-13384 13312 0
-13384 13313 0
13384 -13312 -13313 0
-13388 13311 0
-13388 13312 0
-13388 13313 0
13388 -13311 -13312 -13313 0
-13314 13341 0
-13314 13325 0
-13314 13317 0
13314 -13341 -13325 -13317 0
-13334 13328 0
-13334 13341 0
-13334 13325 0
13334 -13328 -13341 -13325 0
-13339 13328 0
-13339 13329 0
-13339 13325 0
13339 -13328 -13329 -13325 0
-13343 13327 0
-13343 13328 0
-13343 13329 0
13343 -13327 -13328 -13329 0
-13397 13331 0
-13397 13332 0
-13397 13333 0
-13397 13334 0
13397 -13331 -13332 -13333 -13334 0
-13401 13336 0
-13401 13337 0
-13401 13338 0
-13401 13339 0
13401 -13336 -13337 -13338 -13339 0
-13405 13341 0
-13405 13342 0
-13405 13343 0
13405 -13341 -13342 -13343 0
13407 -13345 0
13407 -13346 0
13407 -13347 0
-13407 13345 13346 13347 0
13410 -13349 0
13410 -13350 0
13410 -13351 0
-13410 13349 13350 13351 0
13425 -13353 0
13425 -13354 0
13425 -13355 0
-13425 13353 13354 13355 0
13428 -13357 0
13428 -13358 0
-13428 13357 13358 0
13431 -13360 0
13431 -13361 0
-13431 13360 13361 0
13434 -13363 0
13434 -13364 0
-13434 13363 13364 0
13452 -13366 0
13452 -13367 0
-13452 13366 13367 0
13455 -13369 0
13455 -13370 0
-13455 13369 13370 0
13458 -13372 0
13458 -13373 0
13458 -13374 0
-13458 13372 13373 13374 0
13375 -13376 0
13375 -13377 0
13375 -13378 0
-13375 13376 13377 13378 0
13393 -13380 0
13393 -13381 0
13393 -13382 0
-13393 13380 13381 13382 0
13473 -13384 0
13473 -13385 0
-13473 13384 13385 0
13476 -13387 0
13476 -13388 0
-13476 13387 13388 0
13479 -13390 0
13479 -13391 0
13479 -13392 0
13479 -13393 0
-13479 13390 13391 13392 13393 0
13394 -13395 0
13394 -13396 0
13394 -13397 0
-13394 13395 13396 13397 0
13398 -13399 0
13398 -13400 0
13398 -13401 0
-13398 13399 13400 13401 0
13402 -13403 0
13402 -13404 0
13402 -13405 0
-13402 13403 13404 13405 0
13413 13407 0
13413 13408 0
-13413 -13407 -13408 0
13416 13410 0
13416 13411 0
-13416 -13410 -13411 0
13412 13413 0
13412 13414 0
-13412 -13413 -13414 0
13415 13416 0
13415 13417 0
-13415 -13416 -13417 0
13418 13470 0
13418 13420 0
-13418 -13470 -13420 0
13421 13470 0
13421 13423 0
-13421 -13470 -13423 0
13437 13425 0
13437 13426 0
-13437 -13425 -13426 0
13440 13428 0
13440 13429 0
-13440 -13428 -13429 0
13443 13431 0
13443 13432 0
-13443 -13431 -13432 0
13446 13434 0
13446 13435 0
-13446 -13434 -13435 0
13436 13437 0
13436 13438 0
-13436 -13437 -13438 0
13507 13440 0
13507 13441 0
-13507 -13440 -13441 0
13505 13443 0
13505 13444 0
-13505 -13443 -13444 0
13499 13446 0
13499 13447 0
-13499 -13446 -13447 0
13448 13470 0
13448 13450 0
-13448 -13470 -13450 0
13461 13452 0
13461 13453 0
-13461 -13452 -13453 0
13464 13455 0
13464 13456 0
-13464 -13455 -13456 0
13467 13458 0
13467 13459 0
-13467 -13458 -13459 0
13503 13461 0
13503 13462 0
-13503 -13461 -13462 0
13501 13464 0
13501 13465 0
-13501 -13464 -13465 0
13466 13467 0
13466 13468 0
-13466 -13467 -13468 0
13469 13470 0
13469 13471 0
-13469 -13470 -13471 0
13482 13473 0
13482 13474 0
-13482 -13473 -13474 0
13485 13476 0
13485 13477 0
-13485 -13476 -13477 0
13488 13479 0
13488 13480 0
-13488 -13479 -13480 0
13511 13482 0
13511 13483 0
-13511 -13482 -13483 0
13509 13485 0
13509 13486 0
-13509 -13485 -13486 0
13487 13488 0
13487 13489 0
-13487 -13488 -13489 0
-13491 14152 0
13491 -14152 0
-13493 14317 0
13493 -14317 0
-13495 14134 0
13495 -14134 0
-13497 14320 0
13497 -14320 0
-13499 13593 0
13499 -13593 0
-13501 13601 0
13501 -13601 0
-13503 13557 0
13503 -13557 0
-13505 13561 0
13505 -13561 0
-13507 13565 0
13507 -13565 0
-13509 13573 0
13509 -13573 0
-13511 13581 0
13511 -13581 0
-13513 13589 0
13513 -13589 0
-13515 13597 0
13515 -13597 0
-13517 13605 0
13517 -13605 0
-13519 13609 0
13519 -13609 0
-13521 13613 0
13521 -13613 0
-13523 13569 0
13523 -13569 0
-13525 13577 0
13525 -13577 0
-13527 13585 0
13527 -13585 0
13617 13529 0
-13617 -13529 0
14264 13531 0
-14264 -13531 0
14440 13533 0
-14440 -13533 0
13619 13535 0
-13619 -13535 0
13621 13537 0
-13621 -13537 0
13623 13539 0
-13623 -13539 0
13625 13541 0
-13625 -13541 0
13627 13543 0
-13627 -13543 0
13629 13545 0
-13629 -13545 0
13631 13547 0
-13631 -13547 0
13633 13549 0
-13633 -13549 0
13635 13551 0
-13635 -13551 0
13552 13553 0
-13552 -13553 0
13554 13555 0
-13554 -13555 0
13559 13557 0
-13559 -13557 0
14159 13559 0
-14159 -13559 0
13563 13561 0
-13563 -13561 0
14011 13563 0
-14011 -13563 0
13567 13565 0
-13567 -13565 0
14082 13567 0
-14082 -13567 0
13571 13569 0
-13571 -13569 0
14020 13571 0
-14020 -13571 0
13575 13573 0
-13575 -13573 0
14014 13575 0
-14014 -13575 0
13579 13577 0
-13579 -13577 0
14023 13579 0
-14023 -13579 0
13583 13581 0
-13583 -13581 0
14229 13583 0
-14229 -13583 0
13587 13585 0
-13587 -13585 0
14026 13587 0
-14026 -13587 0
13591 13589 0
-13591 -13589 0
14232 13591 0
-14232 -13591 0
13595 13593 0
-13595 -13593 0
14076 13595 0
-14076 -13595 0
13599 13597 0
-13599 -13597 0
14085 13599 0
-14085 -13599 0
13603 13601 0
-13603 -13601 0
14008 13603 0
-14008 -13603 0
13607 13605 0
-13607 -13605 0
14162 13607 0
-14162 -13607 0
13611 13609 0
-13611 -13609 0
14079 13611 0
-14079 -13611 0
13615 13613 0
-13615 -13613 0
14017 13615 0
-14017 -13615 0
14297 13617 0
-14297 -13617 0
13649 13619 0
-13649 -13619 0
14301 13621 0
-14301 -13621 0
14306 13623 0
-14306 -13623 0
14262 13625 0
-14262 -13625 0
14174 13627 0
-14174 -13627 0
14124 13629 0
-14124 -13629 0
14003 13631 0
-14003 -13631 0
14004 13633 0
-14004 -13633 0
14005 13635 0
-14005 -13635 0
14007 13649 0
-14007 -13649 0
14010 13649 0
-14010 -13649 0
14013 13649 0
-14013 -13649 0
14016 13649 0
-14016 -13649 0
14019 13649 0
-14019 -13649 0
14022 13649 0
-14022 -13649 0
14025 13649 0
-14025 -13649 0
14240 14174 0
-14240 -14174 0
14241 14124 0
-14241 -14124 0
14181 14003 0
-14181 -14003 0
14350 14004 0
-14350 -14004 0
14269 14005 0
-14269 -14005 0
13703 14002 0
-13703 -14002 0
13665 14006 0
-13665 -14006 0
13705 13665 0
-13705 -13665 0
13669 14006 0
-13669 -14006 0
14060 13669 0
-14060 -13669 0
13673 14009 0
-13673 -14009 0
13709 13673 0
-13709 -13673 0
13677 14009 0
-13677 -14009 0
14063 13677 0
-14063 -13677 0
13681 14012 0
-13681 -14012 0
13713 13681 0
-13713 -13681 0
13685 14012 0
-13685 -14012 0
14066 13685 0
-14066 -13685 0
13689 14015 0
-13689 -14015 0
13688 13689 0
-13688 -13689 0
13693 14018 0
-13693 -14018 0
13692 13693 0
-13692 -13693 0
13697 14021 0
-13697 -14021 0
13696 13697 0
-13696 -13697 0
13701 14024 0
-13701 -14024 0
13700 13701 0
-13700 -13701 0
13717 13703 0
-13717 -13703 0
13707 13705 0
-13707 -13705 0
14308 13707 0
-14308 -13707 0
13711 13709 0
-13711 -13709 0
14303 13711 0
-14303 -13711 0
13715 13713 0
-13715 -13713 0
14283 13715 0
-14283 -13715 0
13719 13717 0
-13719 -13717 0
13718 13719 0
-13718 -13719 0
14378 14377 0
-14378 -14377 0
14381 14380 0
-14381 -14380 0
14198 14308 0
-14198 -14308 0
14142 14303 0
-14142 -14303 0
14276 14283 0
-14276 -14283 0
14384 14378 0
-14384 -14378 0
14387 14381 0
-14387 -14381 0
13737 14382 0
-13737 -14382 0
14069 13737 0
-14069 -13737 0
13741 14385 0
-13741 -14385 0
14072 13741 0
-14072 -13741 0
13747 14068 0
-13747 -14068 0
13749 14071 0
-13749 -14071 0
13751 13747 0
-13751 -13747 0
13755 13749 0
-13755 -13749 0
13753 13751 0
-13753 -13751 0
13759 13753 0
-13759 -13753 0
13757 13755 0
-13757 -13755 0
13763 13757 0
-13763 -13757 0
13761 13759 0
-13761 -13759 0
14147 13761 0
-14147 -13761 0
14390 13763 0
-14390 -13763 0
14393 14147 0
-14393 -14147 0
14075 14390 0
-14075 -14390 0
14081 14393 0
-14081 -14393 0
13773 14074 0
-13773 -14074 0
13803 13773 0
-13803 -13773 0
13777 14074 0
-13777 -14074 0
14087 13777 0
-14087 -13777 0
13781 14077 0
-13781 -14077 0
13807 13781 0
-13807 -13781 0
13785 14077 0
-13785 -14077 0
14090 13785 0
-14090 -13785 0
13789 14080 0
-13789 -14080 0
13811 13789 0
-13811 -13789 0
13793 14080 0
-13793 -14080 0
14093 13793 0
-14093 -13793 0
13797 14083 0
-13797 -14083 0
13815 13797 0
-13815 -13797 0
13801 14083 0
-13801 -14083 0
14096 13801 0
-14096 -13801 0
13805 13803 0
-13805 -13803 0
14312 13805 0
-14312 -13805 0
13809 13807 0
-13809 -13807 0
14117 13809 0
-14117 -13809 0
13813 13811 0
-13813 -13811 0
14302 13813 0
-14302 -13813 0
13817 13815 0
-13817 -13815 0
14221 13817 0
-14221 -13817 0
13827 14312 0
-13827 -14312 0
14295 14117 0
-14295 -14117 0
14148 14302 0
-14148 -14302 0
14299 14221 0
-14299 -14221 0
13831 13827 0
-13831 -13827 0
13833 14115 0
-13833 -14115 0
14333 13831 0
-14333 -13831 0
14497 13833 0
-14497 -13833 0
14396 14395 0
-14396 -14395 0
14399 14398 0
-14399 -14398 0
14402 14401 0
-14402 -14401 0
14405 14404 0
-14405 -14404 0
14408 14396 0
-14408 -14396 0
14411 14399 0
-14411 -14399 0
14414 14402 0
-14414 -14402 0
14417 14405 0
-14417 -14405 0
13853 14406 0
-13853 -14406 0
14155 13853 0
-14155 -13853 0
13857 14154 0
-13857 -14154 0
13859 13857 0
-13859 -13857 0
13861 13859 0
-13861 -13859 0
13863 13861 0
-13863 -13861 0
13865 13863 0
-13865 -13863 0
14203 13865 0
-14203 -13865 0
14420 14203 0
-14420 -14203 0
14158 14420 0
-14158 -14420 0
13873 14157 0
-13873 -14157 0
13887 13873 0
-13887 -13873 0
13877 14157 0
-13877 -14157 0
14164 13877 0
-14164 -13877 0
13881 14160 0
-13881 -14160 0
14190 13881 0
-14190 -13881 0
13885 14160 0
-13885 -14160 0
14167 13885 0
-14167 -13885 0
13889 13887 0
-13889 -13887 0
14307 13889 0
-14307 -13889 0
13893 14190 0
-13893 -14190 0
14465 13893 0
-14465 -13893 0
14204 14307 0
-14204 -14307 0
14311 14190 0
-14311 -14190 0
13901 14188 0
-13901 -14188 0
14495 13901 0
-14495 -13901 0
13911 14219 0
-13911 -14219 0
14423 14422 0
-14423 -14422 0
14426 14425 0
-14426 -14425 0
14429 14428 0
-14429 -14428 0
14493 13911 0
-14493 -13911 0
14432 14423 0
-14432 -14423 0
14435 14426 0
-14435 -14426 0
14438 14429 0
-14438 -14429 0
13921 14436 0
-13921 -14436 0
14225 13921 0
-14225 -13921 0
13925 14224 0
-13925 -14224 0
13927 13925 0
-13927 -13925 0
13929 13927 0
-13929 -13927 0
13931 13929 0
-13931 -13929 0
13933 13931 0
-13933 -13931 0
14281 13933 0
-14281 -13933 0
14441 14281 0
-14441 -14281 0
14228 14441 0
-14228 -14441 0
13941 14227 0
-13941 -14227 0
13955 13941 0
-13955 -13941 0
13945 14227 0
-13945 -14227 0
14234 13945 0
-14234 -13945 0
13949 14230 0
-13949 -14230 0
14265 13949 0
-14265 -13949 0
13953 14230 0
-13953 -14230 0
14237 13953 0
-14237 -13953 0
13957 13955 0
-13957 -13955 0
14253 13957 0
-14253 -13957 0
13961 14265 0
-13961 -14265 0
14461 13961 0
-14461 -13961 0
14282 14253 0
-14282 -14253 0
14298 14265 0
-14298 -14265 0
13975 14345 0
-13975 -14345 0
13977 14284 0
-13977 -14284 0
14444 14443 0
-14444 -14443 0
14447 14446 0
-14447 -14446 0
14483 13975 0
-14483 -13975 0
14491 13977 0
-14491 -13977 0
14450 14449 0
-14450 -14449 0
14453 14444 0
-14453 -14444 0
14456 14447 0
-14456 -14447 0
13993 14364 0
-13993 -14364 0
13995 14368 0
-13995 -14368 0
13997 14372 0
-13997 -14372 0
14459 14450 0
-14459 -14450 0
14485 13993 0
-14485 -13993 0
14487 13995 0
-14487 -13995 0
14489 13997 0
-14489 -13997 0
14001 14457 0
-14001 -14457 0
14000 14001 0
-14000 -14001 0
-14002 14003 0
-14002 14004 0
-14002 14005 0
14002 -14003 -14004 -14005 0
-14006 14007 0
-14006 14008 0
14006 -14007 -14008 0
-14009 14010 0
-14009 14011 0
14009 -14010 -14011 0
-14012 14013 0
-14012 14014 0
14012 -14013 -14014 0
-14015 14016 0
-14015 14017 0
14015 -14016 -14017 0
-14018 14019 0
-14018 14020 0
14018 -14019 -14020 0
-14021 14022 0
-14021 14023 0
14021 -14022 -14023 0
-14024 14025 0
-14024 14026 0
14024 -14025 -14026 0
-14342 14440 0
-14342 14181 0
14342 -14440 -14181 0
-14315 14440 0
-14315 14181 0
14315 -14440 -14181 0
-14323 14440 0
-14323 14181 0
14323 -14440 -14181 0
-14319 14440 0
-14319 14181 0
14319 -14440 -14181 0
-14343 14440 0
-14343 14240 0
-14343 14241 0
-14343 14269 0
14343 -14440 -14240 -14241 -14269 0
-14316 14440 0
-14316 14240 0
-14316 14124 0
-14316 14269 0
14316 -14440 -14240 -14124 -14269 0
-14325 14440 0
-14325 14174 0
-14325 14241 0
-14325 14269 0
14325 -14440 -14174 -14241 -14269 0
-14321 14440 0
-14321 14174 0
-14321 14124 0
-14321 14269 0
14321 -14440 -14174 -14124 -14269 0
-14059 14060 0
-14059 14061 0
14059 -14060 -14061 0
-14062 14063 0
-14062 14064 0
14062 -14063 -14064 0
-14065 14066 0
-14065 14067 0
14065 -14066 -14067 0
-14068 14069 0
-14068 14070 0
14068 -14069 -14070 0
-14071 14072 0
-14071 14073 0
14071 -14072 -14073 0
-14074 14075 0
-14074 14076 0
14074 -14075 -14076 0
-14077 14388 0
-14077 14079 0
14077 -14388 -14079 0
-14080 14081 0
-14080 14082 0
14080 -14081 -14082 0
-14083 14391 0
-14083 14085 0
14083 -14391 -14085 0
-14086 14087 0
-14086 14088 0
14086 -14087 -14088 0
-14089 14090 0
-14089 14091 0
14089 -14090 -14091 0
-14092 14093 0
-14092 14094 0
14092 -14093 -14094 0
-14095 14096 0
-14095 14097 0
14095 -14096 -14097 0
-14334 14390 0
-14334 14312 0
14334 -14390 -14312 0
-14361 14174 0
-14361 14124 0
-14361 14312 0
-14361 14269 0
14361 -14174 -14124 -14312 -14269 0
-14373 14264 0
-14373 14117 0
14373 -14264 -14117 0
-14374 14297 0
-14374 14117 0
14374 -14297 -14117 0
-14467 14264 0
-14467 14117 0
14467 -14264 -14117 0
-14115 14264 0
-14115 14117 0
14115 -14264 -14117 0
-14328 14393 0
-14328 14302 0
-14328 14303 0
14328 -14393 -14302 -14303 0
-14139 14240 0
-14139 14124 0
-14139 14302 0
14139 -14240 -14124 -14302 0
-14365 14264 0
-14365 14221 0
14365 -14264 -14221 0
-14366 14221 0
-14366 14301 0
14366 -14221 -14301 0
-14324 14264 0
-14324 14134 0
-14324 14295 0
14324 -14264 -14134 -14295 0
-14360 14303 0
-14360 14269 0
-14360 14139 0
14360 -14303 -14269 -14139 0
-14330 14148 0
-14330 14142 0
14330 -14148 -14142 0
-14327 14148 0
-14327 14303 0
14327 -14148 -14303 0
-14331 14147 0
-14331 14148 0
-14331 14303 0
14331 -14147 -14148 -14303 0
-14213 14264 0
-14213 14152 0
-14213 14299 0
14213 -14264 -14152 -14299 0
-14154 14155 0
-14154 14156 0
14154 -14155 -14156 0
-14157 14158 0
-14157 14159 0
14157 -14158 -14159 0
-14160 14418 0
-14160 14162 0
14160 -14418 -14162 0
-14163 14164 0
-14163 14165 0
14163 -14164 -14165 0
-14166 14167 0
-14166 14168 0
14166 -14167 -14168 0
-14337 14420 0
-14337 14307 0
-14337 14308 0
14337 -14420 -14307 -14308 0
-14195 14174 0
-14195 14241 0
-14195 14307 0
14195 -14174 -14241 -14307 0
-14273 14307 0
-14273 14308 0
-14273 14312 0
-14273 14181 0
14273 -14307 -14308 -14312 -14181 0
-14369 14264 0
-14369 14190 0
14369 -14264 -14190 0
-14370 14190 0
-14370 14306 0
14370 -14190 -14306 0
-14188 14264 0
-14188 14190 0
-14188 14295 0
14188 -14264 -14190 -14295 0
-14352 14308 0
-14352 14269 0
-14352 14195 0
14352 -14308 -14269 -14195 0
-14339 14204 0
-14339 14198 0
14339 -14204 -14198 0
-14336 14204 0
-14336 14308 0
14336 -14204 -14308 0
-14340 14203 0
-14340 14204 0
-14340 14308 0
14340 -14203 -14204 -14308 0
-14251 14299 0
-14251 14311 0
-14251 14295 0
14251 -14299 -14311 -14295 0
-14344 14311 0
-14344 14295 0
-14344 14213 0
14344 -14311 -14295 -14213 0
-14463 14264 0
-14463 14221 0
-14463 14311 0
-14463 14295 0
14463 -14264 -14221 -14311 -14295 0
-14219 14264 0
-14219 14221 0
-14219 14311 0
-14219 14295 0
14219 -14264 -14221 -14311 -14295 0
-14224 14225 0
-14224 14226 0
14224 -14225 -14226 0
-14227 14228 0
-14227 14229 0
14227 -14228 -14229 0
-14230 14439 0
-14230 14232 0
14230 -14439 -14232 0
-14233 14234 0
-14233 14235 0
14233 -14234 -14235 0
-14236 14237 0
-14236 14238 0
14236 -14237 -14238 0
-14270 14240 0
-14270 14241 0
-14270 14253 0
14270 -14240 -14241 -14253 0
-14355 14441 0
-14355 14253 0
-14355 14283 0
14355 -14441 -14253 -14283 0
-14348 14262 0
-14348 14253 0
-14348 14283 0
-14348 14251 0
14348 -14262 -14253 -14283 -14251 0
-14272 14253 0
-14272 14283 0
-14272 14302 0
-14272 14303 0
14272 -14253 -14283 -14302 -14303 0
-14346 14264 0
-14346 14265 0
14346 -14264 -14265 0
-14347 14265 0
-14347 14262 0
14347 -14265 -14262 0
-14287 14264 0
-14287 14265 0
-14287 14299 0
14287 -14264 -14265 -14299 0
-14351 14283 0
-14351 14269 0
-14351 14270 0
14351 -14283 -14269 -14270 0
-14362 14272 0
-14362 14273 0
14362 -14272 -14273 0
-14357 14282 0
-14357 14276 0
14357 -14282 -14276 0
-14354 14282 0
-14354 14283 0
14354 -14282 -14283 0
-14358 14281 0
-14358 14282 0
-14358 14283 0
14358 -14281 -14282 -14283 0
-14284 14311 0
-14284 14295 0
-14284 14287 0
14284 -14311 -14295 -14287 0
-14304 14298 0
-14304 14311 0
-14304 14295 0
14304 -14298 -14311 -14295 0
-14309 14298 0
-14309 14299 0
-14309 14295 0
14309 -14298 -14299 -14295 0
-14313 14297 0
-14313 14298 0
-14313 14299 0
14313 -14297 -14298 -14299 0
-14367 14301 0
-14367 14302 0
-14367 14303 0
-14367 14304 0
14367 -14301 -14302 -14303 -14304 0
-14371 14306 0
-14371 14307 0
-14371 14308 0
-14371 14309 0
14371 -14306 -14307 -14308 -14309 0
-14375 14311 0
-14375 14312 0
-14375 14313 0
14375 -14311 -14312 -14313 0
14377 -14315 0
14377 -14316 0
14377 -14317 0
-14377 14315 14316 14317 0
14380 -14319 0
14380 -14320 0
14380 -14321 0
-14380 14319 14320 14321 0
14395 -14323 0
14395 -14324 0
14395 -14325 0
-14395 14323 14324 14325 0
14398 -14327 0
14398 -14328 0
-14398 14327 14328 0
14401 -14330 0
14401 -14331 0
-14401 14330 14331 0
14404 -14333 0
14404 -14334 0
-14404 14333 14334 0
14422 -14336 0
14422 -14337 0
-14422 14336 14337 0
14425 -14339 0
14425 -14340 0
-14425 14339 14340 0
14428 -14342 0
14428 -14343 0
14428 -14344 0
-14428 14342 14343 14344 0
14345 -14346 0
14345 -14347 0
14345 -14348 0
-14345 14346 14347 14348 0
14363 -14350 0
14363 -14351 0
14363 -14352 0
-14363 14350 14351 14352 0
14443 -14354 0
14443 -14355 0
-14443 14354 14355 0
14446 -14357 0
14446 -14358 0
-14446 14357 14358 0
14449 -14360 0
14449 -14361 0
14449 -14362 0
14449 -14363 0
-14449 14360 14361 14362 14363 0
14364 -14365 0
14364 -14366 0
14364 -14367 0
-14364 14365 14366 14367 0
14368 -14369 0
14368 -14370 0
14368 -14371 0
-14368 14369 14370 14371 0
14372 -14373 0
14372 -14374 0
14372 -14375 0
-14372 14373 14374 14375 0
14383 14377 0
14383 14378 0
-14383 -14377 -14378 0
14386 14380 0
14386 14381 0
-14386 -14380 -14381 0
14382 14383 0
14382 14384 0
-14382 -14383 -14384 0
14385 14386 0
14385 14387 0
-14385 -14386 -14387 0
14388 14440 0
14388 14390 0
-14388 -14440 -14390 0
14391 14440 0
14391 14393 0
-14391 -14440 -14393 0
14407 14395 0
14407 14396 0
-14407 -14395 -14396 0
14410 14398 0
14410 14399 0
-14410 -14398 -14399 0
14413 14401 0
14413 14402 0
-14413 -14401 -14402 0
14416 14404 0
14416 14405 0
-14416 -14404 -14405 0
14406 14407 0
14406 14408 0
-14406 -14407 -14408 0
14477 14410 0
14477 14411 0
-14477 -14410 -14411 0
14475 14413 0
14475 14414 0
-14475 -14413 -14414 0
14469 14416 0
14469 14417 0
-14469 -14416 -14417 0
14418 14440 0
14418 14420 0
-14418 -14440 -14420 0
14431 14422 0
14431 14423 0
-14431 -14422 -14423 0
14434 14425 0
14434 14426 0
-14434 -14425 -14426 0
14437 14428 0
14437 14429 0
-14437 -14428 -14429 0
14473 14431 0
14473 14432 0
-14473 -14431 -14432 0
14471 14434 0
14471 14435 0
-14471 -14434 -14435 0
14436 14437 0
14436 14438 0
-14436 -14437 -14438 0
14439 14440 0
14439 14441 0
-14439 -14440 -14441 0
14452 14443 0
14452 14444 0
-14452 -14443 -14444 0
14455 14446 0
14455 14447 0
-14455 -14446 -14447 0
14458 14449 0
14458 14450 0
-14458 -14449 -14450 0
14481 14452 0
14481 14453 0
-14481 -14452 -14453 0
14479 14455 0
14479 14456 0
-14479 -14455 -14456 0
14457 14458 0
14457 14459 0
-14457 -14458 -14459 0
-14461 15122 0
14461 -15122 0
-14463 15287 0
14463 -15287 0
-14465 15104 0
14465 -15104 0
-14467 15290 0
14467 -15290 0
-14469 14563 0
14469 -14563 0
-14471 14571 0
14471 -14571 0
-14473 14527 0
14473 -14527 0
-14475 14531 0
14475 -14531 0
-14477 14535 0
14477 -14535 0
-14479 14543 0
14479 -14543 0
-14481 14551 0
14481 -14551 0
-14483 14559 0
14483 -14559 0
-14485 14567 0
14485 -14567 0
-14487 14575 0
14487 -14575 0
-14489 14579 0
14489 -14579 0
-14491 14583 0
14491 -14583 0
-14493 14539 0
14493 -14539 0
-14495 14547 0
14495 -14547 0
-14497 14555 0
14497 -14555 0
14587 14499 0
-14587 -14499 0
15234 14501 0
-15234 -14501 0
15410 14503 0
-15410 -14503 0
14589 14505 0
-14589 -14505 0
14591 14507 0
-14591 -14507 0
14593 14509 0
-14593 -14509 0
14595 14511 0
-14595 -14511 0
14597 14513 0
-14597 -14513 0
14599 14515 0
-14599 -14515 0
14601 14517 0
-14601 -14517 0
14603 14519 0
-14603 -14519 0
14605 14521 0
-14605 -14521 0
14522 14523 0
-14522 -14523 0
14524 14525 0
-14524 -14525 0
14529 14527 0
-14529 -14527 0
15129 14529 0
-15129 -14529 0
14533 14531 0
-14533 -14531 0
14981 14533 0
-14981 -14533 0
14537 14535 0
-14537 -14535 0
15052 14537 0
-15052 -14537 0
14541 14539 0
-14541 -14539 0
14990 14541 0
-14990 -14541 0
14545 14543 0
-14545 -14543 0
14984 14545 0
-14984 -14545 0
14549 14547 0
-14549 -14547 0
14993 14549 0
-14993 -14549 0
14553 14551 0
-14553 -14551 0
15199 14553 0
-15199 -14553 0
14557 14555 0
-14557 -14555 0
14996 14557 0
-14996 -14557 0
14561 14559 0
-14561 -14559 0
15202 14561 0
-15202 -14561 0
14565 14563 0
-14565 -14563 0
15046 14565 0
-15046 -14565 0
14569 14567 0
-14569 -14567 0
15055 14569 0
-15055 -14569 0
14573 14571 0
-14573 -14571 0
14978 14573 0
-14978 -14573 0
14577 14575 0
-14577 -14575 0
15132 14577 0
-15132 -14577 0
14581 14579 0
-14581 -14579 0
15049 14581 0
-15049 -14581 0
14585 14583 0
-14585 -14583 0
14987 14585 0
-14987 -14585 0
15267 14587 0
-15267 -14587 0
14619 14589 0
-14619 -14589 0
15271 14591 0
-15271 -14591 0
15276 14593 0
-15276 -14593 0
15232 14595 0
-15232 -14595 0
15144 14597 0
-15144 -14597 0
15094 14599 0
-15094 -14599 0
14973 14601 0
-14973 -14601 0
14974 14603 0
-14974 -14603 0
14975 14605 0
-14975 -14605 0
14977 14619 0
-14977 -14619 0
14980 14619 0
-14980 -14619 0
14983 14619 0
-14983 -14619 0
14986 14619 0
-14986 -14619 0
14989 14619 0
-14989 -14619 0
14992 14619 0
-14992 -14619 0
14995 14619 0
-14995 -14619 0
15210 15144 0
-15210 -15144 0
15211 15094 0
-15211 -15094 0
15151 14973 0
-15151 -14973 0
15320 14974 0
-15320 -14974 0
15239 14975 0
-15239 -14975 0
14673 14972 0
-14673 -14972 0
14635 14976 0
-14635 -14976 0
14675 14635 0
-14675 -14635 0
14639 14976 0
-14639 -14976 0
15030 14639 0
-15030 -14639 0
14643 14979 0
-14643 -14979 0
14679 14643 0
-14679 -14643 0
14647 14979 0
-14647 -14979 0
15033 14647 0
-15033 -14647 0
14651 14982 0
-14651 -14982 0
14683 14651 0
-14683 -14651 0
14655 14982 0
-14655 -14982 0
15036 14655 0
-15036 -14655 0
14659 14985 0
-14659 -14985 0
14658 14659 0
-14658 -14659 0
14663 14988 0
-14663 -14988 0
14662 14663 0
-14662 -14663 0
14667 14991 0
-14667 -14991 0
14666 14667 0
-14666 -14667 0
14671 14994 0
-14671 -14994 0
14670 14671 0
-14670 -14671 0
14687 14673 0
-14687 -14673 0
14677 14675 0
-14677 -14675 0
15278 14677 0
-15278 -14677 0
14681 14679 0
-14681 -14679 0
15273 14681 0
-15273 -14681 0
14685 14683 0
-14685 -14683 0
15253 14685 0
-15253 -14685 0
14689 14687 0
-14689 -14687 0
14688 14689 0
-14688 -14689 0
15348 15347 0
-15348 -15347 0
15351 15350 0
-15351 -15350 0
15168 15278 0
-15168 -15278 0
15112 15273 0
-15112 -15273 0
15246 15253 0
-15246 -15253 0
15354 15348 0
-15354 -15348 0
15357 15351 0
-15357 -15351 0
14707 15352 0
-14707 -15352 0
15039 14707 0
-15039 -14707 0
14711 15355 0
-14711 -15355 0
15042 14711 0
-15042 -14711 0
14717 15038 0
-14717 -15038 0
14719 15041 0
-14719 -15041 0
14721 14717 0
-14721 -14717 0
14725 14719 0
-14725 -14719 0
14723 14721 0
-14723 -14721 0
14729 14723 0
-14729 -14723 0
14727 14725 0
-14727 -14725 0
14733 14727 0
-14733 -14727 0
14731 14729 0
-14731 -14729 0
15117 14731 0
-15117 -14731 0
15360 14733 0
-15360 -14733 0
15363 15117 0
-15363 -15117 0
15045 15360 0
-15045 -15360 0
15051 15363 0
-15051 -15363 0
14743 15044 0
-14743 -15044 0
14773 14743 0
-14773 -14743 0
14747 15044 0
-14747 -15044 0
15057 14747 0
-15057 -14747 0
14751 15047 0
-14751 -15047 0
14777 14751 0
-14777 -14751 0
14755 15047 0
-14755 -15047 0
15060 14755 0
-15060 -14755 0
14759 15050 0
-14759 -15050 0
14781 14759 0
-14781 -14759 0
14763 15050 0
-14763 -15050 0
15063 14763 0
-15063 -14763 0
14767 15053 0
-14767 -15053 0
14785 14767 0
-14785 -14767 0
14771 15053 0
-14771 -15053 0
15066 14771 0
-15066 -14771 0
14775 14773 0
-14775 -14773 0
15282 14775 0
-15282 -14775 0
14779 14777 0
-14779 -14777 0
15087 14779 0
-15087 -14779 0
14783 14781 0
-14783 -14781 0
15272 14783 0
-15272 -14783 0
14787 14785 0
-14787 -14785 0
15191 14787 0
-15191 -14787 0
14797 15282 0
-14797 -15282 0
15265 15087 0
-15265 -15087 0
15118 15272 0
-15118 -15272 0
15269 15191 0
-15269 -15191 0
14801 14797 0
-14801 -14797 0
14803 15085 0
-14803 -15085 0
15303 14801 0
-15303 -14801 0
15467 14803 0
-15467 -14803 0
15366 15365 0
-15366 -15365 0
15369 15368 0
-15369 -15368 0
15372 15371 0
-15372 -15371 0
15375 15374 0
-15375 -15374 0
15378 15366 0
-15378 -15366 0
15381 15369 0
-15381 -15369 0
15384 15372 0
-15384 -15372 0
15387 15375 0
-15387 -15375 0
14823 15376 0
-14823 -15376 0
15125 14823 0
-15125 -14823 0
14827 15124 0
-14827 -15124 0
14829 14827 0
-14829 -14827 0
14831 14829 0
-14831 -14829 0
14833 14831 0
-14833 -14831 0
14835 14833 0
-14835 -14833 0
15173 14835 0
-15173 -14835 0
15390 15173 0
-15390 -15173 0
15128 15390 0
-15128 -15390 0
14843 15127 0
-14843 -15127 0
14857 14843 0
-14857 -14843 0
14847 15127 0
-14847 -15127 0
15134 14847 0
-15134 -14847 0
14851 15130 0
-14851 -15130 0
15160 14851 0
-15160 -14851 0
14855 15130 0
-14855 -15130 0
15137 14855 0
-15137 -14855 0
14859 14857 0
-14859 -14857 0
15277 14859 0
-15277 -14859 0
14863 15160 0
-14863 -15160 0
15435 14863 0
-15435 -14863 0
15174 15277 0
-15174 -15277 0
15281 15160 0
-15281 -15160 0
14871 15158 0
-14871 -15158 0
15465 14871 0
-15465 -14871 0
14881 15189 0
-14881 -15189 0
15393 15392 0
-15393 -15392 0
15396 15395 0
-15396 -15395 0
15399 15398 0
-15399 -15398 0
15463 14881 0
-15463 -14881 0
15402 15393 0
-15402 -15393 0
15405 15396 0
-15405 -15396 0
15408 15399 0
-15408 -15399 0
14891 15406 0
-14891 -15406 0
15195 14891 0
-15195 -14891 0
14895 15194 0
-14895 -15194 0
14897 14895 0
-14897 -14895 0
14899 14897 0
-14899 -14897 0
14901 14899 0
-14901 -14899 0
14903 14901 0
-14903 -14901 0
15251 14903 0
-15251 -14903 0
15411 15251 0
-15411 -15251 0
15198 15411 0
-15198 -15411 0
14911 15197 0
-14911 -15197 0
14925 14911 0
-14925 -14911 0
14915 15197 0
-14915 -15197 0
15204 14915 0
-15204 -14915 0
14919 15200 0
-14919 -15200 0
15235 14919 0
-15235 -14919 0
14923 15200 0
-14923 -15200 0
15207 14923 0
-15207 -14923 0
14927 14925 0
-14927 -14925 0
15223 14927 0
-15223 -14927 0
14931 15235 0
-14931 -15235 0
15431 14931 0
-15431 -14931 0
15252 15223 0
-15252 -15223 0
15268 15235 0
-15268 -15235 0
14945 15315 0
-14945 -15315 0
14947 15254 0
-14947 -15254 0
15414 15413 0
-15414 -15413 0
15417 15416 0
-15417 -15416 0
15453 14945 0
-15453 -14945 0
15461 14947 0
-15461 -14947 0
15420 15419 0
-15420 -15419 0
15423 15414 0
-15423 -15414 0
15426 15417 0
-15426 -15417 0
14963 15334 0
-14963 -15334 0
14965 15338 0
-14965 -15338 0
14967 15342 0
-14967 -15342 0
15429 15420 0
-15429 -15420 0
15455 14963 0
-15455 -14963 0
15457 14965 0
-15457 -14965 0
15459 14967 0
-15459 -14967 0
14971 15427 0
-14971 -15427 0
14970 14971 0
-14970 -14971 0
-14972 14973 0
-14972 14974 0
-14972 14975 0
14972 -14973 -14974 -14975 0
-14976 14977 0
-14976 14978 0
14976 -14977 -14978 0
-14979 14980 0
-14979 14981 0
14979 -14980 -14981 0
-14982 14983 0
-14982 14984 0
14982 -14983 -14984 0
-14985 14986 0
-14985 14987 0
14985 -14986 -14987 0
-14988 14989 0
-14988 14990 0
14988 -14989 -14990 0
-14991 14992 0
-14991 14993 0
14991 -14992 -14993 0
-14994 14995 0
-14994 14996 0
14994 -14995 -14996 0
-15312 15410 0
-15312 15151 0
15312 -15410 -15151 0
-15285 15410 0
-15285 15151 0
15285 -15410 -15151 0
-15293 15410 0
-15293 15151 0
15293 -15410 -15151 0
-15289 15410 0
-15289 15151 0
15289 -15410 -15151 0
-15313 15410 0
-15313 15210 0
-15313 15211 0
-15313 15239 0
15313 -15410 -15210 -15211 -15239 0
-15286 15410 0
-15286 15210 0
-15286 15094 0
-15286 15239 0
15286 -15410 -15210 -15094 -15239 0
-15295 15410 0
-15295 15144 0
-15295 15211 0
-15295 15239 0
15295 -15410 -15144 -15211 -15239 0
-15291 15410 0
-15291 15144 0
-15291 15094 0
-15291 15239 0
15291 -15410 -15144 -15094 -15239 0
-15029 15030 0
-15029 15031 0
15029 -15030 -15031 0
-15032 15033 0
-15032 15034 0
15032 -15033 -15034 0
-15035 15036 0
-15035 15037 0
15035 -15036 -15037 0
-15038 15039 0
-15038 15040 0
15038 -15039 -15040 0
-15041 15042 0
-15041 15043 0
15041 -15042 -15043 0
-15044 15045 0
-15044 15046 0
15044 -15045 -15046 0
-15047 15358 0
-15047 15049 0
15047 -15358 -15049 0
-15050 15051 0
-15050 15052 0
15050 -15051 -15052 0
-15053 15361 0
-15053 15055 0
15053 -15361 -15055 0
-15056 15057 0
-15056 15058 0
15056 -15057 -15058 0
-15059 15060 0
-15059 15061 0
15059 -15060 -15061 0
-15062 15063 0
-15062 15064 0
15062 -15063 -15064 0
-15065 15066 0
-15065 15067 0
15065 -15066 -15067 0
-15304 15360 0
-15304 15282 0
15304 -15360 -15282 0
-15331 15144 0
-15331 15094 0
-15331 15282 0
-15331 15239 0
15331 -15144 -15094 -15282 -15239 0
-15343 15234 0
-15343 15087 0
15343 -15234 -15087 0
-15344 15267 0
-15344 15087 0
15344 -15267 -15087 0
-15437 15234 0
-15437 15087 0
15437 -15234 -15087 0
-15085 15234 0
-15085 15087 0
15085 -15234 -15087 0
-15298 15363 0
-15298 15272 0
-15298 15273 0
15298 -15363 -15272 -15273 0
-15109 15210 0
-15109 15094 0
-15109 15272 0
15109 -15210 -15094 -15272 0
-15335 15234 0
-15335 15191 0
15335 -15234 -15191 0
-15336 15191 0
-15336 15271 0
15336 -15191 -15271 0
-15294 15234 0
-15294 15104 0
-15294 15265 0
15294 -15234 -15104 -15265 0
-15330 15273 0
-15330 15239 0
-15330 15109 0
15330 -15273 -15239 -15109 0
-15300 15118 0
-15300 15112 0
15300 -15118 -15112 0
-15297 15118 0
-15297 15273 0
15297 -15118 -15273 0
-15301 15117 0
-15301 15118 0
-15301 15273 0
15301 -15117 -15118 -15273 0
-15183 15234 0
-15183 15122 0
-15183 15269 0
15183 -15234 -15122 -15269 0
-15124 15125 0
-15124 15126 0
15124 -15125 -15126 0
-15127 15128 0
-15127 15129 0
15127 -15128 -15129 0
-15130 15388 0
-15130 15132 0
15130 -15388 -15132 0
-15133 15134 0
-15133 15135 0
15133 -15134 -15135 0
-15136 15137 0
-15136 15138 0
15136 -15137 -15138 0
-15307 15390 0
-15307 15277 0
-15307 15278 0
15307 -15390 -15277 -15278 0
-15165 15144 0
-15165 15211 0
-15165 15277 0
15165 -15144 -15211 -15277 0
-15243 15277 0
-15243 15278 0
-15243 15282 0
-15243 15151 0
15243 -15277 -15278 -15282 -15151 0
-15339 15234 0
-15339 15160 0
15339 -15234 -15160 0
-15340 15160 0
-15340 15276 0
15340 -15160 -15276 0
-15158 15234 0
-15158 15160 0
-15158 15265 0
15158 -15234 -15160 -15265 0
-15322 15278 0
-15322 15239 0
-15322 15165 0
15322 -15278 -15239 -15165 0
-15309 15174 0
-15309 15168 0
15309 -15174 -15168 0
-15306 15174 0
-15306 15278 0
15306 -15174 -15278 0
-15310 15173 0
-15310 15174 0
-15310 15278 0
15310 -15173 -15174 -15278 0
-15221 15269 0
-15221 15281 0
-15221 15265 0
15221 -15269 -15281 -15265 0
-15314 15281 0
-15314 15265 0
-15314 15183 0
15314 -15281 -15265 -15183 0
-15433 15234 0
-15433 15191 0
-15433 15281 0
-15433 15265 0
15433 -15234 -15191 -15281 -15265 0
-15189 15234 0
-15189 15191 0
-15189 15281 0
-15189 15265 0
15189 -15234 -15191 -15281 -15265 0
-15194 15195 0
-15194 15196 0
15194 -15195 -15196 0
-15197 15198 0
-15197 15199 0
15197 -15198 -15199 0
-15200 15409 0
-15200 15202 0
15200 -15409 -15202 0
-15203 15204 0
-15203 15205 0
15203 -15204 -15205 0
-15206 15207 0
-15206 15208 0
15206 -15207 -15208 0
-15240 15210 0
-15240 15211 0
-15240 15223 0
15240 -15210 -15211 -15223 0
-15325 15411 0
-15325 15223 0
-15325 15253 0
15325 -15411 -15223 -15253 0
-15318 15232 0
-15318 15223 0
-15318 15253 0
-15318 15221 0
15318 -15232 -15223 -15253 -15221 0
-15242 15223 0
-15242 15253 0
-15242 15272 0
-15242 15273 0
15242 -15223 -15253 -15272 -15273 0
-15316 15234 0
-15316 15235 0
15316 -15234 -15235 0
-15317 15235 0
-15317 15232 0
15317 -15235 -15232 0
-15257 15234 0
-15257 15235 0
-15257 15269 0
15257 -15234 -15235 -15269 0
-15321 15253 0
-15321 15239 0
-15321 15240 0
15321 -15253 -15239 -15240 0
-15332 15242 0
-15332 15243 0
15332 -15242 -15243 0
-15327 15252 0
-15327 15246 0
15327 -15252 -15246 0
-15324 15252 0
-15324 15253 0
15324 -15252 -15253 0
-15328 15251 0
-15328 15252 0
-15328 15253 0
15328 -15251 -15252 -15253 0
-15254 15281 0
-15254 15265 0
-15254 15257 0
15254 -15281 -15265 -15257 0
-15274 15268 0
-15274 15281 0
-15274 15265 0
15274 -15268 -15281 -15265 0
-15279 15268 0
-15279 15269 0
-15279 15265 0
15279 -15268 -15269 -15265 0
-15283 15267 0
-15283 15268 0
-15283 15269 0
15283 -15267 -15268 -15269 0
-15337 15271 0
-15337 15272 0
-15337 15273 0
-15337 15274 0
15337 -15271 -15272 -15273 -15274 0
-15341 15276 0
-15341 15277 0
-15341 15278 0
-15341 15279 0
15341 -15276 -15277 -15278 -15279 0
-15345 15281 0
-15345 15282 0
-15345 15283 0
15345 -15281 -15282 -15283 0
15347 -15285 0
15347 -15286 0
15347 -15287 0
-15347 15285 15286 15287 0
15350 -15289 0
15350 -15290 0
15350 -15291 0
-15350 15289 15290 15291 0
15365 -15293 0
15365 -15294 0
15365 -15295 0
-15365 15293 15294 15295 0
15368 -15297 0
15368 -15298 0
-15368 15297 15298 0
15371 -15300 0
15371 -15301 0
-15371 15300 15301 0
15374 -15303 0
15374 -15304 0
-15374 15303 15304 0
15392 -15306 0
15392 -15307 0
-15392 15306 15307 0
15395 -15309 0
15395 -15310 0
-15395 15309 15310 0
15398 -15312 0
15398 -15313 0
15398 -15314 0
-15398 15312 15313 15314 0
15315 -15316 0
15315 -15317 0
15315 -15318 0
-15315 15316 15317 15318 0
15333 -15320 0
15333 -15321 0
15333 -15322 0
-15333 15320 15321 15322 0
15413 -15324 0
15413 -15325 0
-15413 15324 15325 0
15416 -15327 0
15416 -15328 0
-15416 15327 15328 0
15419 -15330 0
15419 -15331 0
15419 -15332 0
15419 -15333 0
-15419 15330 15331 15332 15333 0
15334 -15335 0
15334 -15336 0
15334 -15337 0
-15334 15335 15336 15337 0
15338 -15339 0
15338 -15340 0
15338 -15341 0
-15338 15339 15340 15341 0
15342 -15343 0
15342 -15344 0
15342 -15345 0
-15342 15343 15344 15345 0
15353 15347 0
15353 15348 0
-15353 -15347 -15348 0
15356 15350 0
15356 15351 0
-15356 -15350 -15351 0
15352 15353 0
15352 15354 0
-15352 -15353 -15354 0
15355 15356 0
15355 15357 0
-15355 -15356 -15357 0
15358 15410 0
15358 15360 0
-15358 -15410 -15360 0
15361 15410 0
15361 15363 0
-15361 -15410 -15363 0
15377 15365 0
15377 15366 0
-15377 -15365 -15366 0
15380 15368 0
15380 15369 0
-15380 -15368 -15369 0
15383 15371 0
15383 15372 0
-15383 -15371 -15372 0
15386 15374 0
15386 15375 0
-15386 -15374 -15375 0
15376 15377 0
15376 15378 0
-15376 -15377 -15378 0
15447 15380 0
15447 15381 0
-15447 -15380 -15381 0
15445 15383 0
15445 15384 0
-15445 -15383 -15384 0
15439 15386 0
15439 15387 0
-15439 -15386 -15387 0
15388 15410 0
15388 15390 0
-15388 -15410 -15390 0
15401 15392 0
15401 15393 0
-15401 -15392 -15393 0
15404 15395 0
15404 15396 0
-15404 -15395 -15396 0
15407 15398 0
15407 15399 0
-15407 -15398 -15399 0
15443 15401 0
15443 15402 0
-15443 -15401 -15402 0
15441 15404 0
15441 15405 0
-15441 -15404 -15405 0
15406 15407 0
15406 15408 0
-15406 -15407 -15408 0
15409 15410 0
15409 15411 0
-15409 -15410 -15411 0
15422 15413 0
15422 15414 0
-15422 -15413 -15414 0
15425 15416 0
15425 15417 0
-15425 -15416 -15417 0
15428 15419 0
15428 15420 0
-15428 -15419 -15420 0
15451 15422 0
15451 15423 0
-15451 -15422 -15423 0
15449 15425 0
15449 15426 0
-15449 -15425 -15426 0
15427 15428 0
15427 15429 0
-15427 -15428 -15429 0
-15431 16092 0
15431 -16092 0
-15433 16257 0
15433 -16257 0
-15435 16074 0
15435 -16074 0
-15437 16260 0
15437 -16260 0
-15439 15533 0
15439 -15533 0
-15441 15541 0
15441 -15541 0
-15443 15497 0
15443 -15497 0
-15445 15501 0
15445 -15501 0
-15447 15505 0
15447 -15505 0
-15449 15513 0
15449 -15513 0
-15451 15521 0
15451 -15521 0
-15453 15529 0
15453 -15529 0
-15455 15537 0
15455 -15537 0
-15457 15545 0
15457 -15545 0
-15459 15549 0
15459 -15549 0
-15461 15553 0
15461 -15553 0
-15463 15509 0
15463 -15509 0
-15465 15517 0
15465 -15517 0
-15467 15525 0
15467 -15525 0
15557 15469 0
-15557 -15469 0
16204 15471 0
-16204 -15471 0
16380 15473 0
-16380 -15473 0
15559 15475 0
-15559 -15475 0
15561 15477 0
-15561 -15477 0
15563 15479 0
-15563 -15479 0
15565 15481 0
-15565 -15481 0
15567 15483 0
-15567 -15483 0
15569 15485 0
-15569 -15485 0
15571 15487 0
-15571 -15487 0
15573 15489 0
-15573 -15489 0
15575 15491 0
-15575 -15491 0
15492 15493 0
-15492 -15493 0
15494 15495 0
-15494 -15495 0
15499 15497 0
-15499 -15497 0
16099 15499 0
-16099 -15499 0
15503 15501 0
-15503 -15501 0
15951 15503 0
-15951 -15503 0
15507 15505 0
-15507 -15505 0
16022 15507 0
-16022 -15507 0
15511 15509 0
-15511 -15509 0
15960 15511 0
-15960 -15511 0
15515 15513 0
-15515 -15513 0
15954 15515 0
-15954 -15515 0
15519 15517 0
-15519 -15517 0
15963 15519 0
-15963 -15519 0
15523 15521 0
-15523 -15521 0
16169 15523 0
-16169 -15523 0
15527 15525 0
-15527 -15525 0
15966 15527 0
-15966 -15527 0
15531 15529 0
-15531 -15529 0
16172 15531 0
-16172 -15531 0
15535 15533 0
-15535 -15533 0
16016 15535 0
-16016 -15535 0
15539 15537 0
-15539 -15537 0
16025 15539 0
-16025 -15539 0
15543 15541 0
-15543 -15541 0
15948 15543 0
-15948 -15543 0
15547 15545 0
-15547 -15545 0
16102 15547 0
-16102 -15547 0
15551 15549 0
-15551 -15549 0
16019 15551 0
-16019 -15551 0
15555 15553 0
-15555 -15553 0
15957 15555 0
-15957 -15555 0
16237 15557 0
-16237 -15557 0
15589 15559 0
-15589 -15559 0
16241 15561 0
-16241 -15561 0
16246 15563 0
-16246 -15563 0
16202 15565 0
-16202 -15565 0
16114 15567 0
-16114 -15567 0
16064 15569 0
-16064 -15569 0
15943 15571 0
-15943 -15571 0
15944 15573 0
-15944 -15573 0
15945 15575 0
-15945 -15575 0
15947 15589 0
-15947 -15589 0
15950 15589 0
-15950 -15589 0
15953 15589 0
-15953 -15589 0
15956 15589 0
-15956 -15589 0
15959 15589 0
-15959 -15589 0
15962 15589 0
-15962 -15589 0
15965 15589 0
-15965 -15589 0
16180 16114 0
-16180 -16114 0
16181 16064 0
-16181 -16064 0
16121 15943 0
-16121 -15943 0
16290 15944 0
-16290 -15944 0
16209 15945 0
-16209 -15945 0
15643 15942 0
-15643 -15942 0
15605 15946 0
-15605 -15946 0
15645 15605 0
-15645 -15605 0
15609 15946 0
-15609 -15946 0
16000 15609 0
-16000 -15609 0
15613 15949 0
-15613 -15949 0
15649 15613 0
-15649 -15613 0
15617 15949 0
-15617 -15949 0
16003 15617 0
-16003 -15617 0
15621 15952 0
-15621 -15952 0
15653 15621 0
-15653 -15621 0
15625 15952 0
-15625 -15952 0
16006 15625 0
-16006 -15625 0
15629 15955 0
-15629 -15955 0
15628 15629 0
-15628 -15629 0
15633 15958 0
-15633 -15958 0
15632 15633 0
-15632 -15633 0
15637 15961 0
-15637 -15961 0
15636 15637 0
-15636 -15637 0
15641 15964 0
-15641 -15964 0
15640 15641 0
-15640 -15641 0
15657 15643 0
-15657 -15643 0
15647 15645 0
-15647 -15645 0
16248 15647 0
-16248 -15647 0
15651 15649 0
-15651 -15649 0
16243 15651 0
-16243 -15651 0
15655 15653 0
-15655 -15653 0
16223 15655 0
-16223 -15655 0
15659 15657 0
-15659 -15657 0
15658 15659 0
-15658 -15659 0
16318 16317 0
-16318 -16317 0
16321 16320 0
-16321 -16320 0
16138 16248 0
-16138 -16248 0
16082 16243 0
-16082 -16243 0
16216 16223 0
-16216 -16223 0
16324 16318 0
-16324 -16318 0
16327 16321 0
-16327 -16321 0
15677 16322 0
-15677 -16322 0
16009 15677 0
-16009 -15677 0
15681 16325 0
-15681 -16325 0
16012 15681 0
-16012 -15681 0
15687 16008 0
-15687 -16008 0
15689 16011 0
-15689 -16011 0
15691 15687 0
-15691 -15687 0
15695 15689 0
-15695 -15689 0
15693 15691 0
-15693 -15691 0
15699 15693 0
-15699 -15693 0
15697 15695 0
-15697 -15695 0
15703 15697 0
-15703 -15697 0
15701 15699 0
-15701 -15699 0
16087 15701 0
-16087 -15701 0
16330 15703 0
-16330 -15703 0
16333 16087 0
-16333 -16087 0
16015 16330 0
-16015 -16330 0
16021 16333 0
-16021 -16333 0
15713 16014 0
-15713 -16014 0
15743 15713 0
-15743 -15713 0
15717 16014 0
-15717 -16014 0
16027 15717 0
-16027 -15717 0
15721 16017 0
-15721 -16017 0
15747 15721 0
-15747 -15721 0
15725 16017 0
-15725 -16017 0
16030 15725 0
-16030 -15725 0
15729 16020 0
-15729 -16020 0
15751 15729 0
-15751 -15729 0
15733 16020 0
-15733 -16020 0
16033 15733 0
-16033 -15733 0
15737 16023 0
-15737 -16023 0
15755 15737 0
-15755 -15737 0
15741 16023 0
-15741 -16023 0
16036 15741 0
-16036 -15741 0
15745 15743 0
-15745 -15743 0
16252 15745 0
-16252 -15745 0
15749 15747 0
-15749 -15747 0
16057 15749 0
-16057 -15749 0
15753 15751 0
-15753 -15751 0
16242 15753 0
-16242 -15753 0
15757 15755 0
-15757 -15755 0
16161 15757 0
-16161 -15757 0
15767 16252 0
-15767 -16252 0
16235 16057 0
-16235 -16057 0
16088 16242 0
-16088 -16242 0
16239 16161 0
-16239 -16161 0
15771 15767 0
-15771 -15767 0
15773 16055 0
-15773 -16055 0
16273 15771 0
-16273 -15771 0
16437 15773 0
-16437 -15773 0
16336 16335 0
-16336 -16335 0
16339 16338 0
-16339 -16338 0
16342 16341 0
-16342 -16341 0
16345 16344 0
-16345 -16344 0
16348 16336 0
-16348 -16336 0
16351 16339 0
-16351 -16339 0
16354 16342 0
-16354 -16342 0
16357 16345 0
-16357 -16345 0
15793 16346 0
-15793 -16346 0
16095 15793 0
-16095 -15793 0
15797 16094 0
-15797 -16094 0
15799 15797 0
-15799 -15797 0
15801 15799 0
-15801 -15799 0
15803 15801 0
-15803 -15801 0
15805 15803 0
-15805 -15803 0
16143 15805 0
-16143 -15805 0
16360 16143 0
-16360 -16143 0
16098 16360 0
-16098 -16360 0
15813 16097 0
-15813 -16097 0
15827 15813 0
-15827 -15813 0
15817 16097 0
-15817 -16097 0
16104 15817 0
-16104 -15817 0
15821 16100 0
-15821 -16100 0
16130 15821 0
-16130 -15821 0
15825 16100 0
-15825 -16100 0
16107 15825 0
-16107 -15825 0
15829 15827 0
-15829 -15827 0
16247 15829 0
-16247 -15829 0
15833 16130 0
-15833 -16130 0
16405 15833 0
-16405 -15833 0
16144 16247 0
-16144 -16247 0
16251 16130 0
-16251 -16130 0
15841 16128 0
-15841 -16128 0
16435 15841 0
-16435 -15841 0
15851 16159 0
-15851 -16159 0
16363 16362 0
-16363 -16362 0
16366 16365 0
-16366 -16365 0
16369 16368 0
-16369 -16368 0
16433 15851 0
-16433 -15851 0
16372 16363 0
-16372 -16363 0
16375 16366 0
-16375 -16366 0
16378 16369 0
-16378 -16369 0
15861 16376 0
-15861 -16376 0
16165 15861 0
-16165 -15861 0
15865 16164 0
-15865 -16164 0
15867 15865 0
-15867 -15865 0
15869 15867 0
-15869 -15867 0
15871 15869 0
-15871 -15869 0
15873 15871 0
-15873 -15871 0
16221 15873 0
-16221 -15873 0
16381 16221 0
-16381 -16221 0
16168 16381 0
-16168 -16381 0
15881 16167 0
-15881 -16167 0
15895 15881 0
-15895 -15881 0
15885 16167 0
-15885 -16167 0
16174 15885 0
-16174 -15885 0
15889 16170 0
-15889 -16170 0
16205 15889 0
-16205 -15889 0
15893 16170 0
-15893 -16170 0
16177 15893 0
-16177 -15893 0
15897 15895 0
-15897 -15895 0
16193 15897 0
-16193 -15897 0
15901 16205 0
-15901 -16205 0
16401 15901 0
-16401 -15901 0
16222 16193 0
-16222 -16193 0
16238 16205 0
-16238 -16205 0
15915 16285 0
-15915 -16285 0
15917 16224 0
-15917 -16224 0
16384 16383 0
-16384 -16383 0
16387 16386 0
-16387 -16386 0
16423 15915 0
-16423 -15915 0
16431 15917 0
-16431 -15917 0
16390 16389 0
-16390 -16389 0
16393 16384 0
-16393 -16384 0
16396 16387 0
-16396 -16387 0
15933 16304 0
-15933 -16304 0
15935 16308 0
-15935 -16308 0
15937 16312 0
-15937 -16312 0
16399 16390 0
-16399 -16390 0
16425 15933 0
-16425 -15933 0
16427 15935 0
-16427 -15935 0
16429 15937 0
-16429 -15937 0
15941 16397 0
-15941 -16397 0
15940 15941 0
-15940 -15941 0
-15942 15943 0
-15942 15944 0
-15942 15945 0
15942 -15943 -15944 -15945 0
-15946 15947 0
-15946 15948 0
15946 -15947 -15948 0
-15949 15950 0
-15949 15951 0
15949 -15950 -15951 0
-15952 15953 0
-15952 15954 0
15952 -15953 -15954 0
-15955 15956 0
-15955 15957 0
15955 -15956 -15957 0
-15958 15959 0
-15958 15960 0
15958 -15959 -15960 0
-15961 15962 0
-15961 15963 0
15961 -15962 -15963 0
-15964 15965 0
-15964 15966 0
15964 -15965 -15966 0
-16282 16380 0
-16282 16121 0
16282 -16380 -16121 0
-16255 16380 0
-16255 16121 0
16255 -16380 -16121 0
-16263 16380 0
-16263 16121 0
16263 -16380 -16121 0
-16259 16380 0
-16259 16121 0
16259 -16380 -16121 0
-16283 16380 0
-16283 16180 0
-16283 16181 0
-16283 16209 0
16283 -16380 -16180 -16181 -16209 0
-16256 16380 0
-16256 16180 0
-16256 16064 0
-16256 16209 0
16256 -16380 -16180 -16064 -16209 0
-16265 16380 0
-16265 16114 0
-16265 16181 0
-16265 16209 0
16265 -16380 -16114 -16181 -16209 0
-16261 16380 0
-16261 16114 0
-16261 16064 0
-16261 16209 0
16261 -16380 -16114 -16064 -16209 0
-15999 16000 0
-15999 16001 0
15999 -16000 -16001 0
-16002 16003 0
-16002 16004 0
16002 -16003 -16004 0
-16005 16006 0
-16005 16007 0
16005 -16006 -16007 0
-16008 16009 0
-16008 16010 0
16008 -16009 -16010 0
-16011 16012 0
-16011 16013 0
16011 -16012 -16013 0
-16014 16015 0
-16014 16016 0
16014 -16015 -16016 0
-16017 16328 0
-16017 16019 0
16017 -16328 -16019 0
-16020 16021 0
-16020 16022 0
16020 -16021 -16022 0
-16023 16331 0
-16023 16025 0
16023 -16331 -16025 0
-16026 16027 0
-16026 16028 0
16026 -16027 -16028 0
-16029 16030 0
-16029 16031 0
16029 -16030 -16031 0
-16032 16033 0
-16032 16034 0
16032 -16033 -16034 0
-16035 16036 0
-16035 16037 0
16035 -16036 -16037 0
-16274 16330 0
-16274 16252 0
16274 -16330 -16252 0
-16301 16114 0
-16301 16064 0
-16301 16252 0
-16301 16209 0
16301 -16114 -16064 -16252 -16209 0
-16313 16204 0
-16313 16057 0
16313 -16204 -16057 0
-16314 16237 0
-16314 16057 0
16314 -16237 -16057 0
-16407 16204 0
-16407 16057 0
16407 -16204 -16057 0
-16055 16204 0
-16055 16057 0
16055 -16204 -16057 0
-16268 16333 0
-16268 16242 0
-16268 16243 0
16268 -16333 -16242 -16243 0
-16079 16180 0
-16079 16064 0
-16079 16242 0
16079 -16180 -16064 -16242 0
-16305 16204 0
-16305 16161 0
16305 -16204 -16161 0
-16306 16161 0
-16306 16241 0
16306 -16161 -16241 0
-16264 16204 0
-16264 16074 0
-16264 16235 0
16264 -16204 -16074 -16235 0
-16300 16243 0
-16300 16209 0
-16300 16079 0
16300 -16243 -16209 -16079 0
-16270 16088 0
-16270 16082 0
16270 -16088 -16082 0
-16267 16088 0
-16267 16243 0
16267 -16088 -16243 0
-16271 16087 0
-16271 16088 0
-16271 16243 0
16271 -16087 -16088 -16243 0
-16153 16204 0
-16153 16092 0
-16153 16239 0
16153 -16204 -16092 -16239 0
-16094 16095 0
-16094 16096 0
16094 -16095 -16096 0
-16097 16098 0
-16097 16099 0
16097 -16098 -16099 0
-16100 16358 0
-16100 16102 0
16100 -16358 -16102 0
-16103 16104 0
-16103 16105 0
16103 -16104 -16105 0
-16106 16107 0
-16106 16108 0
16106 -16107 -16108 0
-16277 16360 0
-16277 16247 0
-16277 16248 0
16277 -16360 -16247 -16248 0
-16135 16114 0
-16135 16181 0
-16135 16247 0
16135 -16114 -16181 -16247 0
-16213 16247 0
-16213 16248 0
-16213 16252 0
-16213 16121 0
16213 -16247 -16248 -16252 -16121 0
-16309 16204 0
-16309 16130 0
16309 -16204 -16130 0
-16310 16130 0
-16310 16246 0
16310 -16130 -16246 0
-16128 16204 0
-16128 16130 0
-16128 16235 0
16128 -16204 -16130 -16235 0
-16292 16248 0
-16292 16209 0
-16292 16135 0
16292 -16248 -16209 -16135 0
-16279 16144 0
-16279 16138 0
16279 -16144 -16138 0
-16276 16144 0
-16276 16248 0
16276 -16144 -16248 0
-16280 16143 0
-16280 16144 0
-16280 16248 0
16280 -16143 -16144 -16248 0
-16191 16239 0
-16191 16251 0
-16191 16235 0
16191 -16239 -16251 -16235 0
-16284 16251 0
-16284 16235 0
-16284 16153 0
16284 -16251 -16235 -16153 0
-16403 16204 0
-16403 16161 0
-16403 16251 0
-16403 16235 0
16403 -16204 -16161 -16251 -16235 0
-16159 16204 0
-16159 16161 0
-16159 16251 0
-16159 16235 0
16159 -16204 -16161 -16251 -16235 0
-16164 16165 0
-16164 16166 0
16164 -16165 -16166 0
-16167 16168 0
-16167 16169 0
16167 -16168 -16169 0
-16170 16379 0
-16170 16172 0
16170 -16379 -16172 0
-16173 16174 0
-16173 16175 0
16173 -16174 -16175 0
-16176 16177 0
-16176 16178 0
16176 -16177 -16178 0
-16210 16180 0
-16210 16181 0
-16210 16193 0
16210 -16180 -16181 -16193 0
-16295 16381 0
-16295 16193 0
-16295 16223 0
16295 -16381 -16193 -16223 0
-16288 16202 0
-16288 16193 0
-16288 16223 0
-16288 16191 0
16288 -16202 -16193 -16223 -16191 0
-16212 16193 0
-16212 16223 0
-16212 16242 0
-16212 16243 0
16212 -16193 -16223 -16242 -16243 0
-16286 16204 0
-16286 16205 0
16286 -16204 -16205 0
-16287 16205 0
-16287 16202 0
16287 -16205 -16202 0
-16227 16204 0
-16227 16205 0
-16227 16239 0
16227 -16204 -16205 -16239 0
-16291 16223 0
-16291 16209 0
-16291 16210 0
16291 -16223 -16209 -16210 0
-16302 16212 0
-16302 16213 0
16302 -16212 -16213 0
-16297 16222 0
-16297 16216 0
16297 -16222 -16216 0
-16294 16222 0
-16294 16223 0
16294 -16222 -16223 0
-16298 16221 0
-16298 16222 0
-16298 16223 0
16298 -16221 -16222 -16223 0
-16224 16251 0
-16224 16235 0
-16224 16227 0
16224 -16251 -16235 -16227 0
-16244 16238 0
-16244 16251 0
-16244 16235 0
16244 -16238 -16251 -16235 0
-16249 16238 0
-16249 16239 0
-16249 16235 0
16249 -16238 -16239 -16235 0
-16253 16237 0
-16253 16238 0
-16253 16239 0
16253 -16237 -16238 -16239 0
-16307 16241 0
-16307 16242 0
-16307 16243 0
-16307 16244 0
16307 -16241 -16242 -16243 -16244 0
-16311 16246 0
-16311 16247 0
-16311 16248 0
-16311 16249 0
16311 -16246 -16247 -16248 -16249 0
-16315 16251 0
-16315 16252 0
-16315 16253 0
16315 -16251 -16252 -16253 0
16317 -16255 0
16317 -16256 0
16317 -16257 0
-16317 16255 16256 16257 0
16320 -16259 0
16320 -16260 0
16320 -16261 0
-16320 16259 16260 16261 0
16335 -16263 0
16335 -16264 0
16335 -16265 0
-16335 16263 16264 16265 0
16338 -16267 0
16338 -16268 0
-16338 16267 16268 0
16341 -16270 0
16341 -16271 0
-16341 16270 16271 0
16344 -16273 0
16344 -16274 0
-16344 16273 16274 0
16362 -16276 0
16362 -16277 0
-16362 16276 16277 0
16365 -16279 0
16365 -16280 0
-16365 16279 16280 0
16368 -16282 0
16368 -16283 0
16368 -16284 0
-16368 16282 16283 16284 0
16285 -16286 0
16285 -16287 0
16285 -16288 0
-16285 16286 16287 16288 0
16303 -16290 0
16303 -16291 0
16303 -16292 0
-16303 16290 16291 16292 0
16383 -16294 0
16383 -16295 0
-16383 16294 16295 0
16386 -16297 0
16386 -16298 0
-16386 16297 16298 0
16389 -16300 0
16389 -16301 0
16389 -16302 0
16389 -16303 0
-16389 16300 16301 16302 16303 0
16304 -16305 0
16304 -16306 0
16304 -16307 0
-16304 16305 16306 16307 0
16308 -16309 0
16308 -16310 0
16308 -16311 0
-16308 16309 16310 16311 0
16312 -16313 0
16312 -16314 0
16312 -16315 0
-16312 16313 16314 16315 0
16323 16317 0
16323 16318 0
-16323 -16317 -16318 0
16326 16320 0
16326 16321 0
-16326 -16320 -16321 0
16322 16323 0
16322 16324 0
-16322 -16323 -16324 0
16325 16326 0
16325 16327 0
-16325 -16326 -16327 0
16328 16380 0
16328 16330 0
-16328 -16380 -16330 0
16331 16380 0
16331 16333 0
-16331 -16380 -16333 0
16347 16335 0
16347 16336 0
-16347 -16335 -16336 0
16350 16338 0
16350 16339 0
-16350 -16338 -16339 0
16353 16341 0
16353 16342 0
-16353 -16341 -16342 0
16356 16344 0
16356 16345 0
-16356 -16344 -16345 0
16346 16347 0
16346 16348 0
-16346 -16347 -16348 0
16417 16350 0
16417 16351 0
-16417 -16350 -16351 0
16415 16353 0
16415 16354 0
-16415 -16353 -16354 0
16409 16356 0
16409 16357 0
-16409 -16356 -16357 0
16358 16380 0
16358 16360 0
-16358 -16380 -16360 0
16371 16362 0
16371 16363 0
-16371 -16362 -16363 0
16374 16365 0
16374 16366 0
-16374 -16365 -16366 0
16377 16368 0
16377 16369 0
-16377 -16368 -16369 0
16413 16371 0
16413 16372 0
-16413 -16371 -16372 0
16411 16374 0
16411 16375 0
-16411 -16374 -16375 0
16376 16377 0
16376 16378 0
-16376 -16377 -16378 0
16379 16380 0
16379 16381 0
-16379 -16380 -16381 0
16392 16383 0
16392 16384 0
-16392 -16383 -16384 0
16395 16386 0
16395 16387 0
-16395 -16386 -16387 0
16398 16389 0
16398 16390 0
-16398 -16389 -16390 0
16421 16392 0
16421 16393 0
-16421 -16392 -16393 0
16419 16395 0
16419 16396 0
-16419 -16395 -16396 0
16397 16398 0
16397 16399 0
-16397 -16398 -16399 0
-16401 17062 0
16401 -17062 0
-16403 17227 0
16403 -17227 0
-16405 17044 0
16405 -17044 0
-16407 17230 0
16407 -17230 0
-16409 16503 0
16409 -16503 0
-16411 16511 0
16411 -16511 0
-16413 16467 0
16413 -16467 0
-16415 16471 0
16415 -16471 0
-16417 16475 0
16417 -16475 0
-16419 16483 0
16419 -16483 0
-16421 16491 0
16421 -16491 0
-16423 16499 0
16423 -16499 0
-16425 16507 0
16425 -16507 0
-16427 16515 0
16427 -16515 0
-16429 16519 0
16429 -16519 0
-16431 16523 0
16431 -16523 0
-16433 16479 0
16433 -16479 0
-16435 16487 0
16435 -16487 0
-16437 16495 0
16437 -16495 0
16527 16439 0
-16527 -16439 0
17174 16441 0
-17174 -16441 0
17350 16443 0
-17350 -16443 0
16529 16445 0
-16529 -16445 0
16531 16447 0
-16531 -16447 0
16533 16449 0
-16533 -16449 0
16535 16451 0
-16535 -16451 0
16537 16453 0
-16537 -16453 0
16539 16455 0
-16539 -16455 0
16541 16457 0
-16541 -16457 0
16543 16459 0
-16543 -16459 0
16545 16461 0
-16545 -16461 0
16462 16463 0
-16462 -16463 0
16464 16465 0
-16464 -16465 0
16469 16467 0
-16469 -16467 0
17069 16469 0
-17069 -16469 0
16473 16471 0
-16473 -16471 0
16921 16473 0
-16921 -16473 0
16477 16475 0
-16477 -16475 0
16992 16477 0
-16992 -16477 0
16481 16479 0
-16481 -16479 0
16930 16481 0
-16930 -16481 0
16485 16483 0
-16485 -16483 0
16924 16485 0
-16924 -16485 0
16489 16487 0
-16489 -16487 0
16933 16489 0
-16933 -16489 0
16493 16491 0
-16493 -16491 0
17139 16493 0
-17139 -16493 0
16497 16495 0
-16497 -16495 0
16936 16497 0
-16936 -16497 0
16501 16499 0
-16501 -16499 0
17142 16501 0
-17142 -16501 0
16505 16503 0
-16505 -16503 0
16986 16505 0
-16986 -16505 0
16509 16507 0
-16509 -16507 0
16995 16509 0
-16995 -16509 0
16513 16511 0
-16513 -16511 0
16918 16513 0
-16918 -16513 0
16517 16515 0
-16517 -16515 0
17072 16517 0
-17072 -16517 0
16521 16519 0
-16521 -16519 0
16989 16521 0
-16989 -16521 0
16525 16523 0
-16525 -16523 0
16927 16525 0
-16927 -16525 0
17207 16527 0
-17207 -16527 0
16559 16529 0
-16559 -16529 0
17211 16531 0
-17211 -16531 0
17216 16533 0
-17216 -16533 0
17172 16535 0
-17172 -16535 0
17084 16537 0
-17084 -16537 0
17034 16539 0
-17034 -16539 0
16913 16541 0
-16913 -16541 0
16914 16543 0
-16914 -16543 0
16915 16545 0
-16915 -16545 0
16917 16559 0
-16917 -16559 0
16920 16559 0
-16920 -16559 0
16923 16559 0
-16923 -16559 0
16926 16559 0
-16926 -16559 0
16929 16559 0
-16929 -16559 0
16932 16559 0
-16932 -16559 0
16935 16559 0
-16935 -16559 0
17150 17084 0
-17150 -17084 0
17151 17034 0
-17151 -17034 0
17091 16913 0
-17091 -16913 0
17260 16914 0
-17260 -16914 0
17179 16915 0
-17179 -16915 0
16613 16912 0
-16613 -16912 0
16575 16916 0
-16575 -16916 0
16615 16575 0
-16615 -16575 0
16579 16916 0
-16579 -16916 0
16970 16579 0
-16970 -16579 0
16583 16919 0
-16583 -16919 0
16619 16583 0
-16619 -16583 0
16587 16919 0
-16587 -16919 0
16973 16587 0
-16973 -16587 0
16591 16922 0
-16591 -16922 0
16623 16591 0
-16623 -16591 0
16595 16922 0
-16595 -16922 0
16976 16595 0
-16976 -16595 0
16599 16925 0
-16599 -16925 0
16598 16599 0
-16598 -16599 0
16603 16928 0
-16603 -16928 0
16602 16603 0
-16602 -16603 0
16607 16931 0
-16607 -16931 0
16606 16607 0
-16606 -16607 0
16611 16934 0
-16611 -16934 0
16610 16611 0
-16610 -16611 0
16627 16613 0
-16627 -16613 0
16617 16615 0
-16617 -16615 0
17218 16617 0
-17218 -16617 0
16621 16619 0
-16621 -16619 0
17213 16621 0
-17213 -16621 0
16625 16623 0
-16625 -16623 0
17193 16625 0
-17193 -16625 0
16629 16627 0
-16629 -16627 0
16628 16629 0
-16628 -16629 0
17288 17287 0
-17288 -17287 0
17291 17290 0
-17291 -17290 0
17108 17218 0
-17108 -17218 0
17052 17213 0
-17052 -17213 0
17186 17193 0
-17186 -17193 0
17294 17288 0
-17294 -17288 0
17297 17291 0
-17297 -17291 0
16647 17292 0
-16647 -17292 0
16979 16647 0
-16979 -16647 0
16651 17295 0
-16651 -17295 0
16982 16651 0
-16982 -16651 0
16657 16978 0
-16657 -16978 0
16659 16981 0
-16659 -16981 0
16661 16657 0
-16661 -16657 0
16665 16659 0
-16665 -16659 0
16663 16661 0
-16663 -16661 0
16669 16663 0
-16669 -16663 0
16667 16665 0
-16667 -16665 0
16673 16667 0
-16673 -16667 0
16671 16669 0
-16671 -16669 0
17057 16671 0
-17057 -16671 0
17300 16673 0
-17300 -16673 0
17303 17057 0
-17303 -17057 0
16985 17300 0
-16985 -17300 0
16991 17303 0
-16991 -17303 0
16683 16984 0
-16683 -16984 0
16713 16683 0
-16713 -16683 0
16687 16984 0
-16687 -16984 0
16997 16687 0
-16997 -16687 0
16691 16987 0
-16691 -16987 0
16717 16691 0
-16717 -16691 0
16695 16987 0
-16695 -16987 0
17000 16695 0
-17000 -16695 0
16699 16990 0
-16699 -16990 0
16721 16699 0
-16721 -16699 0
16703 16990 0
-16703 -16990 0
17003 16703 0
-17003 -16703 0
16707 16993 0
-16707 -16993 0
16725 16707 0
-16725 -16707 0
16711 16993 0
-16711 -16993 0
17006 16711 0
-17006 -16711 0
16715 16713 0
-16715 -16713 0
17222 16715 0
-17222 -16715 0
16719 16717 0
-16719 -16717 0
17027 16719 0
-17027 -16719 0
16723 16721 0
-16723 -16721 0
17212 16723 0
-17212 -16723 0
16727 16725 0
-16727 -16725 0
17131 16727 0
-17131 -16727 0
16737 17222 0
-16737 -17222 0
17205 17027 0
-17205 -17027 0
17058 17212 0
-17058 -17212 0
17209 17131 0
-17209 -17131 0
16741 16737 0
-16741 -16737 0
16743 17025 0
-16743 -17025 0
17243 16741 0
-17243 -16741 0
17407 16743 0
-17407 -16743 0
17306 17305 0
-17306 -17305 0
17309 17308 0
-17309 -17308 0
17312 17311 0
-17312 -17311 0
17315 17314 0
-17315 -17314 0
17318 17306 0
-17318 -17306 0
17321 17309 0
-17321 -17309 0
17324 17312 0
-17324 -17312 0
17327 17315 0
-17327 -17315 0
16763 17316 0
-16763 -17316 0
17065 16763 0
-17065 -16763 0
16767 17064 0
-16767 -17064 0
16769 16767 0
-16769 -16767 0
16771 16769 0
-16771 -16769 0
16773 16771 0
-16773 -16771 0
16775 16773 0
-16775 -16773 0
17113 16775 0
-17113 -16775 0
17330 17113 0
-17330 -17113 0
17068 17330 0
-17068 -17330 0
16783 17067 0
-16783 -17067 0
16797 16783 0
-16797 -16783 0
16787 17067 0
-16787 -17067 0
17074 16787 0
-17074 -16787 0
16791 17070 0
-16791 -17070 0
17100 16791 0
-17100 -16791 0
16795 17070 0
-16795 -17070 0
17077 16795 0
-17077 -16795 0
16799 16797 0
-16799 -16797 0
17217 16799 0
-17217 -16799 0
16803 17100 0
-16803 -17100 0
17375 16803 0
-17375 -16803 0
17114 17217 0
-17114 -17217 0
17221 17100 0
-17221 -17100 0
16811 17098 0
-16811 -17098 0
17405 16811 0
-17405 -16811 0
16821 17129 0
-16821 -17129 0
17333 17332 0
-17333 -17332 0
17336 17335 0
-17336 -17335 0
17339 17338 0
-17339 -17338 0
17403 16821 0
-17403 -16821 0
17342 17333 0
-17342 -17333 0
17345 17336 0
-17345 -17336 0
17348 17339 0
-17348 -17339 0
16831 17346 0
-16831 -17346 0
17135 16831 0
-17135 -16831 0
16835 17134 0
-16835 -17134 0
16837 16835 0
-16837 -16835 0
16839 16837 0
-16839 -16837 0
16841 16839 0
-16841 -16839 0
16843 16841 0
-16843 -16841 0
17191 16843 0
-17191 -16843 0
17351 17191 0
-17351 -17191 0
17138 17351 0
-17138 -17351 0
16851 17137 0
-16851 -17137 0
16865 16851 0
-16865 -16851 0
16855 17137 0
-16855 -17137 0
17144 16855 0
-17144 -16855 0
16859 17140 0
-16859 -17140 0
17175 16859 0
-17175 -16859 0
16863 17140 0
-16863 -17140 0
17147 16863 0
-17147 -16863 0
16867 16865 0
-16867 -16865 0
17163 16867 0
-17163 -16867 0
16871 17175 0
-16871 -17175 0
17371 16871 0
-17371 -16871 0
17192 17163 0
-17192 -17163 0
17208 17175 0
-17208 -17175 0
16885 17255 0
-16885 -17255 0
16887 17194 0
-16887 -17194 0
17354 17353 0
-17354 -17353 0
17357 17356 0
-17357 -17356 0
17393 16885 0
-17393 -16885 0
17401 16887 0
-17401 -16887 0
17360 17359 0
-17360 -17359 0
17363 17354 0
-17363 -17354 0
17366 17357 0
-17366 -17357 0
16903 17274 0
-16903 -17274 0
16905 17278 0
-16905 -17278 0
16907 17282 0
-16907 -17282 0
17369 17360 0
-17369 -17360 0
17395 16903 0
-17395 -16903 0
17397 16905 0
-17397 -16905 0
17399 16907 0
-17399 -16907 0
16911 17367 0
-16911 -17367 0
16910 16911 0
-16910 -16911 0
-16912 16913 0
-16912 16914 0
-16912 16915 0
16912 -16913 -16914 -16915 0
-16916 16917 0
-16916 16918 0
16916 -16917 -16918 0
-16919 16920 0
-16919 16921 0
16919 -16920 -16921 0
-16922 16923 0
-16922 16924 0
16922 -16923 -16924 0
-16925 16926 0
-16925 16927 0
16925 -16926 -16927 0
-16928 16929 0
-16928 16930 0
16928 -16929 -16930 0
-16931 16932 0
-16931 16933 0
16931 -16932 -16933 0
-16934 16935 0
-16934 16936 0
16934 -16935 -16936 0
-17252 17350 0
-17252 17091 0
17252 -17350 -17091 0
-17225 17350 0
-17225 17091 0
17225 -17350 -17091 0
-17233 17350 0
-17233 17091 0
17233 -17350 -17091 0
-17229 17350 0
-17229 17091 0
17229 -17350 -17091 0
-17253 17350 0
-17253 17150 0
-17253 17151 0
-17253 17179 0
17253 -17350 -17150 -17151 -17179 0
-17226 17350 0
-17226 17150 0
-17226 17034 0
-17226 17179 0
17226 -17350 -17150 -17034 -17179 0
-17235 17350 0
-17235 17084 0
-17235 17151 0
-17235 17179 0
17235 -17350 -17084 -17151 -17179 0
-17231 17350 0
-17231 17084 0
-17231 17034 0
-17231 17179 0
17231 -17350 -17084 -17034 -17179 0
-16969 16970 0
-16969 16971 0
16969 -16970 -16971 0
-16972 16973 0
-16972 16974 0
16972 -16973 -16974 0
-16975 16976 0
-16975 16977 0
16975 -16976 -16977 0
-16978 16979 0
-16978 16980 0
16978 -16979 -16980 0
-16981 16982 0
-16981 16983 0
16981 -16982 -16983 0
-16984 16985 0
-16984 16986 0
16984 -16985 -16986 0
-16987 17298 0
-16987 16989 0
16987 -17298 -16989 0
-16990 16991 0
-16990 16992 0
16990 -16991 -16992 0
-16993 17301 0
-16993 16995 0
16993 -17301 -16995 0
-16996 16997 0
-16996 16998 0
16996 -16997 -16998 0
-16999 17000 0
-16999 17001 0
16999 -17000 -17001 0
-17002 17003 0
-17002 17004 0
17002 -17003 -17004 0
-17005 17006 0
-17005 17007 0
17005 -17006 -17007 0
-17244 17300 0
-17244 17222 0
17244 -17300 -17222 0
-17271 17084 0
-17271 17034 0
-17271 17222 0
-17271 17179 0
17271 -17084 -17034 -17222 -17179 0
-17283 17174 0
-17283 17027 0
17283 -17174 -17027 0
-17284 17207 0
-17284 17027 0
17284 -17207 -17027 0
-17377 17174 0
-17377 17027 0
17377 -17174 -17027 0
-17025 17174 0
-17025 17027 0
17025 -17174 -17027 0
-17238 17303 0
-17238 17212 0
-17238 17213 0
17238 -17303 -17212 -17213 0
-17049 17150 0
-17049 17034 0
-17049 17212 0
17049 -17150 -17034 -17212 0
-17275 17174 0
-17275 17131 0
17275 -17174 -17131 0
-17276 17131 0
-17276 17211 0
17276 -17131 -17211 0
-17234 17174 0
-17234 17044 0
-17234 17205 0
17234 -17174 -17044 -17205 0
-17270 17213 0
-17270 17179 0
-17270 17049 0
17270 -17213 -17179 -17049 0
-17240 17058 0
-17240 17052 0
17240 -17058 -17052 0
-17237 17058 0
-17237 17213 0
17237 -17058 -17213 0
-17241 17057 0
-17241 17058 0
-17241 17213 0
17241 -17057 -17058 -17213 0
-17123 17174 0
-17123 17062 0
-17123 17209 0
17123 -17174 -17062 -17209 0
-17064 17065 0
-17064 17066 0
17064 -17065 -17066 0
-17067 17068 0
-17067 17069 0
17067 -17068 -17069 0
-17070 17328 0
-17070 17072 0
17070 -17328 -17072 0
-17073 17074 0
-17073 17075 0
17073 -17074 -17075 0
-17076 17077 0
-17076 17078 0
17076 -17077 -17078 0
-17247 17330 0
-17247 17217 0
-17247 17218 0
17247 -17330 -17217 -17218 0
-17105 17084 0
-17105 17151 0
-17105 17217 0
17105 -17084 -17151 -17217 0
-17183 17217 0
-17183 17218 0
-17183 17222 0
-17183 17091 0
17183 -17217 -17218 -17222 -17091 0
-17279 17174 0
-17279 17100 0
17279 -17174 -17100 0
-17280 17100 0
-17280 17216 0
17280 -17100 -17216 0
-17098 17174 0
-17098 17100 0
-17098 17205 0
17098 -17174 -17100 -17205 0
-17262 17218 0
-17262 17179 0
-17262 17105 0
17262 -17218 -17179 -17105 0
-17249 17114 0
-17249 17108 0
17249 -17114 -17108 0
-17246 17114 0
-17246 17218 0
17246 -17114 -17218 0
-17250 17113 0
-17250 17114 0
-17250 17218 0
17250 -17113 -17114 -17218 0
-17161 17209 0
-17161 17221 0
-17161 17205 0
17161 -17209 -17221 -17205 0
-17254 17221 0
-17254 17205 0
-17254 17123 0
17254 -17221 -17205 -17123 0
-17373 17174 0
-17373 17131 0
-17373 17221 0
-17373 17205 0
17373 -17174 -17131 -17221 -17205 0
-17129 17174 0
-17129 17131 0
-17129 17221 0
-17129 17205 0
17129 -17174 -17131 -17221 -17205 0
-17134 17135 0
-17134 17136 0
17134 -17135 -17136 0
-17137 17138 0
-17137 17139 0
17137 -17138 -17139 0
-17140 17349 0
-17140 17142 0
17140 -17349 -17142 0
-17143 17144 0
-17143 17145 0
17143 -17144 -17145 0
-17146 17147 0
-17146 17148 0
17146 -17147 -17148 0
-17180 17150 0
-17180 17151 0
-17180 17163 0
17180 -17150 -17151 -17163 0
-17265 17351 0
-17265 17163 0
-17265 17193 0
17265 -17351 -17163 -17193 0
-17258 17172 0
-17258 17163 0
-17258 17193 0
-17258 17161 0
17258 -17172 -17163 -17193 -17161 0
-17182 17163 0
-17182 17193 0
-17182 17212 0
-17182 17213 0
17182 -17163 -17193 -17212 -17213 0
-17256 17174 0
-17256 17175 0
17256 -17174 -17175 0
-17257 17175 0
-17257 17172 0
17257 -17175 -17172 0
-17197 17174 0
-17197 17175 0
-17197 17209 0
17197 -17174 -17175 -17209 0
-17261 17193 0
-17261 17179 0
-17261 17180 0
17261 -17193 -17179 -17180 0
-17272 17182 0
-17272 17183 0
17272 -17182 -17183 0
-17267 17192 0
-17267 17186 0
17267 -17192 -17186 0
-17264 17192 0
-17264 17193 0
17264 -17192 -17193 0
-17268 17191 0
-17268 17192 0
-17268 17193 0
17268 -17191 -17192 -17193 0
-17194 17221 0
-17194 17205 0
-17194 17197 0
17194 -17221 -17205 -17197 0
-17214 17208 0
-17214 17221 0
-17214 17205 0
17214 -17208 -17221 -17205 0
-17219 17208 0
-17219 17209 0
-17219 17205 0
17219 -17208 -17209 -17205 0
-17223 17207 0
-17223 17208 0
-17223 17209 0
17223 -17207 -17208 -17209 0
-17277 17211 0
-17277 17212 0
-17277 17213 0
-17277 17214 0
17277 -17211 -17212 -17213 -17214 0
-17281 17216 0
-17281 17217 0
-17281 17218 0
-17281 17219 0
17281 -17216 -17217 -17218 -17219 0
-17285 17221 0
-17285 17222 0
-17285 17223 0
17285 -17221 -17222 -17223 0
17287 -17225 0
17287 -17226 0
17287 -17227 0
-17287 17225 17226 17227 0
17290 -17229 0
17290 -17230 0
17290 -17231 0
-17290 17229 17230 17231 0
17305 -17233 0
17305 -17234 0
17305 -17235 0
-17305 17233 17234 17235 0
17308 -17237 0
17308 -17238 0
-17308 17237 17238 0
17311 -17240 0
17311 -17241 0
-17311 17240 17241 0
17314 -17243 0
17314 -17244 0
-17314 17243 17244 0
17332 -17246 0
17332 -17247 0
-17332 17246 17247 0
17335 -17249 0
17335 -17250 0
-17335 17249 17250 0
17338 -17252 0
17338 -17253 0
17338 -17254 0
-17338 17252 17253 17254 0
17255 -17256 0
17255 -17257 0
17255 -17258 0
-17255 17256 17257 17258 0
17273 -17260 0
17273 -17261 0
17273 -17262 0
-17273 17260 17261 17262 0
17353 -17264 0
17353 -17265 0
-17353 17264 17265 0
17356 -17267 0
17356 -17268 0
-17356 17267 17268 0
17359 -17270 0
17359 -17271 0
17359 -17272 0
17359 -17273 0
-17359 17270 17271 17272 17273 0
17274 -17275 0
17274 -17276 0
17274 -17277 0
-17274 17275 17276 17277 0
17278 -17279 0
17278 -17280 0
17278 -17281 0
-17278 17279 17280 17281 0
17282 -17283 0
17282 -17284 0
17282 -17285 0
-17282 17283 17284 17285 0
17293 17287 0
17293 17288 0
-17293 -17287 -17288 0
17296 17290 0
17296 17291 0
-17296 -17290 -17291 0
17292 17293 0
17292 17294 0
-17292 -17293 -17294 0
17295 17296 0
17295 17297 0
-17295 -17296 -17297 0
17298 17350 0
17298 17300 0
-17298 -17350 -17300 0
17301 17350 0
17301 17303 0
-17301 -17350 -17303 0
17317 17305 0
17317 17306 0
-17317 -17305 -17306 0
17320 17308 0
17320 17309 0
-17320 -17308 -17309 0
17323 17311 0
17323 17312 0
-17323 -17311 -17312 0
17326 17314 0
17326 17315 0
-17326 -17314 -17315 0
17316 17317 0
17316 17318 0
-17316 -17317 -17318 0
17387 17320 0
17387 17321 0
-17387 -17320 -17321 0
17385 17323 0
17385 17324 0
-17385 -17323 -17324 0
17379 17326 0
17379 17327 0
-17379 -17326 -17327 0
17328 17350 0
17328 17330 0
-17328 -17350 -17330 0
17341 17332 0
17341 17333 0
-17341 -17332 -17333 0
17344 17335 0
17344 17336 0
-17344 -17335 -17336 0
17347 17338 0
17347 17339 0
-17347 -17338 -17339 0
17383 17341 0
17383 17342 0
-17383 -17341 -17342 0
17381 17344 0
17381 17345 0
-17381 -17344 -17345 0
17346 17347 0
17346 17348 0
-17346 -17347 -17348 0
17349 17350 0
17349 17351 0
-17349 -17350 -17351 0
17362 17353 0
17362 17354 0
-17362 -17353 -17354 0
17365 17356 0
17365 17357 0
-17365 -17356 -17357 0
17368 17359 0
17368 17360 0
-17368 -17359 -17360 0
17391 17362 0
17391 17363 0
-17391 -17362 -17363 0
17389 17365 0
17389 17366 0
-17389 -17365 -17366 0
17367 17368 0
17367 17369 0
-17367 -17368 -17369 0
-17371 18032 0
17371 -18032 0
-17373 18197 0
17373 -18197 0
-17375 18014 0
17375 -18014 0
-17377 18200 0
17377 -18200 0
-17379 17473 0
17379 -17473 0
-17381 17481 0
17381 -17481 0
-17383 17437 0
17383 -17437 0
-17385 17441 0
17385 -17441 0
-17387 17445 0
17387 -17445 0
-17389 17453 0
17389 -17453 0
-17391 17461 0
17391 -17461 0
-17393 17469 0
17393 -17469 0
-17395 17477 0
17395 -17477 0
-17397 17485 0
17397 -17485 0
-17399 17489 0
17399 -17489 0
-17401 17493 0
17401 -17493 0
-17403 17449 0
17403 -17449 0
-17405 17457 0
17405 -17457 0
-17407 17465 0
17407 -17465 0
17497 17409 0
-17497 -17409 0
18144 17411 0
-18144 -17411 0
18320 17413 0
-18320 -17413 0
17499 17415 0
-17499 -17415 0
17501 17417 0
-17501 -17417 0
17503 17419 0
-17503 -17419 0
17505 17421 0
-17505 -17421 0
17507 17423 0
-17507 -17423 0
17509 17425 0
-17509 -17425 0
17511 17427 0
-17511 -17427 0
17513 17429 0
-17513 -17429 0
17515 17431 0
-17515 -17431 0
17432 17433 0
-17432 -17433 0
17434 17435 0
-17434 -17435 0
17439 17437 0
-17439 -17437 0
18039 17439 0
-18039 -17439 0
17443 17441 0
-17443 -17441 0
17891 17443 0
-17891 -17443 0
17447 17445 0
-17447 -17445 0
17962 17447 0
-17962 -17447 0
17451 17449 0
-17451 -17449 0
17900 17451 0
-17900 -17451 0
17455 17453 0
-17455 -17453 0
17894 17455 0
-17894 -17455 0
17459 17457 0
-17459 -17457 0
17903 17459 0
-17903 -17459 0
17463 17461 0
-17463 -17461 0
18109 17463 0
-18109 -17463 0
17467 17465 0
-17467 -17465 0
17906 17467 0
-17906 -17467 0
17471 17469 0
-17471 -17469 0
18112 17471 0
-18112 -17471 0
17475 17473 0
-17475 -17473 0
17956 17475 0
-17956 -17475 0
17479 17477 0
-17479 -17477 0
17965 17479 0
-17965 -17479 0
17483 17481 0
-17483 -17481 0
17888 17483 0
-17888 -17483 0
17487 17485 0
-17487 -17485 0
18042 17487 0
-18042 -17487 0
17491 17489 0
-17491 -17489 0
17959 17491 0
-17959 -17491 0
17495 17493 0
-17495 -17493 0
17897 17495 0
-17897 -17495 0
18177 17497 0
-18177 -17497 0
17529 17499 0
-17529 -17499 0
18181 17501 0
-18181 -17501 0
18186 17503 0
-18186 -17503 0
18142 17505 0
-18142 -17505 0
18054 17507 0
-18054 -17507 0
18004 17509 0
-18004 -17509 0
17883 17511 0
-17883 -17511 0
17884 17513 0
-17884 -17513 0
17885 17515 0
-17885 -17515 0
17887 17529 0
-17887 -17529 0
17890 17529 0
-17890 -17529 0
17893 17529 0
-17893 -17529 0
17896 17529 0
-17896 -17529 0
17899 17529 0
-17899 -17529 0
17902 17529 0
-17902 -17529 0
17905 17529 0
-17905 -17529 0
18120 18054 0
-18120 -18054 0
18121 18004 0
-18121 -18004 0
18061 17883 0
-18061 -17883 0
18230 17884 0
-18230 -17884 0
18149 17885 0
-18149 -17885 0
17583 17882 0
-17583 -17882 0
17545 17886 0
-17545 -17886 0
17585 17545 0
-17585 -17545 0
17549 17886 0
-17549 -17886 0
17940 17549 0
-17940 -17549 0
17553 17889 0
-17553 -17889 0
17589 17553 0
-17589 -17553 0
17557 17889 0
-17557 -17889 0
17943 17557 0
-17943 -17557 0
17561 17892 0
-17561 -17892 0
17593 17561 0
-17593 -17561 0
17565 17892 0
-17565 -17892 0
17946 17565 0
-17946 -17565 0
17569 17895 0
-17569 -17895 0
17568 17569 0
-17568 -17569 0
17573 17898 0
-17573 -17898 0
17572 17573 0
-17572 -17573 0
17577 17901 0
-17577 -17901 0
17576 17577 0
-17576 -17577 0
17581 17904 0
-17581 -17904 0
17580 17581 0
-17580 -17581 0
17597 17583 0
-17597 -17583 0
17587 17585 0
-17587 -17585 0
18188 17587 0
-18188 -17587 0
17591 17589 0
-17591 -17589 0
18183 17591 0
-18183 -17591 0
17595 17593 0
-17595 -17593 0
18163 17595 0
-18163 -17595 0
17599 17597 0
-17599 -17597 0
17598 17599 0
-17598 -17599 0
18258 18257 0
-18258 -18257 0
18261 18260 0
-18261 -18260 0
18078 18188 0
-18078 -18188 0
18022 18183 0
-18022 -18183 0
18156 18163 0
-18156 -18163 0
18264 18258 0
-18264 -18258 0
18267 18261 0
-18267 -18261 0
17617 18262 0
-17617 -18262 0
17949 17617 0
-17949 -17617 0
17621 18265 0
-17621 -18265 0
17952 17621 0
-17952 -17621 0
17627 17948 0
-17627 -17948 0
17629 17951 0
-17629 -17951 0
17631 17627 0
-17631 -17627 0
17635 17629 0
-17635 -17629 0
17633 17631 0
-17633 -17631 0
17639 17633 0
-17639 -17633 0
17637 17635 0
-17637 -17635 0
17643 17637 0
-17643 -17637 0
17641 17639 0
-17641 -17639 0
18027 17641 0
-18027 -17641 0
18270 17643 0
-18270 -17643 0
18273 18027 0
-18273 -18027 0
17955 18270 0
-17955 -18270 0
17961 18273 0
-17961 -18273 0
17653 17954 0
-17653 -17954 0
17683 17653 0
-17683 -17653 0
17657 17954 0
-17657 -17954 0
17967 17657 0
-17967 -17657 0
17661 17957 0
-17661 -17957 0
17687 17661 0
-17687 -17661 0
17665 17957 0
-17665 -17957 0
17970 17665 0
-17970 -17665 0
17669 17960 0
-17669 -17960 0
17691 17669 0
-17691 -17669 0
17673 17960 0
-17673 -17960 0
17973 17673 0
-17973 -17673 0
17677 17963 0
-17677 -17963 0
17695 17677 0
-17695 -17677 0
17681 17963 0
-17681 -17963 0
17976 17681 0
-17976 -17681 0
17685 17683 0
-17685 -17683 0
18192 17685 0
-18192 -17685 0
17689 17687 0
-17689 -17687 0
17997 17689 0
-17997 -17689 0
17693 17691 0
-17693 -17691 0
18182 17693 0
-18182 -17693 0
17697 17695 0
-17697 -17695 0
18101 17697 0
-18101 -17697 0
17707 18192 0
-17707 -18192 0
18175 17997 0
-18175 -17997 0
18028 18182 0
-18028 -18182 0
18179 18101 0
-18179 -18101 0
17711 17707 0
-17711 -17707 0
17713 17995 0
-17713 -17995 0
18213 17711 0
-18213 -17711 0
18377 17713 0
-18377 -17713 0
18276 18275 0
-18276 -18275 0
18279 18278 0
-18279 -18278 0
18282 18281 0
-18282 -18281 0
18285 18284 0
-18285 -18284 0
18288 18276 0
-18288 -18276 0
18291 18279 0
-18291 -18279 0
18294 18282 0
-18294 -18282 0
18297 18285 0
-18297 -18285 0
17733 18286 0
-17733 -18286 0
18035 17733 0
-18035 -17733 0
17737 18034 0
-17737 -18034 0
17739 17737 0
-17739 -17737 0
17741 17739 0
-17741 -17739 0
17743 17741 0
-17743 -17741 0
17745 17743 0
-17745 -17743 0
18083 17745 0
-18083 -17745 0
18300 18083 0
-18300 -18083 0
18038 18300 0
-18038 -18300 0
17753 18037 0
-17753 -18037 0
17767 17753 0
-17767 -17753 0
17757 18037 0
-17757 -18037 0
18044 17757 0
-18044 -17757 0
17761 18040 0
-17761 -18040 0
18070 17761 0
-18070 -17761 0
17765 18040 0
-17765 -18040 0
18047 17765 0
-18047 -17765 0
17769 17767 0
-17769 -17767 0
18187 17769 0
-18187 -17769 0
17773 18070 0
-17773 -18070 0
18345 17773 0
-18345 -17773 0
18084 18187 0
-18084 -18187 0
18191 18070 0
-18191 -18070 0
17781 18068 0
-17781 -18068 0
18375 17781 0
-18375 -17781 0
17791 18099 0
-17791 -18099 0
18303 18302 0
-18303 -18302 0
18306 18305 0
-18306 -18305 0
18309 18308 0
-18309 -18308 0
18373 17791 0
-18373 -17791 0
18312 18303 0
-18312 -18303 0
18315 18306 0
-18315 -18306 0
18318 18309 0
-18318 -18309 0
17801 18316 0
-17801 -18316 0
18105 17801 0
-18105 -17801 0
17805 18104 0
-17805 -18104 0
17807 17805 0
-17807 -17805 0
17809 17807 0
-17809 -17807 0
17811 17809 0
-17811 -17809 0
17813 17811 0
-17813 -17811 0
18161 17813 0
-18161 -17813 0
18321 18161 0
-18321 -18161 0
18108 18321 0
-18108 -18321 0
17821 18107 0
-17821 -18107 0
17835 17821 0
-17835 -17821 0
17825 18107 0
-17825 -18107 0
18114 17825 0
-18114 -17825 0
17829 18110 0
-17829 -18110 0
18145 17829 0
-18145 -17829 0
17833 18110 0
-17833 -18110 0
18117 17833 0
-18117 -17833 0
17837 17835 0
-17837 -17835 0
18133 17837 0
-18133 -17837 0
17841 18145 0
-17841 -18145 0
18341 17841 0
-18341 -17841 0
18162 18133 0
-18162 -18133 0
18178 18145 0
-18178 -18145 0
17855 18225 0
-17855 -18225 0
17857 18164 0
-17857 -18164 0
18324 18323 0
-18324 -18323 0
18327 18326 0
-18327 -18326 0
18363 17855 0
-18363 -17855 0
18371 17857 0
-18371 -17857 0
18330 18329 0
-18330 -18329 0
18333 18324 0
-18333 -18324 0
18336 18327 0
-18336 -18327 0
17873 18244 0
-17873 -18244 0
17875 18248 0
-17875 -18248 0
17877 18252 0
-17877 -18252 0
18339 18330 0
-18339 -18330 0
18365 17873 0
-18365 -17873 0
18367 17875 0
-18367 -17875 0
18369 17877 0
-18369 -17877 0
17881 18337 0
-17881 -18337 0
17880 17881 0
-17880 -17881 0
-17882 17883 0
-17882 17884 0
-17882 17885 0
17882 -17883 -17884 -17885 0
-17886 17887 0
-17886 17888 0
17886 -17887 -17888 0
-17889 17890 0
-17889 17891 0
17889 -17890 -17891 0
-17892 17893 0
-17892 17894 0
17892 -17893 -17894 0
-17895 17896 0
-17895 17897 0
17895 -17896 -17897 0
-17898 17899 0
-17898 17900 0
17898 -17899 -17900 0
-17901 17902 0
-17901 17903 0
17901 -17902 -17903 0
-17904 17905 0
-17904 17906 0
17904 -17905 -17906 0
-18222 18320 0
-18222 18061 0
18222 -18320 -18061 0
-18195 18320 0
-18195 18061 0
18195 -18320 -18061 0
-18203 18320 0
-18203 18061 0
18203 -18320 -18061 0
-18199 18320 0
-18199 18061 0
18199 -18320 -18061 0
-18223 18320 0
-18223 18120 0
-18223 18121 0
-18223 18149 0
18223 -18320 -18120 -18121 -18149 0
-18196 18320 0
-18196 18120 0
-18196 18004 0
-18196 18149 0
18196 -18320 -18120 -18004 -18149 0
-18205 18320 0
-18205 18054 0
-18205 18121 0
-18205 18149 0
18205 -18320 -18054 -18121 -18149 0
-18201 18320 0
-18201 18054 0
-18201 18004 0
-18201 18149 0
18201 -18320 -18054 -18004 -18149 0
-17939 17940 0
-17939 17941 0
17939 -17940 -17941 0
-17942 17943 0
-17942 17944 0
17942 -17943 -17944 0
-17945 17946 0
-17945 17947 0
17945 -17946 -17947 0
-17948 17949 0
-17948 17950 0
17948 -17949 -17950 0
-17951 17952 0
-17951 17953 0
17951 -17952 -17953 0
-17954 17955 0
-17954 17956 0
17954 -17955 -17956 0
-17957 18268 0
-17957 17959 0
17957 -18268 -17959 0
-17960 17961 0
-17960 17962 0
17960 -17961 -17962 0
-17963 18271 0
-17963 17965 0
17963 -18271 -17965 0
-17966 17967 0
-17966 17968 0
17966 -17967 -17968 0
-17969 17970 0
-17969 17971 0
17969 -17970 -17971 0
-17972 17973 0
-17972 17974 0
17972 -17973 -17974 0
-17975 17976 0
-17975 17977 0
17975 -17976 -17977 0
-18214 18270 0
-18214 18192 0
18214 -18270 -18192 0
-18241 18054 0
-18241 18004 0
-18241 18192 0
-18241 18149 0
18241 -18054 -18004 -18192 -18149 0
-18253 18144 0
-18253 17997 0
18253 -18144 -17997 0
-18254 18177 0
-18254 17997 0
18254 -18177 -17997 0
-18347 18144 0
-18347 17997 0
18347 -18144 -17997 0
-17995 18144 0
-17995 17997 0
17995 -18144 -17997 0
-18208 18273 0
-18208 18182 0
-18208 18183 0
18208 -18273 -18182 -18183 0
-18019 18120 0
-18019 18004 0
-18019 18182 0
18019 -18120 -18004 -18182 0
-18245 18144 0
-18245 18101 0
18245 -18144 -18101 0
-18246 18101 0
-18246 18181 0
18246 -18101 -18181 0
-18204 18144 0
-18204 18014 0
-18204 18175 0
18204 -18144 -18014 -18175 0
-18240 18183 0
-18240 18149 0
-18240 18019 0
18240 -18183 -18149 -18019 0
-18210 18028 0
-18210 18022 0
18210 -18028 -18022 0
-18207 18028 0
-18207 18183 0
18207 -18028 -18183 0
-18211 18027 0
-18211 18028 0
-18211 18183 0
18211 -18027 -18028 -18183 0
-18093 18144 0
-18093 18032 0
-18093 18179 0
18093 -18144 -18032 -18179 0
-18034 18035 0
-18034 18036 0
18034 -18035 -18036 0
-18037 18038 0
-18037 18039 0
18037 -18038 -18039 0
-18040 18298 0
-18040 18042 0
18040 -18298 -18042 0
-18043 18044 0
-18043 18045 0
18043 -18044 -18045 0
-18046 18047 0
-18046 18048 0
18046 -18047 -18048 0
-18217 18300 0
-18217 18187 0
-18217 18188 0
18217 -18300 -18187 -18188 0
-18075 18054 0
-18075 18121 0
-18075 18187 0
18075 -18054 -18121 -18187 0
-18153 18187 0
-18153 18188 0
-18153 18192 0
-18153 18061 0
18153 -18187 -18188 -18192 -18061 0
-18249 18144 0
-18249 18070 0
18249 -18144 -18070 0
-18250 18070 0
-18250 18186 0
18250 -18070 -18186 0
-18068 18144 0
-18068 18070 0
-18068 18175 0
18068 -18144 -18070 -18175 0
-18232 18188 0
-18232 18149 0
-18232 18075 0
18232 -18188 -18149 -18075 0
-18219 18084 0
-18219 18078 0
18219 -18084 -18078 0
-18216 18084 0
-18216 18188 0
18216 -18084 -18188 0
-18220 18083 0
-18220 18084 0
-18220 18188 0
18220 -18083 -18084 -18188 0
-18131 18179 0
-18131 18191 0
-18131 18175 0
18131 -18179 -18191 -18175 0
-18224 18191 0
-18224 18175 0
-18224 18093 0
18224 -18191 -18175 -18093 0
-18343 18144 0
-18343 18101 0
-18343 18191 0
-18343 18175 0
18343 -18144 -18101 -18191 -18175 0
-18099 18144 0
-18099 18101 0
-18099 18191 0
-18099 18175 0
18099 -18144 -18101 -18191 -18175 0
-18104 18105 0
-18104 18106 0
18104 -18105 -18106 0
-18107 18108 0
-18107 18109 0
18107 -18108 -18109 0
-18110 18319 0
-18110 18112 0
18110 -18319 -18112 0
-18113 18114 0
-18113 18115 0
18113 -18114 -18115 0
-18116 18117 0
-18116 18118 0
18116 -18117 -18118 0
-18150 18120 0
-18150 18121 0
-18150 18133 0
18150 -18120 -18121 -18133 0
-18235 18321 0
-18235 18133 0
-18235 18163 0
18235 -18321 -18133 -18163 0
-18228 18142 0
-18228 18133 0
-18228 18163 0
-18228 18131 0
18228 -18142 -18133 -18163 -18131 0
-18152 18133 0
-18152 18163 0
-18152 18182 0
-18152 18183 0
18152 -18133 -18163 -18182 -18183 0
-18226 18144 0
-18226 18145 0
18226 -18144 -18145 0
-18227 18145 0
-18227 18142 0
18227 -18145 -18142 0
-18167 18144 0
-18167 18145 0
-18167 18179 0
18167 -18144 -18145 -18179 0
-18231 18163 0
-18231 18149 0
-18231 18150 0
18231 -18163 -18149 -18150 0
-18242 18152 0
-18242 18153 0
18242 -18152 -18153 0
-18237 18162 0
-18237 18156 0
18237 -18162 -18156 0
-18234 18162 0
-18234 18163 0
18234 -18162 -18163 0
-18238 18161 0
-18238 18162 0
-18238 18163 0
18238 -18161 -18162 -18163 0
-18164 18191 0
-18164 18175 0
-18164 18167 0
18164 -18191 -18175 -18167 0
-18184 18178 0
-18184 18191 0
-18184 18175 0
18184 -18178 -18191 -18175 0
-18189 18178 0
-18189 18179 0
-18189 18175 0
18189 -18178 -18179 -18175 0
-18193 18177 0
-18193 18178 0
-18193 18179 0
18193 -18177 -18178 -18179 0
-18247 18181 0
-18247 18182 0
-18247 18183 0
-18247 18184 0
18247 -18181 -18182 -18183 -18184 0
-18251 18186 0
-18251 18187 0
-18251 18188 0
-18251 18189 0
18251 -18186 -18187 -18188 -18189 0
-18255 18191 0
-18255 18192 0
-18255 18193 0
18255 -18191 -18192 -18193 0
18257 -18195 0
18257 -18196 0
18257 -18197 0
-18257 18195 18196 18197 0
18260 -18199 0
18260 -18200 0
18260 -18201 0
-18260 18199 18200 18201 0
18275 -18203 0
18275 -18204 0
18275 -18205 0
-18275 18203 18204 18205 0
18278 -18207 0
18278 -18208 0
-18278 18207 18208 0
18281 -18210 0
18281 -18211 0
-18281 18210 18211 0
18284 -18213 0
18284 -18214 0
-18284 18213 18214 0
18302 -18216 0
18302 -18217 0
-18302 18216 18217 0
18305 -18219 0
18305 -18220 0
-18305 18219 18220 0
18308 -18222 0
18308 -18223 0
18308 -18224 0
-18308 18222 18223 18224 0
18225 -18226 0
18225 -18227 0
18225 -18228 0
-18225 18226 18227 18228 0
18243 -18230 0
18243 -18231 0
18243 -18232 0
-18243 18230 18231 18232 0
18323 -18234 0
18323 -18235 0
-18323 18234 18235 0
18326 -18237 0
18326 -18238 0
-18326 18237 18238 0
18329 -18240 0
18329 -18241 0
18329 -18242 0
18329 -18243 0
-18329 18240 18241 18242 18243 0
18244 -18245 0
18244 -18246 0
18244 -18247 0
-18244 18245 18246 18247 0
18248 -18249 0
18248 -18250 0
18248 -18251 0
-18248 18249 18250 18251 0
18252 -18253 0
18252 -18254 0
18252 -18255 0
-18252 18253 18254 18255 0
18263 18257 0
18263 18258 0
-18263 -18257 -18258 0
18266 18260 0
18266 18261 0
-18266 -18260 -18261 0
18262 18263 0
18262 18264 0
-18262 -18263 -18264 0
18265 18266 0
18265 18267 0
-18265 -18266 -18267 0
18268 18320 0
18268 18270 0
-18268 -18320 -18270 0
18271 18320 0
18271 18273 0
-18271 -18320 -18273 0
18287 18275 0
18287 18276 0
-18287 -18275 -18276 0
18290 18278 0
18290 18279 0
-18290 -18278 -18279 0
18293 18281 0
18293 18282 0
-18293 -18281 -18282 0
18296 18284 0
18296 18285 0
-18296 -18284 -18285 0
18286 18287 0
18286 18288 0
-18286 -18287 -18288 0
18357 18290 0
18357 18291 0
-18357 -18290 -18291 0
18355 18293 0
18355 18294 0
-18355 -18293 -18294 0
18349 18296 0
18349 18297 0
-18349 -18296 -18297 0
18298 18320 0
18298 18300 0
-18298 -18320 -18300 0
18311 18302 0
18311 18303 0
-18311 -18302 -18303 0
18314 18305 0
18314 18306 0
-18314 -18305 -18306 0
18317 18308 0
18317 18309 0
-18317 -18308 -18309 0
18353 18311 0
18353 18312 0
-18353 -18311 -18312 0
18351 18314 0
18351 18315 0
-18351 -18314 -18315 0
18316 18317 0
18316 18318 0
-18316 -18317 -18318 0
18319 18320 0
18319 18321 0
-18319 -18320 -18321 0
18332 18323 0
18332 18324 0
-18332 -18323 -18324 0
18335 18326 0
18335 18327 0
-18335 -18326 -18327 0
18338 18329 0
18338 18330 0
-18338 -18329 -18330 0
18361 18332 0
18361 18333 0
-18361 -18332 -18333 0
18359 18335 0
18359 18336 0
-18359 -18335 -18336 0
18337 18338 0
18337 18339 0
-18337 -18338 -18339 0
-18341 19002 0
18341 -19002 0
-18343 19167 0
18343 -19167 0
-18345 18984 0
18345 -18984 0
-18347 19170 0
18347 -19170 0
-18349 18443 0
18349 -18443 0
-18351 18451 0
18351 -18451 0
-18353 18407 0
18353 -18407 0
-18355 18411 0
18355 -18411 0
-18357 18415 0
18357 -18415 0
-18359 18423 0
18359 -18423 0
-18361 18431 0
18361 -18431 0
-18363 18439 0
18363 -18439 0
-18365 18447 0
18365 -18447 0
-18367 18455 0
18367 -18455 0
-18369 18459 0
18369 -18459 0
-18371 18463 0
18371 -18463 0
-18373 18419 0
18373 -18419 0
-18375 18427 0
18375 -18427 0
-18377 18435 0
18377 -18435 0
18467 18379 0
-18467 -18379 0
19114 18381 0
-19114 -18381 0
19290 18383 0
-19290 -18383 0
18469 18385 0
-18469 -18385 0
18471 18387 0
-18471 -18387 0
18473 18389 0
-18473 -18389 0
18475 18391 0
-18475 -18391 0
18477 18393 0
-18477 -18393 0
18479 18395 0
-18479 -18395 0
18481 18397 0
-18481 -18397 0
18483 18399 0
-18483 -18399 0
18485 18401 0
-18485 -18401 0
18402 18403 0
-18402 -18403 0
18404 18405 0
-18404 -18405 0
18409 18407 0
-18409 -18407 0
19009 18409 0
-19009 -18409 0
18413 18411 0
-18413 -18411 0
18861 18413 0
-18861 -18413 0
18417 18415 0
-18417 -18415 0
18932 18417 0
-18932 -18417 0
18421 18419 0
-18421 -18419 0
18870 18421 0
-18870 -18421 0
18425 18423 0
-18425 -18423 0
18864 18425 0
-18864 -18425 0
18429 18427 0
-18429 -18427 0
18873 18429 0
-18873 -18429 0
18433 18431 0
-18433 -18431 0
19079 18433 0
-19079 -18433 0
18437 18435 0
-18437 -18435 0
18876 18437 0
-18876 -18437 0
18441 18439 0
-18441 -18439 0
19082 18441 0
-19082 -18441 0
18445 18443 0
-18445 -18443 0
18926 18445 0
-18926 -18445 0
18449 18447 0
-18449 -18447 0
18935 18449 0
-18935 -18449 0
18453 18451 0
-18453 -18451 0
18858 18453 0
-18858 -18453 0
18457 18455 0
-18457 -18455 0
19012 18457 0
-19012 -18457 0
18461 18459 0
-18461 -18459 0
18929 18461 0
-18929 -18461 0
18465 18463 0
-18465 -18463 0
18867 18465 0
-18867 -18465 0
19147 18467 0
-19147 -18467 0
18499 18469 0
-18499 -18469 0
19151 18471 0
-19151 -18471 0
19156 18473 0
-19156 -18473 0
19112 18475 0
-19112 -18475 0
19024 18477 0
-19024 -18477 0
18974 18479 0
-18974 -18479 0
18853 18481 0
-18853 -18481 0
18854 18483 0
-18854 -18483 0
18855 18485 0
-18855 -18485 0
18857 18499 0
-18857 -18499 0
18860 18499 0
-18860 -18499 0
18863 18499 0
-18863 -18499 0
18866 18499 0
-18866 -18499 0
18869 18499 0
-18869 -18499 0
18872 18499 0
-18872 -18499 0
18875 18499 0
-18875 -18499 0
19090 19024 0
-19090 -19024 0
19091 18974 0
-19091 -18974 0
19031 18853 0
-19031 -18853 0
19200 18854 0
-19200 -18854 0
19119 18855 0
-19119 -18855 0
18553 18852 0
-18553 -18852 0
18515 18856 0
-18515 -18856 0
18555 18515 0
-18555 -18515 0
18519 18856 0
-18519 -18856 0
18910 18519 0
-18910 -18519 0
18523 18859 0
-18523 -18859 0
18559 18523 0
-18559 -18523 0
18527 18859 0
-18527 -18859 0
18913 18527 0
-18913 -18527 0
18531 18862 0
-18531 -18862 0
18563 18531 0
-18563 -18531 0
18535 18862 0
-18535 -18862 0
18916 18535 0
-18916 -18535 0
18539 18865 0
-18539 -18865 0
18538 18539 0
-18538 -18539 0
18543 18868 0
-18543 -18868 0
18542 18543 0
-18542 -18543 0
18547 18871 0
-18547 -18871 0
18546 18547 0
-18546 -18547 0
18551 18874 0
-18551 -18874 0
18550 18551 0
-18550 -18551 0
18567 18553 0
-18567 -18553 0
18557 18555 0
-18557 -18555 0
19158 18557 0
-19158 -18557 0
18561 18559 0
-18561 -18559 0
19153 18561 0
-19153 -18561 0
18565 18563 0
-18565 -18563 0
19133 18565 0
-19133 -18565 0
18569 18567 0
-18569 -18567 0
18568 18569 0
-18568 -18569 0
19228 19227 0
-19228 -19227 0
19231 19230 0
-19231 -19230 0
19048 19158 0
-19048 -19158 0
18992 19153 0
-18992 -19153 0
19126 19133 0
-19126 -19133 0
19234 19228 0
-19234 -19228 0
19237 19231 0
-19237 -19231 0
18587 19232 0
-18587 -19232 0
18919 18587 0
-18919 -18587 0
18591 19235 0
-18591 -19235 0
18922 18591 0
-18922 -18591 0
18597 18918 0
-18597 -18918 0
18599 18921 0
-18599 -18921 0
18601 18597 0
-18601 -18597 0
18605 18599 0
-18605 -18599 0
18603 18601 0
-18603 -18601 0
18609 18603 0
-18609 -18603 0
18607 18605 0
-18607 -18605 0
18613 18607 0
-18613 -18607 0
18611 18609 0
-18611 -18609 0
18997 18611 0
-18997 -18611 0
19240 18613 0
-19240 -18613 0
19243 18997 0
-19243 -18997 0
18925 19240 0
-18925 -19240 0
18931 19243 0
-18931 -19243 0
18623 18924 0
-18623 -18924 0
18653 18623 0
-18653 -18623 0
18627 18924 0
-18627 -18924 0
18937 18627 0
-18937 -18627 0
18631 18927 0
-18631 -18927 0
18657 18631 0
-18657 -18631 0
18635 18927 0
-18635 -18927 0
18940 18635 0
-18940 -18635 0
18639 18930 0
-18639 -18930 0
18661 18639 0
-18661 -18639 0
18643 18930 0
-18643 -18930 0
18943 18643 0
-18943 -18643 0
18647 18933 0
-18647 -18933 0
18665 18647 0
-18665 -18647 0
18651 18933 0
-18651 -18933 0
18946 18651 0
-18946 -18651 0
18655 18653 0
-18655 -18653 0
19162 18655 0
-19162 -18655 0
18659 18657 0
-18659 -18657 0
18967 18659 0
-18967 -18659 0
18663 18661 0
-18663 -18661 0
19152 18663 0
-19152 -18663 0
18667 18665 0
-18667 -18665 0
19071 18667 0
-19071 -18667 0
18677 19162 0
-18677 -19162 0
19145 18967 0
-19145 -18967 0
18998 19152 0
-18998 -19152 0
19149 19071 0
-19149 -19071 0
18681 18677 0
-18681 -18677 0
18683 18965 0
-18683 -18965 0
19183 18681 0
-19183 -18681 0
19347 18683 0
-19347 -18683 0
19246 19245 0
-19246 -19245 0
19249 19248 0
-19249 -19248 0
19252 19251 0
-19252 -19251 0
19255 19254 0
-19255 -19254 0
19258 19246 0
-19258 -19246 0
19261 19249 0
-19261 -19249 0
19264 19252 0
-19264 -19252 0
19267 19255 0
-19267 -19255 0
18703 19256 0
-18703 -19256 0
19005 18703 0
-19005 -18703 0
18707 19004 0
-18707 -19004 0
18709 18707 0
-18709 -18707 0
18711 18709 0
-18711 -18709 0
18713 18711 0
-18713 -18711 0
18715 18713 0
-18715 -18713 0
19053 18715 0
-19053 -18715 0
19270 19053 0
-19270 -19053 0
19008 19270 0
-19008 -19270 0
18723 19007 0
-18723 -19007 0
18737 18723 0
-18737 -18723 0
18727 19007 0
-18727 -19007 0
19014 18727 0
-19014 -18727 0
18731 19010 0
-18731 -19010 0
19040 18731 0
-19040 -18731 0
18735 19010 0
-18735 -19010 0
19017 18735 0
-19017 -18735 0
18739 18737 0
-18739 -18737 0
19157 18739 0
-19157 -18739 0
18743 19040 0
-18743 -19040 0
19315 18743 0
-19315 -18743 0
19054 19157 0
-19054 -19157 0
19161 19040 0
-19161 -19040 0
18751 19038 0
-18751 -19038 0
19345 18751 0
-19345 -18751 0
18761 19069 0
-18761 -19069 0
19273 19272 0
-19273 -19272 0
19276 19275 0
-19276 -19275 0
19279 19278 0
-19279 -19278 0
19343 18761 0
-19343 -18761 0
19282 19273 0
-19282 -19273 0
19285 19276 0
-19285 -19276 0
19288 19279 0
-19288 -19279 0
18771 19286 0
-18771 -19286 0
19075 18771 0
-19075 -18771 0
18775 19074 0
-18775 -19074 0
18777 18775 0
-18777 -18775 0
18779 18777 0
-18779 -18777 0
18781 18779 0
-18781 -18779 0
18783 18781 0
-18783 -18781 0
19131 18783 0
-19131 -18783 0
19291 19131 0
-19291 -19131 0
19078 19291 0
-19078 -19291 0
18791 19077 0
-18791 -19077 0
18805 18791 0
-18805 -18791 0
18795 19077 0
-18795 -19077 0
19084 18795 0
-19084 -18795 0
18799 19080 0
-18799 -19080 0
19115 18799 0
-19115 -18799 0
18803 19080 0
-18803 -19080 0
19087 18803 0
-19087 -18803 0
18807 18805 0
-18807 -18805 0
19103 18807 0
-19103 -18807 0
18811 19115 0
-18811 -19115 0
19311 18811 0
-19311 -18811 0
19132 19103 0
-19132 -19103 0
19148 19115 0
-19148 -19115 0
18825 19195 0
-18825 -19195 0
18827 19134 0
-18827 -19134 0
19294 19293 0
-19294 -19293 0
19297 19296 0
-19297 -19296 0
19333 18825 0
-19333 -18825 0
19341 18827 0
-19341 -18827 0
19300 19299 0
-19300 -19299 0
19303 19294 0
-19303 -19294 0
19306 19297 0
-19306 -19297 0
18843 19214 0
-18843 -19214 0
18845 19218 0
-18845 -19218 0
18847 19222 0
-18847 -19222 0
19309 19300 0
-19309 -19300 0
19335 18843 0
-19335 -18843 0
19337 18845 0
-19337 -18845 0
19339 18847 0
-19339 -18847 0
18851 19307 0
-18851 -19307 0
18850 18851 0
-18850 -18851 0
-18852 18853 0
-18852 18854 0
-18852 18855 0
18852 -18853 -18854 -18855 0
-18856 18857 0
-18856 18858 0
18856 -18857 -18858 0
-18859 18860 0
-18859 18861 0
18859 -18860 -18861 0
-18862 18863 0
-18862 18864 0
18862 -18863 -18864 0
-18865 18866 0
-18865 18867 0
18865 -18866 -18867 0
-18868 18869 0
-18868 18870 0
18868 -18869 -18870 0
-18871 18872 0
-18871 18873 0
18871 -18872 -18873 0
-18874 18875 0
-18874 18876 0
18874 -18875 -18876 0
-19192 19290 0
-19192 19031 0
19192 -19290 -19031 0
-19165 19290 0
-19165 19031 0
19165 -19290 -19031 0
-19173 19290 0
-19173 19031 0
19173 -19290 -19031 0
-19169 19290 0
-19169 19031 0
19169 -19290 -19031 0
-19193 19290 0
-19193 19090 0
-19193 19091 0
-19193 19119 0
19193 -19290 -19090 -19091 -19119 0
-19166 19290 0
-19166 19090 0
-19166 18974 0
-19166 19119 0
19166 -19290 -19090 -18974 -19119 0
-19175 19290 0
-19175 19024 0
-19175 19091 0
-19175 19119 0
19175 -19290 -19024 -19091 -19119 0
-19171 19290 0
-19171 19024 0
-19171 18974 0
-19171 19119 0
19171 -19290 -19024 -18974 -19119 0
-18909 18910 0
-18909 18911 0
18909 -18910 -18911 0
-18912 18913 0
-18912 18914 0
18912 -18913 -18914 0
-18915 18916 0
-18915 18917 0
18915 -18916 -18917 0
-18918 18919 0
-18918 18920 0
18918 -18919 -18920 0
-18921 18922 0
-18921 18923 0
18921 -18922 -18923 0
-18924 18925 0
-18924 18926 0
18924 -18925 -18926 0
-18927 19238 0
-18927 18929 0
18927 -19238 -18929 0
-18930 18931 0
-18930 18932 0
18930 -18931 -18932 0
-18933 19241 0
-18933 18935 0
18933 -19241 -18935 0
-18936 18937 0
-18936 18938 0
18936 -18937 -18938 0
-18939 18940 0
-18939 18941 0
18939 -18940 -18941 0
-18942 18943 0
-18942 18944 0
18942 -18943 -18944 0
-18945 18946 0
-18945 18947 0
18945 -18946 -18947 0
-19184 19240 0
-19184 19162 0
19184 -19240 -19162 0
-19211 19024 0
-19211 18974 0
-19211 19162 0
-19211 19119 0
19211 -19024 -18974 -19162 -19119 0
-19223 19114 0
-19223 18967 0
19223 -19114 -18967 0
-19224 19147 0
-19224 18967 0
19224 -19147 -18967 0
-19317 19114 0
-19317 18967 0
19317 -19114 -18967 0
-18965 19114 0
-18965 18967 0
18965 -19114 -18967 0
-19178 19243 0
-19178 19152 0
-19178 19153 0
19178 -19243 -19152 -19153 0
-18989 19090 0
-18989 18974 0
-18989 19152 0
18989 -19090 -18974 -19152 0
-19215 19114 0
-19215 19071 0
19215 -19114 -19071 0
-19216 19071 0
-19216 19151 0
19216 -19071 -19151 0
-19174 19114 0
-19174 18984 0
-19174 19145 0
19174 -19114 -18984 -19145 0
-19210 19153 0
-19210 19119 0
-19210 18989 0
19210 -19153 -19119 -18989 0
-19180 18998 0
-19180 18992 0
19180 -18998 -18992 0
-19177 18998 0
-19177 19153 0
19177 -18998 -19153 0
-19181 18997 0
-19181 18998 0
-19181 19153 0
19181 -18997 -18998 -19153 0
-19063 19114 0
-19063 19002 0
-19063 19149 0
19063 -19114 -19002 -19149 0
-19004 19005 0
-19004 19006 0
19004 -19005 -19006 0
-19007 19008 0
-19007 19009 0
19007 -19008 -19009 0
-19010 19268 0
-19010 19012 0
19010 -19268 -19012 0
-19013 19014 0
-19013 19015 0
19013 -19014 -19015 0
-19016 19017 0
-19016 19018 0
19016 -19017 -19018 0
-19187 19270 0
-19187 19157 0
-19187 19158 0
19187 -19270 -19157 -19158 0
-19045 19024 0
-19045 19091 0
-19045 19157 0
19045 -19024 -19091 -19157 0
-19123 19157 0
-19123 19158 0
-19123 19162 0
-19123 19031 0
19123 -19157 -19158 -19162 -19031 0
-19219 19114 0
-19219 19040 0
19219 -19114 -19040 0
-19220 19040 0
-19220 19156 0
19220 -19040 -19156 0
-19038 19114 0
-19038 19040 0
-19038 19145 0
19038 -19114 -19040 -19145 0
-19202 19158 0
-19202 19119 0
-19202 19045 0
19202 -19158 -19119 -19045 0
-19189 19054 0
-19189 19048 0
19189 -19054 -19048 0
-19186 19054 0
-19186 19158 0
19186 -19054 -19158 0
-19190 19053 0
-19190 19054 0
-19190 19158 0
19190 -19053 -19054 -19158 0
-19101 19149 0
-19101 19161 0
-19101 19145 0
19101 -19149 -19161 -19145 0
-19194 19161 0
-19194 19145 0
-19194 19063 0
19194 -19161 -19145 -19063 0
-19313 19114 0
-19313 19071 0
-19313 19161 0
-19313 19145 0
19313 -19114 -19071 -19161 -19145 0
-19069 19114 0
-19069 19071 0
-19069 19161 0
-19069 19145 0
19069 -19114 -19071 -19161 -19145 0
-19074 19075 0
-19074 19076 0
19074 -19075 -19076 0
-19077 19078 0
-19077 19079 0
19077 -19078 -19079 0
-19080 19289 0
-19080 19082 0
19080 -19289 -19082 0
-19083 19084 0
-19083 19085 0
19083 -19084 -19085 0
-19086 19087 0
-19086 19088 0
19086 -19087 -19088 0
-19120 19090 0
-19120 19091 0
-19120 19103 0
19120 -19090 -19091 -19103 0
-19205 19291 0
-19205 19103 0
-19205 19133 0
19205 -19291 -19103 -19133 0
-19198 19112 0
-19198 19103 0
-19198 19133 0
-19198 19101 0
19198 -19112 -19103 -19133 -19101 0
-19122 19103 0
-19122 19133 0
-19122 19152 0
-19122 19153 0
19122 -19103 -19133 -19152 -19153 0
-19196 19114 0
-19196 19115 0
19196 -19114 -19115 0
-19197 19115 0
-19197 19112 0
19197 -19115 -19112 0
-19137 19114 0
-19137 19115 0
-19137 19149 0
19137 -19114 -19115 -19149 0
-19201 19133 0
-19201 19119 0
-19201 19120 0
19201 -19133 -19119 -19120 0
-19212 19122 0
-19212 19123 0
19212 -19122 -19123 0
-19207 19132 0
-19207 19126 0
19207 -19132 -19126 0
-19204 19132 0
-19204 19133 0
19204 -19132 -19133 0
-19208 19131 0
-19208 19132 0
-19208 19133 0
19208 -19131 -19132 -19133 0
-19134 19161 0
-19134 19145 0
-19134 19137 0
19134 -19161 -19145 -19137 0
-19154 19148 0
-19154 19161 0
-19154 19145 0
19154 -19148 -19161 -19145 0
-19159 19148 0
-19159 19149 0
-19159 19145 0
19159 -19148 -19149 -19145 0
-19163 19147 0
-19163 19148 0
-19163 19149 0
19163 -19147 -19148 -19149 0
-19217 19151 0
-19217 19152 0
-19217 19153 0
-19217 19154 0
19217 -19151 -19152 -19153 -19154 0
-19221 19156 0
-19221 19157 0
-19221 19158 0
-19221 19159 0
19221 -19156 -19157 -19158 -19159 0
-19225 19161 0
-19225 19162 0
-19225 19163 0
19225 -19161 -19162 -19163 0
19227 -19165 0
19227 -19166 0
19227 -19167 0
-19227 19165 19166 19167 0
19230 -19169 0
19230 -19170 0
19230 -19171 0
-19230 19169 19170 19171 0
19245 -19173 0
19245 -19174 0
19245 -19175 0
-19245 19173 19174 19175 0
19248 -19177 0
19248 -19178 0
-19248 19177 19178 0
19251 -19180 0
19251 -19181 0
-19251 19180 19181 0
19254 -19183 0
19254 -19184 0
-19254 19183 19184 0
19272 -19186 0
19272 -19187 0
-19272 19186 19187 0
19275 -19189 0
19275 -19190 0
-19275 19189 19190 0
19278 -19192 0
19278 -19193 0
19278 -19194 0
-19278 19192 19193 19194 0
19195 -19196 0
19195 -19197 0
19195 -19198 0
-19195 19196 19197 19198 0
19213 -19200 0
19213 -19201 0
19213 -19202 0
-19213 19200 19201 19202 0
19293 -19204 0
19293 -19205 0
-19293 19204 19205 0
19296 -19207 0
19296 -19208 0
-19296 19207 19208 0
19299 -19210 0
19299 -19211 0
19299 -19212 0
19299 -19213 0
-19299 19210 19211 19212 19213 0
19214 -19215 0
19214 -19216 0
19214 -19217 0
-19214 19215 19216 19217 0
19218 -19219 0
19218 -19220 0
19218 -19221 0
-19218 19219 19220 19221 0
19222 -19223 0
19222 -19224 0
19222 -19225 0
-19222 19223 19224 19225 0
19233 19227 0
19233 19228 0
-19233 -19227 -19228 0
19236 19230 0
19236 19231 0
-19236 -19230 -19231 0
19232 19233 0
19232 19234 0
-19232 -19233 -19234 0
19235 19236 0
19235 19237 0
-19235 -19236 -19237 0
19238 19290 0
19238 19240 0
-19238 -19290 -19240 0
19241 19290 0
19241 19243 0
-19241 -19290 -19243 0
19257 19245 0
19257 19246 0
-19257 -19245 -19246 0
19260 19248 0
19260 19249 0
-19260 -19248 -19249 0
19263 19251 0
19263 19252 0
-19263 -19251 -19252 0
19266 19254 0
19266 19255 0
-19266 -19254 -19255 0
19256 19257 0
19256 19258 0
-19256 -19257 -19258 0
19327 19260 0
19327 19261 0
-19327 -19260 -19261 0
19325 19263 0
19325 19264 0
-19325 -19263 -19264 0
19319 19266 0
19319 19267 0
-19319 -19266 -19267 0
19268 19290 0
19268 19270 0
-19268 -19290 -19270 0
19281 19272 0
19281 19273 0
-19281 -19272 -19273 0
19284 19275 0
19284 19276 0
-19284 -19275 -19276 0
19287 19278 0
19287 19279 0
-19287 -19278 -19279 0
19323 19281 0
19323 19282 0
-19323 -19281 -19282 0
19321 19284 0
19321 19285 0
-19321 -19284 -19285 0
19286 19287 0
19286 19288 0
-19286 -19287 -19288 0
19289 19290 0
19289 19291 0
-19289 -19290 -19291 0
19302 19293 0
19302 19294 0
-19302 -19293 -19294 0
19305 19296 0
19305 19297 0
-19305 -19296 -19297 0
19308 19299 0
19308 19300 0
-19308 -19299 -19300 0
19331 19302 0
19331 19303 0
-19331 -19302 -19303 0
19329 19305 0
19329 19306 0
-19329 -19305 -19306 0
19307 19308 0
19307 19309 0
-19307 -19308 -19309 0
-19311 19972 0
19311 -19972 0
-19313 20137 0
19313 -20137 0
-19315 19954 0
19315 -19954 0
-19317 20140 0
19317 -20140 0
-19319 19413 0
19319 -19413 0
-19321 19421 0
19321 -19421 0
-19323 19377 0
19323 -19377 0
-19325 19381 0
19325 -19381 0
-19327 19385 0
19327 -19385 0
-19329 19393 0
19329 -19393 0
-19331 19401 0
19331 -19401 0
-19333 19409 0
19333 -19409 0
-19335 19417 0
19335 -19417 0
-19337 19425 0
19337 -19425 0
-19339 19429 0
19339 -19429 0
-19341 19433 0
19341 -19433 0
-19343 19389 0
19343 -19389 0
-19345 19397 0
19345 -19397 0
-19347 19405 0
19347 -19405 0
19437 19349 0
-19437 -19349 0
20084 19351 0
-20084 -19351 0
20260 19353 0
-20260 -19353 0
19439 19355 0
-19439 -19355 0
19441 19357 0
-19441 -19357 0
19443 19359 0
-19443 -19359 0
19445 19361 0
-19445 -19361 0
19447 19363 0
-19447 -19363 0
19449 19365 0
-19449 -19365 0
19451 19367 0
-19451 -19367 0
19453 19369 0
-19453 -19369 0
19455 19371 0
-19455 -19371 0
19372 19373 0
-19372 -19373 0
19374 19375 0
-19374 -19375 0
19379 19377 0
-19379 -19377 0
19979 19379 0
-19979 -19379 0
19383 19381 0
-19383 -19381 0
19831 19383 0
-19831 -19383 0
19387 19385 0
-19387 -19385 0
19902 19387 0
-19902 -19387 0
19391 19389 0
-19391 -19389 0
19840 19391 0
-19840 -19391 0
19395 19393 0
-19395 -19393 0
19834 19395 0
-19834 -19395 0
19399 19397 0
-19399 -19397 0
19843 19399 0
-19843 -19399 0
19403 19401 0
-19403 -19401 0
20049 19403 0
-20049 -19403 0
19407 19405 0
-19407 -19405 0
19846 19407 0
-19846 -19407 0
19411 19409 0
-19411 -19409 0
20052 19411 0
-20052 -19411 0
19415 19413 0
-19415 -19413 0
19896 19415 0
-19896 -19415 0
19419 19417 0
-19419 -19417 0
19905 19419 0
-19905 -19419 0
19423 19421 0
-19423 -19421 0
19828 19423 0
-19828 -19423 0
19427 19425 0
-19427 -19425 0
19982 19427 0
-19982 -19427 0
19431 19429 0
-19431 -19429 0
19899 19431 0
-19899 -19431 0
19435 19433 0
-19435 -19433 0
19837 19435 0
-19837 -19435 0
20117 19437 0
-20117 -19437 0
19469 19439 0
-19469 -19439 0
20121 19441 0
-20121 -19441 0
20126 19443 0
-20126 -19443 0
20082 19445 0
-20082 -19445 0
19994 19447 0
-19994 -19447 0
19944 19449 0
-19944 -19449 0
19823 19451 0
-19823 -19451 0
19824 19453 0
-19824 -19453 0
19825 19455 0
-19825 -19455 0
19827 19469 0
-19827 -19469 0
19830 19469 0
-19830 -19469 0
19833 19469 0
-19833 -19469 0
19836 19469 0
-19836 -19469 0
19839 19469 0
-19839 -19469 0
19842 19469 0
-19842 -19469 0
19845 19469 0
-19845 -19469 0
20060 19994 0
-20060 -19994 0
20061 19944 0
-20061 -19944 0
20001 19823 0
-20001 -19823 0
20170 19824 0
-20170 -19824 0
20089 19825 0
-20089 -19825 0
19523 19822 0
-19523 -19822 0
19485 19826 0
-19485 -19826 0
19525 19485 0
-19525 -19485 0
19489 19826 0
-19489 -19826 0
19880 19489 0
-19880 -19489 0
19493 19829 0
-19493 -19829 0
19529 19493 0
-19529 -19493 0
19497 19829 0
-19497 -19829 0
19883 19497 0
-19883 -19497 0
19501 19832 0
-19501 -19832 0
19533 19501 0
-19533 -19501 0
19505 19832 0
-19505 -19832 0
19886 19505 0
-19886 -19505 0
19509 19835 0
-19509 -19835 0
19508 19509 0
-19508 -19509 0
19513 19838 0
-19513 -19838 0
19512 19513 0
-19512 -19513 0
19517 19841 0
-19517 -19841 0
19516 19517 0
-19516 -19517 0
19521 19844 0
-19521 -19844 0
19520 19521 0
-19520 -19521 0
19537 19523 0
-19537 -19523 0
19527 19525 0
-19527 -19525 0
20128 19527 0
-20128 -19527 0
19531 19529 0
-19531 -19529 0
20123 19531 0
-20123 -19531 0
19535 19533 0
-19535 -19533 0
20103 19535 0
-20103 -19535 0
19539 19537 0
-19539 -19537 0
19538 19539 0
-19538 -19539 0
20198 20197 0
-20198 -20197 0
20201 20200 0
-20201 -20200 0
20018 20128 0
-20018 -20128 0
19962 20123 0
-19962 -20123 0
20096 20103 0
-20096 -20103 0
20204 20198 0
-20204 -20198 0
20207 20201 0
-20207 -20201 0
19557 20202 0
-19557 -20202 0
19889 19557 0
-19889 -19557 0
19561 20205 0
-19561 -20205 0
19892 19561 0
-19892 -19561 0
19567 19888 0
-19567 -19888 0
19569 19891 0
-19569 -19891 0
19571 19567 0
-19571 -19567 0
19575 19569 0
-19575 -19569 0
19573 19571 0
-19573 -19571 0
19579 19573 0
-19579 -19573 0
19577 19575 0
-19577 -19575 0
19583 19577 0
-19583 -19577 0
19581 19579 0
-19581 -19579 0
19967 19581 0
-19967 -19581 0
20210 19583 0
-20210 -19583 0
20213 19967 0
-20213 -19967 0
19895 20210 0
-19895 -20210 0
19901 20213 0
-19901 -20213 0
19593 19894 0
-19593 -19894 0
19623 19593 0
-19623 -19593 0
19597 19894 0
-19597 -19894 0
19907 19597 0
-19907 -19597 0
19601 19897 0
-19601 -19897 0
19627 19601 0
-19627 -19601 0
19605 19897 0
-19605 -19897 0
19910 19605 0
-19910 -19605 0
19609 19900 0
-19609 -19900 0
19631 19609 0
-19631 -19609 0
19613 19900 0
-19613 -19900 0
19913 19613 0
-19913 -19613 0
19617 19903 0
-19617 -19903 0
19635 19617 0
-19635 -19617 0
19621 19903 0
-19621 -19903 0
19916 19621 0
-19916 -19621 0
19625 19623 0
-19625 -19623 0
20132 19625 0
-20132 -19625 0
19629 19627 0
-19629 -19627 0
19937 19629 0
-19937 -19629 0
19633 19631 0
-19633 -19631 0
20122 19633 0
-20122 -19633 0
19637 19635 0
-19637 -19635 0
20041 19637 0
-20041 -19637 0
19647 20132 0
-19647 -20132 0
20115 19937 0
-20115 -19937 0
19968 20122 0
-19968 -20122 0
20119 20041 0
-20119 -20041 0
19651 19647 0
-19651 -19647 0
19653 19935 0
-19653 -19935 0
20153 19651 0
-20153 -19651 0
20317 19653 0
-20317 -19653 0
20216 20215 0
-20216 -20215 0
20219 20218 0
-20219 -20218 0
20222 20221 0
-20222 -20221 0
20225 20224 0
-20225 -20224 0
20228 20216 0
-20228 -20216 0
20231 20219 0
-20231 -20219 0
20234 20222 0
-20234 -20222 0
20237 20225 0
-20237 -20225 0
19673 20226 0
-19673 -20226 0
19975 19673 0
-19975 -19673 0
19677 19974 0
-19677 -19974 0
19679 19677 0
-19679 -19677 0
19681 19679 0
-19681 -19679 0
19683 19681 0
-19683 -19681 0
19685 19683 0
-19685 -19683 0
20023 19685 0
-20023 -19685 0
20240 20023 0
-20240 -20023 0
19978 20240 0
-19978 -20240 0
19693 19977 0
-19693 -19977 0
19707 19693 0
-19707 -19693 0
19697 19977 0
-19697 -19977 0
19984 19697 0
-19984 -19697 0
19701 19980 0
-19701 -19980 0
20010 19701 0
-20010 -19701 0
19705 19980 0
-19705 -19980 0
19987 19705 0
-19987 -19705 0
19709 19707 0
-19709 -19707 0
20127 19709 0
-20127 -19709 0
19713 20010 0
-19713 -20010 0
20285 19713 0
-20285 -19713 0
20024 20127 0
-20024 -20127 0
20131 20010 0
-20131 -20010 0
19721 20008 0
-19721 -20008 0
20315 19721 0
-20315 -19721 0
19731 20039 0
-19731 -20039 0
20243 20242 0
-20243 -20242 0
20246 20245 0
-20246 -20245 0
20249 20248 0
-20249 -20248 0
20313 19731 0
-20313 -19731 0
20252 20243 0
-20252 -20243 0
20255 20246 0
-20255 -20246 0
20258 20249 0
-20258 -20249 0
19741 20256 0
-19741 -20256 0
20045 19741 0
-20045 -19741 0
19745 20044 0
-19745 -20044 0
19747 19745 0
-19747 -19745 0
19749 19747 0
-19749 -19747 0
19751 19749 0
-19751 -19749 0
19753 19751 0
-19753 -19751 0
20101 19753 0
-20101 -19753 0
20261 20101 0
-20261 -20101 0
20048 20261 0
-20048 -20261 0
19761 20047 0
-19761 -20047 0
19775 19761 0
-19775 -19761 0
19765 20047 0
-19765 -20047 0
20054 19765 0
-20054 -19765 0
19769 20050 0
-19769 -20050 0
20085 19769 0
-20085 -19769 0
19773 20050 0
-19773 -20050 0
20057 19773 0
-20057 -19773 0
19777 19775 0
-19777 -19775 0
20073 19777 0
-20073 -19777 0
19781 20085 0
-19781 -20085 0
20281 19781 0
-20281 -19781 0
20102 20073 0
-20102 -20073 0
20118 20085 0
-20118 -20085 0
19795 20165 0
-19795 -20165 0
19797 20104 0
-19797 -20104 0
20264 20263 0
-20264 -20263 0
20267 20266 0
-20267 -20266 0
20303 19795 0
-20303 -19795 0
20311 19797 0
-20311 -19797 0
20270 20269 0
-20270 -20269 0
20273 20264 0
-20273 -20264 0
20276 20267 0
-20276 -20267 0
19813 20184 0
-19813 -20184 0
19815 20188 0
-19815 -20188 0
19817 20192 0
-19817 -20192 0
20279 20270 0
-20279 -20270 0
20305 19813 0
-20305 -19813 0
20307 19815 0
-20307 -19815 0
20309 19817 0
-20309 -19817 0
19821 20277 0
-19821 -20277 0
19820 19821 0
-19820 -19821 0
-19822 19823 0
-19822 19824 0
-19822 19825 0
19822 -19823 -19824 -19825 0
-19826 19827 0
-19826 19828 0
19826 -19827 -19828 0
-19829 19830 0
-19829 19831 0
19829 -19830 -19831 0
-19832 19833 0
-19832 19834 0
19832 -19833 -19834 0
-19835 19836 0
-19835 19837 0
19835 -19836 -19837 0
-19838 19839 0
-19838 19840 0
19838 -19839 -19840 0
-19841 19842 0
-19841 19843 0
19841 -19842 -19843 0
-19844 19845 0
-19844 19846 0
19844 -19845 -19846 0
-20162 20260 0
-20162 20001 0
20162 -20260 -20001 0
-20135 20260 0
-20135 20001 0
20135 -20260 -20001 0
-20143 20260 0
-20143 20001 0
20143 -20260 -20001 0
-20139 20260 0
-20139 20001 0
20139 -20260 -20001 0
-20163 20260 0
-20163 20060 0
-20163 20061 0
-20163 20089 0
20163 -20260 -20060 -20061 -20089 0
-20136 20260 0
-20136 20060 0
-20136 19944 0
-20136 20089 0
20136 -20260 -20060 -19944 -20089 0
-20145 20260 0
-20145 19994 0
-20145 20061 0
-20145 20089 0
20145 -20260 -19994 -20061 -20089 0
-20141 20260 0
-20141 19994 0
-20141 19944 0
-20141 20089 0
20141 -20260 -19994 -19944 -20089 0
-19879 19880 0
-19879 19881 0
19879 -19880 -19881 0
-19882 19883 0
-19882 19884 0
19882 -19883 -19884 0
-19885 19886 0
-19885 19887 0
19885 -19886 -19887 0
-19888 19889 0
-19888 19890 0
19888 -19889 -19890 0
-19891 19892 0
-19891 19893 0
19891 -19892 -19893 0
-19894 19895 0
-19894 19896 0
19894 -19895 -19896 0
-19897 20208 0
-19897 19899 0
19897 -20208 -19899 0
-19900 19901 0
-19900 19902 0
19900 -19901 -19902 0
-19903 20211 0
-19903 19905 0
19903 -20211 -19905 0
-19906 19907 0
-19906 19908 0
19906 -19907 -19908 0
-19909 19910 0
-19909 19911 0
19909 -19910 -19911 0
-19912 19913 0
-19912 19914 0
19912 -19913 -19914 0
-19915 19916 0
-19915 19917 0
19915 -19916 -19917 0
-20154 20210 0
-20154 20132 0
20154 -20210 -20132 0
-20181 19994 0
-20181 19944 0
-20181 20132 0
-20181 20089 0
20181 -19994 -19944 -20132 -20089 0
-20193 20084 0
-20193 19937 0
20193 -20084 -19937 0
-20194 20117 0
-20194 19937 0
20194 -20117 -19937 0
-20287 20084 0
-20287 19937 0
20287 -20084 -19937 0
-19935 20084 0
-19935 19937 0
19935 -20084 -19937 0
-20148 20213 0
-20148 20122 0
-20148 20123 0
20148 -20213 -20122 -20123 0
-19959 20060 0
-19959 19944 0
-19959 20122 0
19959 -20060 -19944 -20122 0
-20185 20084 0
-20185 20041 0
20185 -20084 -20041 0
-20186 20041 0
-20186 20121 0
20186 -20041 -20121 0
-20144 20084 0
-20144 19954 0
-20144 20115 0
20144 -20084 -19954 -20115 0
-20180 20123 0
-20180 20089 0
-20180 19959 0
20180 -20123 -20089 -19959 0
-20150 19968 0
-20150 19962 0
20150 -19968 -19962 0
-20147 19968 0
-20147 20123 0
20147 -19968 -20123 0
-20151 19967 0
-20151 19968 0
-20151 20123 0
20151 -19967 -19968 -20123 0
-20033 20084 0
-20033 19972 0
-20033 20119 0
20033 -20084 -19972 -20119 0
-19974 19975 0
-19974 19976 0
19974 -19975 -19976 0
-19977 19978 0
-19977 19979 0
19977 -19978 -19979 0
-19980 20238 0
-19980 19982 0
19980 -20238 -19982 0
-19983 19984 0
-19983 19985 0
19983 -19984 -19985 0
-19986 19987 0
-19986 19988 0
19986 -19987 -19988 0
-20157 20240 0
-20157 20127 0
-20157 20128 0
20157 -20240 -20127 -20128 0
-20015 19994 0
-20015 20061 0
-20015 20127 0
20015 -19994 -20061 -20127 0
-20093 20127 0
-20093 20128 0
-20093 20132 0
-20093 20001 0
20093 -20127 -20128 -20132 -20001 0
-20189 20084 0
-20189 20010 0
20189 -20084 -20010 0
-20190 20010 0
-20190 20126 0
20190 -20010 -20126 0
-20008 20084 0
-20008 20010 0
-20008 20115 0
20008 -20084 -20010 -20115 0
-20172 20128 0
-20172 20089 0
-20172 20015 0
20172 -20128 -20089 -20015 0
-20159 20024 0
-20159 20018 0
20159 -20024 -20018 0
-20156 20024 0
-20156 20128 0
20156 -20024 -20128 0
-20160 20023 0
-20160 20024 0
-20160 20128 0
20160 -20023 -20024 -20128 0
-20071 20119 0
-20071 20131 0
-20071 20115 0
20071 -20119 -20131 -20115 0
-20164 20131 0
-20164 20115 0
-20164 20033 0
20164 -20131 -20115 -20033 0
-20283 20084 0
-20283 20041 0
-20283 20131 0
-20283 20115 0
20283 -20084 -20041 -20131 -20115 0
-20039 20084 0
-20039 20041 0
-20039 20131 0
-20039 20115 0
20039 -20084 -20041 -20131 -20115 0
-20044 20045 0
-20044 20046 0
20044 -20045 -20046 0
-20047 20048 0
-20047 20049 0
20047 -20048 -20049 0
-20050 20259 0
-20050 20052 0
20050 -20259 -20052 0
-20053 20054 0
-20053 20055 0
20053 -20054 -20055 0
-20056 20057 0
-20056 20058 0
20056 -20057 -20058 0
-20090 20060 0
-20090 20061 0
-20090 20073 0
20090 -20060 -20061 -20073 0
-20175 20261 0
-20175 20073 0
-20175 20103 0
20175 -20261 -20073 -20103 0
-20168 20082 0
-20168 20073 0
-20168 20103 0
-20168 20071 0
20168 -20082 -20073 -20103 -20071 0
-20092 20073 0
-20092 20103 0
-20092 20122 0
-20092 20123 0
20092 -20073 -20103 -20122 -20123 0
-20166 20084 0
-20166 20085 0
20166 -20084 -20085 0
-20167 20085 0
-20167 20082 0
20167 -20085 -20082 0
-20107 20084 0
-20107 20085 0
-20107 20119 0
20107 -20084 -20085 -20119 0
-20171 20103 0
-20171 20089 0
-20171 20090 0
20171 -20103 -20089 -20090 0
-20182 20092 0
-20182 20093 0
20182 -20092 -20093 0
-20177 20102 0
-20177 20096 0
20177 -20102 -20096 0
-20174 20102 0
-20174 20103 0
20174 -20102 -20103 0
-20178 20101 0
-20178 20102 0
-20178 20103 0
20178 -20101 -20102 -20103 0
-20104 20131 0
-20104 20115 0
-20104 20107 0
20104 -20131 -20115 -20107 0
-20124 20118 0
-20124 20131 0
-20124 20115 0
20124 -20118 -20131 -20115 0
-20129 20118 0
-20129 20119 0
-20129 20115 0
20129 -20118 -20119 -20115 0
-20133 20117 0
-20133 20118 0
-20133 20119 0
20133 -20117 -20118 -20119 0
-20187 20121 0
-20187 20122 0
-20187 20123 0
-20187 20124 0
20187 -20121 -20122 -20123 -20124 0
-20191 20126 0
-20191 20127 0
-20191 20128 0
-20191 20129 0
20191 -20126 -20127 -20128 -20129 0
-20195 20131 0
-20195 20132 0
-20195 20133 0
20195 -20131 -20132 -20133 0
20197 -20135 0
20197 -20136 0
20197 -20137 0
-20197 20135 20136 20137 0
20200 -20139 0
20200 -20140 0
20200 -20141 0
-20200 20139 20140 20141 0
20215 -20143 0
20215 -20144 0
20215 -20145 0
-20215 20143 20144 20145 0
20218 -20147 0
20218 -20148 0
-20218 20147 20148 0
20221 -20150 0
20221 -20151 0
-20221 20150 20151 0
20224 -20153 0
20224 -20154 0
-20224 20153 20154 0
20242 -20156 0
20242 -20157 0
-20242 20156 20157 0
20245 -20159 0
20245 -20160 0
-20245 20159 20160 0
20248 -20162 0
20248 -20163 0
20248 -20164 0
-20248 20162 20163 20164 0
20165 -20166 0
20165 -20167 0
20165 -20168 0
-20165 20166 20167 20168 0
20183 -20170 0
20183 -20171 0
20183 -20172 0
-20183 20170 20171 20172 0
20263 -20174 0
20263 -20175 0
-20263 20174 20175 0
20266 -20177 0
20266 -20178 0
-20266 20177 20178 0
20269 -20180 0
20269 -20181 0
20269 -20182 0
20269 -20183 0
-20269 20180 20181 20182 20183 0
20184 -20185 0
20184 -20186 0
20184 -20187 0
-20184 20185 20186 20187 0
20188 -20189 0
20188 -20190 0
20188 -20191 0
-20188 20189 20190 20191 0
20192 -20193 0
20192 -20194 0
20192 -20195 0
-20192 20193 20194 20195 0
20203 20197 0
20203 20198 0
-20203 -20197 -20198 0
20206 20200 0
20206 20201 0
-20206 -20200 -20201 0
20202 20203 0
20202 20204 0
-20202 -20203 -20204 0
20205 20206 0
20205 20207 0
-20205 -20206 -20207 0
20208 20260 0
20208 20210 0
-20208 -20260 -20210 0
20211 20260 0
20211 20213 0
-20211 -20260 -20213 0
20227 20215 0
20227 20216 0
-20227 -20215 -20216 0
20230 20218 0
20230 20219 0
-20230 -20218 -20219 0
20233 20221 0
20233 20222 0
-20233 -20221 -20222 0
20236 20224 0
20236 20225 0
-20236 -20224 -20225 0
20226 20227 0
20226 20228 0
-20226 -20227 -20228 0
20297 20230 0
20297 20231 0
-20297 -20230 -20231 0
20295 20233 0
20295 20234 0
-20295 -20233 -20234 0
20289 20236 0
20289 20237 0
-20289 -20236 -20237 0
20238 20260 0
20238 20240 0
-20238 -20260 -20240 0
20251 20242 0
20251 20243 0
-20251 -20242 -20243 0
20254 20245 0
20254 20246 0
-20254 -20245 -20246 0
20257 20248 0
20257 20249 0
-20257 -20248 -20249 0
20293 20251 0
20293 20252 0
-20293 -20251 -20252 0
20291 20254 0
20291 20255 0
-20291 -20254 -20255 0
20256 20257 0
20256 20258 0
-20256 -20257 -20258 0
20259 20260 0
20259 20261 0
-20259 -20260 -20261 0
20272 20263 0
20272 20264 0
-20272 -20263 -20264 0
20275 20266 0
20275 20267 0
-20275 -20266 -20267 0
20278 20269 0
20278 20270 0
-20278 -20269 -20270 0
20301 20272 0
20301 20273 0
-20301 -20272 -20273 0
20299 20275 0
20299 20276 0
-20299 -20275 -20276 0
20277 20278 0
20277 20279 0
-20277 -20278 -20279 0
-20281 20942 0
20281 -20942 0
-20283 21107 0
20283 -21107 0
-20285 20924 0
20285 -20924 0
-20287 21110 0
20287 -21110 0
-20289 20383 0
20289 -20383 0
-20291 20391 0
20291 -20391 0
-20293 20347 0
20293 -20347 0
-20295 20351 0
20295 -20351 0
-20297 20355 0
20297 -20355 0
-20299 20363 0
20299 -20363 0
-20301 20371 0
20301 -20371 0
-20303 20379 0
20303 -20379 0
-20305 20387 0
20305 -20387 0
-20307 20395 0
20307 -20395 0
-20309 20399 0
20309 -20399 0
-20311 20403 0
20311 -20403 0
-20313 20359 0
20313 -20359 0
-20315 20367 0
20315 -20367 0
-20317 20375 0
20317 -20375 0
20407 20319 0
-20407 -20319 0
21054 20321 0
-21054 -20321 0
21230 20323 0
-21230 -20323 0
20409 20325 0
-20409 -20325 0
20411 20327 0
-20411 -20327 0
20413 20329 0
-20413 -20329 0
20415 20331 0
-20415 -20331 0
20417 20333 0
-20417 -20333 0
20419 20335 0
-20419 -20335 0
20421 20337 0
-20421 -20337 0
20423 20339 0
-20423 -20339 0
20425 20341 0
-20425 -20341 0
20342 20343 0
-20342 -20343 0
20344 20345 0
-20344 -20345 0
20349 20347 0
-20349 -20347 0
20949 20349 0
-20949 -20349 0
20353 20351 0
-20353 -20351 0
20801 20353 0
-20801 -20353 0
20357 20355 0
-20357 -20355 0
20872 20357 0
-20872 -20357 0
20361 20359 0
-20361 -20359 0
20810 20361 0
-20810 -20361 0
20365 20363 0
-20365 -20363 0
20804 20365 0
-20804 -20365 0
20369 20367 0
-20369 -20367 0
20813 20369 0
-20813 -20369 0
20373 20371 0
-20373 -20371 0
21019 20373 0
-21019 -20373 0
20377 20375 0
-20377 -20375 0
20816 20377 0
-20816 -20377 0
20381 20379 0
-20381 -20379 0
21022 20381 0
-21022 -20381 0
20385 20383 0
-20385 -20383 0
20866 20385 0
-20866 -20385 0
20389 20387 0
-20389 -20387 0
20875 20389 0
-20875 -20389 0
20393 20391 0
-20393 -20391 0
20798 20393 0
-20798 -20393 0
20397 20395 0
-20397 -20395 0
20952 20397 0
-20952 -20397 0
20401 20399 0
-20401 -20399 0
20869 20401 0
-20869 -20401 0
20405 20403 0
-20405 -20403 0
20807 20405 0
-20807 -20405 0
21087 20407 0
-21087 -20407 0
20439 20409 0
-20439 -20409 0
21091 20411 0
-21091 -20411 0
21096 20413 0
-21096 -20413 0
21052 20415 0
-21052 -20415 0
20964 20417 0
-20964 -20417 0
20914 20419 0
-20914 -20419 0
20793 20421 0
-20793 -20421 0
20794 20423 0
-20794 -20423 0
20795 20425 0
-20795 -20425 0
20797 20439 0
-20797 -20439 0
20800 20439 0
-20800 -20439 0
20803 20439 0
-20803 -20439 0
20806 20439 0
-20806 -20439 0
20809 20439 0
-20809 -20439 0
20812 20439 0
-20812 -20439 0
20815 20439 0
-20815 -20439 0
21030 20964 0
-21030 -20964 0
21031 20914 0
-21031 -20914 0
20971 20793 0
-20971 -20793 0
21140 20794 0
-21140 -20794 0
21059 20795 0
-21059 -20795 0
20493 20792 0
-20493 -20792 0
20455 20796 0
-20455 -20796 0
20495 20455 0
-20495 -20455 0
20459 20796 0
-20459 -20796 0
20850 20459 0
-20850 -20459 0
20463 20799 0
-20463 -20799 0
20499 20463 0
-20499 -20463 0
20467 20799 0
-20467 -20799 0
20853 20467 0
-20853 -20467 0
20471 20802 0
-20471 -20802 0
20503 20471 0
-20503 -20471 0
20475 20802 0
-20475 -20802 0
20856 20475 0
-20856 -20475 0
20479 20805 0
-20479 -20805 0
20478 20479 0
-20478 -20479 0
20483 20808 0
-20483 -20808 0
20482 20483 0
-20482 -20483 0
20487 20811 0
-20487 -20811 0
20486 20487 0
-20486 -20487 0
20491 20814 0
-20491 -20814 0
20490 20491 0
-20490 -20491 0
20507 20493 0
-20507 -20493 0
20497 20495 0
-20497 -20495 0
21098 20497 0
-21098 -20497 0
20501 20499 0
-20501 -20499 0
21093 20501 0
-21093 -20501 0
20505 20503 0
-20505 -20503 0
21073 20505 0
-21073 -20505 0
20509 20507 0
-20509 -20507 0
20508 20509 0
-20508 -20509 0
21168 21167 0
-21168 -21167 0
21171 21170 0
-21171 -21170 0
20988 21098 0
-20988 -21098 0
20932 21093 0
-20932 -21093 0
21066 21073 0
-21066 -21073 0
21174 21168 0
-21174 -21168 0
21177 21171 0
-21177 -21171 0
20527 21172 0
-20527 -21172 0
20859 20527 0
-20859 -20527 0
20531 21175 0
-20531 -21175 0
20862 20531 0
-20862 -20531 0
20537 20858 0
-20537 -20858 0
20539 20861 0
-20539 -20861 0
20541 20537 0
-20541 -20537 0
20545 20539 0
-20545 -20539 0
20543 20541 0
-20543 -20541 0
20549 20543 0
-20549 -20543 0
20547 20545 0
-20547 -20545 0
20553 20547 0
-20553 -20547 0
20551 20549 0
-20551 -20549 0
20937 20551 0
-20937 -20551 0
21180 20553 0
-21180 -20553 0
21183 20937 0
-21183 -20937 0
20865 21180 0
-20865 -21180 0
20871 21183 0
-20871 -21183 0
20563 20864 0
-20563 -20864 0
20593 20563 0
-20593 -20563 0
20567 20864 0
-20567 -20864 0
20877 20567 0
-20877 -20567 0
20571 20867 0
-20571 -20867 0
20597 20571 0
-20597 -20571 0
20575 20867 0
-20575 -20867 0
20880 20575 0
-20880 -20575 0
20579 20870 0
-20579 -20870 0
20601 20579 0
-20601 -20579 0
20583 20870 0
-20583 -20870 0
20883 20583 0
-20883 -20583 0
20587 20873 0
-20587 -20873 0
20605 20587 0
-20605 -20587 0
20591 20873 0
-20591 -20873 0
20886 20591 0
-20886 -20591 0
20595 20593 0
-20595 -20593 0
21102 20595 0
-21102 -20595 0
20599 20597 0
-20599 -20597 0
20907 20599 0
-20907 -20599 0
20603 20601 0
-20603 -20601 0
21092 20603 0
-21092 -20603 0
20607 20605 0
-20607 -20605 0
21011 20607 0
-21011 -20607 0
20617 21102 0
-20617 -21102 0
21085 20907 0
-21085 -20907 0
20938 21092 0
-20938 -21092 0
21089 21011 0
-21089 -21011 0
20621 20617 0
-20621 -20617 0
20623 20905 0
-20623 -20905 0
21123 20621 0
-21123 -20621 0
21287 20623 0
-21287 -20623 0
21186 21185 0
-21186 -21185 0
21189 21188 0
-21189 -21188 0
21192 21191 0
-21192 -21191 0
21195 21194 0
-21195 -21194 0
21198 21186 0
-21198 -21186 0
21201 21189 0
-21201 -21189 0
21204 21192 0
-21204 -21192 0
21207 21195 0
-21207 -21195 0
20643 21196 0
-20643 -21196 0
20945 20643 0
-20945 -20643 0
20647 20944 0
-20647 -20944 0
20649 20647 0
-20649 -20647 0
20651 20649 0
-20651 -20649 0
20653 20651 0
-20653 -20651 0
20655 20653 0
-20655 -20653 0
20993 20655 0
-20993 -20655 0
21210 20993 0
-21210 -20993 0
20948 21210 0
-20948 -21210 0
20663 20947 0
-20663 -20947 0
20677 20663 0
-20677 -20663 0
20667 20947 0
-20667 -20947 0
20954 20667 0
-20954 -20667 0
20671 20950 0
-20671 -20950 0
20980 20671 0
-20980 -20671 0
20675 20950 0
-20675 -20950 0
20957 20675 0
-20957 -20675 0
20679 20677 0
-20679 -20677 0
21097 20679 0
-21097 -20679 0
20683 20980 0
-20683 -20980 0
21255 20683 0
-21255 -20683 0
20994 21097 0
-20994 -21097 0
21101 20980 0
-21101 -20980 0
20691 20978 0
-20691 -20978 0
21285 20691 0
-21285 -20691 0
20701 21009 0
-20701 -21009 0
21213 21212 0
-21213 -21212 0
21216 21215 0
-21216 -21215 0
21219 21218 0
-21219 -21218 0
21283 20701 0
-21283 -20701 0
21222 21213 0
-21222 -21213 0
21225 21216 0
-21225 -21216 0
21228 21219 0
-21228 -21219 0
20711 21226 0
-20711 -21226 0
21015 20711 0
-21015 -20711 0
20715 21014 0
-20715 -21014 0
20717 20715 0
-20717 -20715 0
20719 20717 0
-20719 -20717 0
20721 20719 0
-20721 -20719 0
20723 20721 0
-20723 -20721 0
21071 20723 0
-21071 -20723 0
21231 21071 0
-21231 -21071 0
21018 21231 0
-21018 -21231 0
20731 21017 0
-20731 -21017 0
20745 20731 0
-20745 -20731 0
20735 21017 0
-20735 -21017 0
21024 20735 0
-21024 -20735 0
20739 21020 0
-20739 -21020 0
21055 20739 0
-21055 -20739 0
20743 21020 0
-20743 -21020 0
21027 20743 0
-21027 -20743 0
20747 20745 0
-20747 -20745 0
21043 20747 0
-21043 -20747 0
20751 21055 0
-20751 -21055 0
21251 20751 0
-21251 -20751 0
21072 21043 0
-21072 -21043 0
21088 21055 0
-21088 -21055 0
20765 21135 0
-20765 -21135 0
20767 21074 0
-20767 -21074 0
21234 21233 0
-21234 -21233 0
21237 21236 0
-21237 -21236 0
21273 20765 0
-21273 -20765 0
21281 20767 0
-21281 -20767 0
21240 21239 0
-21240 -21239 0
21243 21234 0
-21243 -21234 0
21246 21237 0
-21246 -21237 0
20783 21154 0
-20783 -21154 0
20785 21158 0
-20785 -21158 0
20787 21162 0
-20787 -21162 0
21249 21240 0
-21249 -21240 0
21275 20783 0
-21275 -20783 0
21277 20785 0
-21277 -20785 0
21279 20787 0
-21279 -20787 0
20791 21247 0
-20791 -21247 0
20790 20791 0
-20790 -20791 0
-20792 20793 0
-20792 20794 0
-20792 20795 0
20792 -20793 -20794 -20795 0
-20796 20797 0
-20796 20798 0
20796 -20797 -20798 0
-20799 20800 0
-20799 20801 0
20799 -20800 -20801 0
-20802 20803 0
-20802 20804 0
20802 -20803 -20804 0
-20805 20806 0
-20805 20807 0
20805 -20806 -20807 0
-20808 20809 0
-20808 20810 0
20808 -20809 -20810 0
-20811 20812 0
-20811 20813 0
20811 -20812 -20813 0
-20814 20815 0
-20814 20816 0
20814 -20815 -20816 0
-21132 21230 0
-21132 20971 0
21132 -21230 -20971 0
-21105 21230 0
-21105 20971 0
21105 -21230 -20971 0
-21113 21230 0
-21113 20971 0
21113 -21230 -20971 0
-21109 21230 0
-21109 20971 0
21109 -21230 -20971 0
-21133 21230 0
-21133 21030 0
-21133 21031 0
-21133 21059 0
21133 -21230 -21030 -21031 -21059 0
-21106 21230 0
-21106 21030 0
-21106 20914 0
-21106 21059 0
21106 -21230 -21030 -20914 -21059 0
-21115 21230 0
-21115 20964 0
-21115 21031 0
-21115 21059 0
21115 -21230 -20964 -21031 -21059 0
-21111 21230 0
-21111 20964 0
-21111 20914 0
-21111 21059 0
21111 -21230 -20964 -20914 -21059 0
-20849 20850 0
-20849 20851 0
20849 -20850 -20851 0
-20852 20853 0
-20852 20854 0
20852 -20853 -20854 0
-20855 20856 0
-20855 20857 0
20855 -20856 -20857 0
-20858 20859 0
-20858 20860 0
20858 -20859 -20860 0
-20861 20862 0
-20861 20863 0
20861 -20862 -20863 0
-20864 20865 0
-20864 20866 0
20864 -20865 -20866 0
-20867 21178 0
-20867 20869 0
20867 -21178 -20869 0
-20870 20871 0
-20870 20872 0
20870 -20871 -20872 0
-20873 21181 0
-20873 20875 0
20873 -21181 -20875 0
-20876 20877 0
-20876 20878 0
20876 -20877 -20878 0
-20879 20880 0
-20879 20881 0
20879 -20880 -20881 0
-20882 20883 0
-20882 20884 0
20882 -20883 -20884 0
-20885 20886 0
-20885 20887 0
20885 -20886 -20887 0
-21124 21180 0
-21124 21102 0
21124 -21180 -21102 0
-21151 20964 0
-21151 20914 0
-21151 21102 0
-21151 21059 0
21151 -20964 -20914 -21102 -21059 0
-21163 21054 0
-21163 20907 0
21163 -21054 -20907 0
-21164 21087 0
-21164 20907 0
21164 -21087 -20907 0
-21257 21054 0
-21257 20907 0
21257 -21054 -20907 0
-20905 21054 0
-20905 20907 0
20905 -21054 -20907 0
-21118 21183 0
-21118 21092 0
-21118 21093 0
21118 -21183 -21092 -21093 0
-20929 21030 0
-20929 20914 0
-20929 21092 0
20929 -21030 -20914 -21092 0
-21155 21054 0
-21155 21011 0
21155 -21054 -21011 0
-21156 21011 0
-21156 21091 0
21156 -21011 -21091 0
-21114 21054 0
-21114 20924 0
-21114 21085 0
21114 -21054 -20924 -21085 0
-21150 21093 0
-21150 21059 0
-21150 20929 0
21150 -21093 -21059 -20929 0
-21120 20938 0
-21120 20932 0
21120 -20938 -20932 0
-21117 20938 0
-21117 21093 0
21117 -20938 -21093 0
-21121 20937 0
-21121 20938 0
-21121 21093 0
21121 -20937 -20938 -21093 0
-21003 21054 0
-21003 20942 0
-21003 21089 0
21003 -21054 -20942 -21089 0
-20944 20945 0
-20944 20946 0
20944 -20945 -20946 0
-20947 20948 0
-20947 20949 0
20947 -20948 -20949 0
-20950 21208 0
-20950 20952 0
20950 -21208 -20952 0
-20953 20954 0
-20953 20955 0
20953 -20954 -20955 0
-20956 20957 0
-20956 20958 0
20956 -20957 -20958 0
-21127 21210 0
-21127 21097 0
-21127 21098 0
21127 -21210 -21097 -21098 0
-20985 20964 0
-20985 21031 0
-20985 21097 0
20985 -20964 -21031 -21097 0
-21063 21097 0
-21063 21098 0
-21063 21102 0
-21063 20971 0
21063 -21097 -21098 -21102 -20971 0
-21159 21054 0
-21159 20980 0
21159 -21054 -20980 0
-21160 20980 0
-21160 21096 0
21160 -20980 -21096 0
-20978 21054 0
-20978 20980 0
-20978 21085 0
20978 -21054 -20980 -21085 0
-21142 21098 0
-21142 21059 0
-21142 20985 0
21142 -21098 -21059 -20985 0
-21129 20994 0
-21129 20988 0
21129 -20994 -20988 0
-21126 20994 0
-21126 21098 0
21126 -20994 -21098 0
-21130 20993 0
-21130 20994 0
-21130 21098 0
21130 -20993 -20994 -21098 0
-21041 21089 0
-21041 21101 0
-21041 21085 0
21041 -21089 -21101 -21085 0
-21134 21101 0
-21134 21085 0
-21134 21003 0
21134 -21101 -21085 -21003 0
-21253 21054 0
-21253 21011 0
-21253 21101 0
-21253 21085 0
21253 -21054 -21011 -21101 -21085 0
-21009 21054 0
-21009 21011 0
-21009 21101 0
-21009 21085 0
21009 -21054 -21011 -21101 -21085 0
-21014 21015 0
-21014 21016 0
21014 -21015 -21016 0
-21017 21018 0
-21017 21019 0
21017 -21018 -21019 0
-21020 21229 0
-21020 21022 0
21020 -21229 -21022 0
-21023 21024 0
-21023 21025 0
21023 -21024 -21025 0
-21026 21027 0
-21026 21028 0
21026 -21027 -21028 0
-21060 21030 0
-21060 21031 0
-21060 21043 0
21060 -21030 -21031 -21043 0
-21145 21231 0
-21145 21043 0
-21145 21073 0
21145 -21231 -21043 -21073 0
-21138 21052 0
-21138 21043 0
-21138 21073 0
-21138 21041 0
21138 -21052 -21043 -21073 -21041 0
-21062 21043 0
-21062 21073 0
-21062 21092 0
-21062 21093 0
21062 -21043 -21073 -21092 -21093 0
-21136 21054 0
-21136 21055 0
21136 -21054 -21055 0
-21137 21055 0
-21137 21052 0
21137 -21055 -21052 0
-21077 21054 0
-21077 21055 0
-21077 21089 0
21077 -21054 -21055 -21089 0
-21141 21073 0
-21141 21059 0
-21141 21060 0
21141 -21073 -21059 -21060 0
-21152 21062 0
-21152 21063 0
21152 -21062 -21063 0
-21147 21072 0
-21147 21066 0
21147 -21072 -21066 0
-21144 21072 0
-21144 21073 0
21144 -21072 -21073 0
-21148 21071 0
-21148 21072 0
-21148 21073 0
21148 -21071 -21072 -21073 0
-21074 21101 0
-21074 21085 0
-21074 21077 0
21074 -21101 -21085 -21077 0
-21094 21088 0
-21094 21101 0
-21094 21085 0
21094 -21088 -21101 -21085 0
-21099 21088 0
-21099 21089 0
-21099 21085 0
21099 -21088 -21089 -21085 0
-21103 21087 0
-21103 21088 0
-21103 21089 0
21103 -21087 -21088 -21089 0
-21157 21091 0
-21157 21092 0
-21157 21093 0
-21157 21094 0
21157 -21091 -21092 -21093 -21094 0
-21161 21096 0
-21161 21097 0
-21161 21098 0
-21161 21099 0
21161 -21096 -21097 -21098 -21099 0
-21165 21101 0
-21165 21102 0
-21165 21103 0
21165 -21101 -21102 -21103 0
21167 -21105 0
21167 -21106 0
21167 -21107 0
-21167 21105 21106 21107 0
21170 -21109 0
21170 -21110 0
21170 -21111 0
-21170 21109 21110 21111 0
21185 -21113 0
21185 -21114 0
21185 -21115 0
-21185 21113 21114 21115 0
21188 -21117 0
21188 -21118 0
-21188 21117 21118 0
21191 -21120 0
21191 -21121 0
-21191 21120 21121 0
21194 -21123 0
21194 -21124 0
-21194 21123 21124 0
21212 -21126 0
21212 -21127 0
-21212 21126 21127 0
21215 -21129 0
21215 -21130 0
-21215 21129 21130 0
21218 -21132 0
21218 -21133 0
21218 -21134 0
-21218 21132 21133 21134 0
21135 -21136 0
21135 -21137 0
21135 -21138 0
-21135 21136 21137 21138 0
21153 -21140 0
21153 -21141 0
21153 -21142 0
-21153 21140 21141 21142 0
21233 -21144 0
21233 -21145 0
-21233 21144 21145 0
21236 -21147 0
21236 -21148 0
-21236 21147 21148 0
21239 -21150 0
21239 -21151 0
21239 -21152 0
21239 -21153 0
-21239 21150 21151 21152 21153 0
21154 -21155 0
21154 -21156 0
21154 -21157 0
-21154 21155 21156 21157 0
21158 -21159 0
21158 -21160 0
21158 -21161 0
-21158 21159 21160 21161 0
21162 -21163 0
21162 -21164 0
21162 -21165 0
-21162 21163 21164 21165 0
21173 21167 0
21173 21168 0
-21173 -21167 -21168 0
21176 21170 0
21176 21171 0
-21176 -21170 -21171 0
21172 21173 0
21172 21174 0
-21172 -21173 -21174 0
21175 21176 0
21175 21177 0
-21175 -21176 -21177 0
21178 21230 0
21178 21180 0
-21178 -21230 -21180 0
21181 21230 0
21181 21183 0
-21181 -21230 -21183 0
21197 21185 0
21197 21186 0
-21197 -21185 -21186 0
21200 21188 0
21200 21189 0
-21200 -21188 -21189 0
21203 21191 0
21203 21192 0
-21203 -21191 -21192 0
21206 21194 0
21206 21195 0
-21206 -21194 -21195 0
21196 21197 0
21196 21198 0
-21196 -21197 -21198 0
21267 21200 0
21267 21201 0
-21267 -21200 -21201 0
21265 21203 0
21265 21204 0
-21265 -21203 -21204 0
21259 21206 0
21259 21207 0
-21259 -21206 -21207 0
21208 21230 0
21208 21210 0
-21208 -21230 -21210 0
21221 21212 0
21221 21213 0
-21221 -21212 -21213 0
21224 21215 0
21224 21216 0
-21224 -21215 -21216 0
21227 21218 0
21227 21219 0
-21227 -21218 -21219 0
21263 21221 0
21263 21222 0
-21263 -21221 -21222 0
21261 21224 0
21261 21225 0
-21261 -21224 -21225 0
21226 21227 0
21226 21228 0
-21226 -21227 -21228 0
21229 21230 0
21229 21231 0
-21229 -21230 -21231 0
21242 21233 0
21242 21234 0
-21242 -21233 -21234 0
21245 21236 0
21245 21237 0
-21245 -21236 -21237 0
21248 21239 0
21248 21240 0
-21248 -21239 -21240 0
21271 21242 0
21271 21243 0
-21271 -21242 -21243 0
21269 21245 0
21269 21246 0
-21269 -21245 -21246 0
21247 21248 0
21247 21249 0
-21247 -21248 -21249 0
-21251 21912 0
21251 -21912 0
-21253 22077 0
21253 -22077 0
-21255 21894 0
21255 -21894 0
-21257 22080 0
21257 -22080 0
-21259 21353 0
21259 -21353 0
-21261 21361 0
21261 -21361 0
-21263 21317 0
21263 -21317 0
-21265 21321 0
21265 -21321 0
-21267 21325 0
21267 -21325 0
-21269 21333 0
21269 -21333 0
-21271 21341 0
21271 -21341 0
-21273 21349 0
21273 -21349 0
-21275 21357 0
21275 -21357 0
-21277 21365 0
21277 -21365 0
-21279 21369 0
21279 -21369 0
-21281 21373 0
21281 -21373 0
-21283 21329 0
21283 -21329 0
-21285 21337 0
21285 -21337 0
-21287 21345 0
21287 -21345 0
21377 21289 0
-21377 -21289 0
22024 21291 0
-22024 -21291 0
22200 21293 0
-22200 -21293 0
21379 21295 0
-21379 -21295 0
21381 21297 0
-21381 -21297 0
21383 21299 0
-21383 -21299 0
21385 21301 0
-21385 -21301 0
21387 21303 0
-21387 -21303 0
21389 21305 0
-21389 -21305 0
21391 21307 0
-21391 -21307 0
21393 21309 0
-21393 -21309 0
21395 21311 0
-21395 -21311 0
21312 21313 0
-21312 -21313 0
21314 21315 0
-21314 -21315 0
21319 21317 0
-21319 -21317 0
21919 21319 0
-21919 -21319 0
21323 21321 0
-21323 -21321 0
21771 21323 0
-21771 -21323 0
21327 21325 0
-21327 -21325 0
21842 21327 0
-21842 -21327 0
21331 21329 0
-21331 -21329 0
21780 21331 0
-21780 -21331 0
21335 21333 0
-21335 -21333 0
21774 21335 0
-21774 -21335 0
21339 21337 0
-21339 -21337 0
21783 21339 0
-21783 -21339 0
21343 21341 0
-21343 -21341 0
21989 21343 0
-21989 -21343 0
21347 21345 0
-21347 -21345 0
21786 21347 0
-21786 -21347 0
21351 21349 0
-21351 -21349 0
21992 21351 0
-21992 -21351 0
21355 21353 0
-21355 -21353 0
21836 21355 0
-21836 -21355 0
21359 21357 0
-21359 -21357 0
21845 21359 0
-21845 -21359 0
21363 21361 0
-21363 -21361 0
21768 21363 0
-21768 -21363 0
21367 21365 0
-21367 -21365 0
21922 21367 0
-21922 -21367 0
21371 21369 0
-21371 -21369 0
21839 21371 0
-21839 -21371 0
21375 21373 0
-21375 -21373 0
21777 21375 0
-21777 -21375 0
22057 21377 0
-22057 -21377 0
21409 21379 0
-21409 -21379 0
22061 21381 0
-22061 -21381 0
22066 21383 0
-22066 -21383 0
22022 21385 0
-22022 -21385 0
21934 21387 0
-21934 -21387 0
21884 21389 0
-21884 -21389 0
21763 21391 0
-21763 -21391 0
21764 21393 0
-21764 -21393 0
21765 21395 0
-21765 -21395 0
21767 21409 0
-21767 -21409 0
21770 21409 0
-21770 -21409 0
21773 21409 0
-21773 -21409 0
21776 21409 0
-21776 -21409 0
21779 21409 0
-21779 -21409 0
21782 21409 0
-21782 -21409 0
21785 21409 0
-21785 -21409 0
22000 21934 0
-22000 -21934 0
22001 21884 0
-22001 -21884 0
21941 21763 0
-21941 -21763 0
22110 21764 0
-22110 -21764 0
22029 21765 0
-22029 -21765 0
21463 21762 0
-21463 -21762 0
21425 21766 0
-21425 -21766 0
21465 21425 0
-21465 -21425 0
21429 21766 0
-21429 -21766 0
21820 21429 0
-21820 -21429 0
21433 21769 0
-21433 -21769 0
21469 21433 0
-21469 -21433 0
21437 21769 0
-21437 -21769 0
21823 21437 0
-21823 -21437 0
21441 21772 0
-21441 -21772 0
21473 21441 0
-21473 -21441 0
21445 21772 0
-21445 -21772 0
21826 21445 0
-21826 -21445 0
21449 21775 0
-21449 -21775 0
21448 21449 0
-21448 -21449 0
21453 21778 0
-21453 -21778 0
21452 21453 0
-21452 -21453 0
21457 21781 0
-21457 -21781 0
21456 21457 0
-21456 -21457 0
21461 21784 0
-21461 -21784 0
21460 21461 0
-21460 -21461 0
21477 21463 0
-21477 -21463 0
21467 21465 0
-21467 -21465 0
22068 21467 0
-22068 -21467 0
21471 21469 0
-21471 -21469 0
22063 21471 0
-22063 -21471 0
21475 21473 0
-21475 -21473 0
22043 21475 0
-22043 -21475 0
21479 21477 0
-21479 -21477 0
21478 21479 0
-21478 -21479 0
22138 22137 0
-22138 -22137 0
22141 22140 0
-22141 -22140 0
21958 22068 0
-21958 -22068 0
21902 22063 0
-21902 -22063 0
22036 22043 0
-22036 -22043 0
22144 22138 0
-22144 -22138 0
22147 22141 0
-22147 -22141 0
21497 22142 0
-21497 -22142 0
21829 21497 0
-21829 -21497 0
21501 22145 0
-21501 -22145 0
21832 21501 0
-21832 -21501 0
21507 21828 0
-21507 -21828 0
21509 21831 0
-21509 -21831 0
21511 21507 0
-21511 -21507 0
21515 21509 0
-21515 -21509 0
21513 21511 0
-21513 -21511 0
21519 21513 0
-21519 -21513 0
21517 21515 0
-21517 -21515 0
21523 21517 0
-21523 -21517 0
21521 21519 0
-21521 -21519 0
21907 21521 0
-21907 -21521 0
22150 21523 0
-22150 -21523 0
22153 21907 0
-22153 -21907 0
21835 22150 0
-21835 -22150 0
21841 22153 0
-21841 -22153 0
21533 21834 0
-21533 -21834 0
21563 21533 0
-21563 -21533 0
21537 21834 0
-21537 -21834 0
21847 21537 0
-21847 -21537 0
21541 21837 0
-21541 -21837 0
21567 21541 0
-21567 -21541 0
21545 21837 0
-21545 -21837 0
21850 21545 0
-21850 -21545 0
21549 21840 0
-21549 -21840 0
21571 21549 0
-21571 -21549 0
21553 21840 0
-21553 -21840 0
21853 21553 0
-21853 -21553 0
21557 21843 0
-21557 -21843 0
21575 21557 0
-21575 -21557 0
21561 21843 0
-21561 -21843 0
21856 21561 0
-21856 -21561 0
21565 21563 0
-21565 -21563 0
22072 21565 0
-22072 -21565 0
21569 21567 0
-21569 -21567 0
21877 21569 0
-21877 -21569 0
21573 21571 0
-21573 -21571 0
22062 21573 0
-22062 -21573 0
21577 21575 0
-21577 -21575 0
21981 21577 0
-21981 -21577 0
21587 22072 0
-21587 -22072 0
22055 21877 0
-22055 -21877 0
21908 22062 0
-21908 -22062 0
22059 21981 0
-22059 -21981 0
21591 21587 0
-21591 -21587 0
21593 21875 0
-21593 -21875 0
22093 21591 0
-22093 -21591 0
22257 21593 0
-22257 -21593 0
22156 22155 0
-22156 -22155 0
22159 22158 0
-22159 -22158 0
22162 22161 0
-22162 -22161 0
22165 22164 0
-22165 -22164 0
22168 22156 0
-22168 -22156 0
22171 22159 0
-22171 -22159 0
22174 22162 0
-22174 -22162 0
22177 22165 0
-22177 -22165 0
21613 22166 0
-21613 -22166 0
21915 21613 0
-21915 -21613 0
21617 21914 0
-21617 -21914 0
21619 21617 0
-21619 -21617 0
21621 21619 0
-21621 -21619 0
21623 21621 0
-21623 -21621 0
21625 21623 0
-21625 -21623 0
21963 21625 0
-21963 -21625 0
22180 21963 0
-22180 -21963 0
21918 22180 0
-21918 -22180 0
21633 21917 0
-21633 -21917 0
21647 21633 0
-21647 -21633 0
21637 21917 0
-21637 -21917 0
21924 21637 0
-21924 -21637 0
21641 21920 0
-21641 -21920 0
21950 21641 0
-21950 -21641 0
21645 21920 0
-21645 -21920 0
21927 21645 0
-21927 -21645 0
21649 21647 0
-21649 -21647 0
22067 21649 0
-22067 -21649 0
21653 21950 0
-21653 -21950 0
22225 21653 0
-22225 -21653 0
21964 22067 0
-21964 -22067 0
22071 21950 0
-22071 -21950 0
21661 21948 0
-21661 -21948 0
22255 21661 0
-22255 -21661 0
21671 21979 0
-21671 -21979 0
22183 22182 0
-22183 -22182 0
22186 22185 0
-22186 -22185 0
22189 22188 0
-22189 -22188 0
22253 21671 0
-22253 -21671 0
22192 22183 0
-22192 -22183 0
22195 22186 0
-22195 -22186 0
22198 22189 0
-22198 -22189 0
21681 22196 0
-21681 -22196 0
21985 21681 0
-21985 -21681 0
21685 21984 0
-21685 -21984 0
21687 21685 0
-21687 -21685 0
21689 21687 0
-21689 -21687 0
21691 21689 0
-21691 -21689 0
21693 21691 0
-21693 -21691 0
22041 21693 0
-22041 -21693 0
22201 22041 0
-22201 -22041 0
21988 22201 0
-21988 -22201 0
21701 21987 0
-21701 -21987 0
21715 21701 0
-21715 -21701 0
21705 21987 0
-21705 -21987 0
21994 21705 0
-21994 -21705 0
21709 21990 0
-21709 -21990 0
22025 21709 0
-22025 -21709 0
21713 21990 0
-21713 -21990 0
21997 21713 0
-21997 -21713 0
21717 21715 0
-21717 -21715 0
22013 21717 0
-22013 -21717 0
21721 22025 0
-21721 -22025 0
22221 21721 0
-22221 -21721 0
22042 22013 0
-22042 -22013 0
22058 22025 0
-22058 -22025 0
21735 22105 0
-21735 -22105 0
21737 22044 0
-21737 -22044 0
22204 22203 0
-22204 -22203 0
22207 22206 0
-22207 -22206 0
22243 21735 0
-22243 -21735 0
22251 21737 0
-22251 -21737 0
22210 22209 0
-22210 -22209 0
22213 22204 0
-22213 -22204 0
22216 22207 0
-22216 -22207 0
21753 22124 0
-21753 -22124 0
21755 22128 0
-21755 -22128 0
21757 22132 0
-21757 -22132 0
22219 22210 0
-22219 -22210 0
22245 21753 0
-22245 -21753 0
22247 21755 0
-22247 -21755 0
22249 21757 0
-22249 -21757 0
21761 22217 0
-21761 -22217 0
21760 21761 0
-21760 -21761 0
-21762 21763 0
-21762 21764 0
-21762 21765 0
21762 -21763 -21764 -21765 0
-21766 21767 0
-21766 21768 0
21766 -21767 -21768 0
-21769 21770 0
-21769 21771 0
21769 -21770 -21771 0
-21772 21773 0
-21772 21774 0
21772 -21773 -21774 0
-21775 21776 0
-21775 21777 0
21775 -21776 -21777 0
-21778 21779 0
-21778 21780 0
21778 -21779 -21780 0
-21781 21782 0
-21781 21783 0
21781 -21782 -21783 0
-21784 21785 0
-21784 21786 0
21784 -21785 -21786 0
-22102 22200 0
-22102 21941 0
22102 -22200 -21941 0
-22075 22200 0
-22075 21941 0
22075 -22200 -21941 0
-22083 22200 0
-22083 21941 0
22083 -22200 -21941 0
-22079 22200 0
-22079 21941 0
22079 -22200 -21941 0
-22103 22200 0
-22103 22000 0
-22103 22001 0
-22103 22029 0
22103 -22200 -22000 -22001 -22029 0
-22076 22200 0
-22076 22000 0
-22076 21884 0
-22076 22029 0
22076 -22200 -22000 -21884 -22029 0
-22085 22200 0
-22085 21934 0
-22085 22001 0
-22085 22029 0
22085 -22200 -21934 -22001 -22029 0
-22081 22200 0
-22081 21934 0
-22081 21884 0
-22081 22029 0
22081 -22200 -21934 -21884 -22029 0
-21819 21820 0
-21819 21821 0
21819 -21820 -21821 0
-21822 21823 0
-21822 21824 0
21822 -21823 -21824 0
-21825 21826 0
-21825 21827 0
21825 -21826 -21827 0
-21828 21829 0
-21828 21830 0
21828 -21829 -21830 0
-21831 21832 0
-21831 21833 0
21831 -21832 -21833 0
-21834 21835 0
-21834 21836 0
21834 -21835 -21836 0
-21837 22148 0
-21837 21839 0
21837 -22148 -21839 0
-21840 21841 0
-21840 21842 0
21840 -21841 -21842 0
-21843 22151 0
-21843 21845 0
21843 -22151 -21845 0
-21846 21847 0
-21846 21848 0
21846 -21847 -21848 0
-21849 21850 0
-21849 21851 0
21849 -21850 -21851 0
-21852 21853 0
-21852 21854 0
21852 -21853 -21854 0
-21855 21856 0
-21855 21857 0
21855 -21856 -21857 0
-22094 22150 0
-22094 22072 0
22094 -22150 -22072 0
-22121 21934 0
-22121 21884 0
-22121 22072 0
-22121 22029 0
22121 -21934 -21884 -22072 -22029 0
-22133 22024 0
-22133 21877 0
22133 -22024 -21877 0
-22134 22057 0
-22134 21877 0
22134 -22057 -21877 0
-22227 22024 0
-22227 21877 0
22227 -22024 -21877 0
-21875 22024 0
-21875 21877 0
21875 -22024 -21877 0
-22088 22153 0
-22088 22062 0
-22088 22063 0
22088 -22153 -22062 -22063 0
-21899 22000 0
-21899 21884 0
-21899 22062 0
21899 -22000 -21884 -22062 0
-22125 22024 0
-22125 21981 0
22125 -22024 -21981 0
-22126 21981 0
-22126 22061 0
22126 -21981 -22061 0
-22084 22024 0
-22084 21894 0
-22084 22055 0
22084 -22024 -21894 -22055 0
-22120 22063 0
-22120 22029 0
-22120 21899 0
22120 -22063 -22029 -21899 0
-22090 21908 0
-22090 21902 0
22090 -21908 -21902 0
-22087 21908 0
-22087 22063 0
22087 -21908 -22063 0
-22091 21907 0
-22091 21908 0
-22091 22063 0
22091 -21907 -21908 -22063 0
-21973 22024 0
-21973 21912 0
-21973 22059 0
21973 -22024 -21912 -22059 0
-21914 21915 0
-21914 21916 0
21914 -21915 -21916 0
-21917 21918 0
-21917 21919 0
21917 -21918 -21919 0
-21920 22178 0
-21920 21922 0
21920 -22178 -21922 0
-21923 21924 0
-21923 21925 0
21923 -21924 -21925 0
-21926 21927 0
-21926 21928 0
21926 -21927 -21928 0
-22097 22180 0
-22097 22067 0
-22097 22068 0
22097 -22180 -22067 -22068 0
-21955 21934 0
-21955 22001 0
-21955 22067 0
21955 -21934 -22001 -22067 0
-22033 22067 0
-22033 22068 0
-22033 22072 0
-22033 21941 0
22033 -22067 -22068 -22072 -21941 0
-22129 22024 0
-22129 21950 0
22129 -22024 -21950 0
-22130 21950 0
-22130 22066 0
22130 -21950 -22066 0
-21948 22024 0
-21948 21950 0
-21948 22055 0
21948 -22024 -21950 -22055 0
-22112 22068 0
-22112 22029 0
-22112 21955 0
22112 -22068 -22029 -21955 0
-22099 21964 0
-22099 21958 0
22099 -21964 -21958 0
-22096 21964 0
-22096 22068 0
22096 -21964 -22068 0
-22100 21963 0
-22100 21964 0
-22100 22068 0
22100 -21963 -21964 -22068 0
-22011 22059 0
-22011 22071 0
-22011 22055 0
22011 -22059 -22071 -22055 0
-22104 22071 0
-22104 22055 0
-22104 21973 0
22104 -22071 -22055 -21973 0
-22223 22024 0
-22223 21981 0
-22223 22071 0
-22223 22055 0
22223 -22024 -21981 -22071 -22055 0
-21979 22024 0
-21979 21981 0
-21979 22071 0
-21979 22055 0
21979 -22024 -21981 -22071 -22055 0
-21984 21985 0
-21984 21986 0
21984 -21985 -21986 0
-21987 21988 0
-21987 21989 0
21987 -21988 -21989 0
-21990 22199 0
-21990 21992 0
21990 -22199 -21992 0
-21993 21994 0
-21993 21995 0
21993 -21994 -21995 0
-21996 21997 0
-21996 21998 0
21996 -21997 -21998 0
-22030 22000 0
-22030 22001 0
-22030 22013 0
22030 -22000 -22001 -22013 0
-22115 22201 0
-22115 22013 0
-22115 22043 0
22115 -22201 -22013 -22043 0
-22108 22022 0
-22108 22013 0
-22108 22043 0
-22108 22011 0
22108 -22022 -22013 -22043 -22011 0
-22032 22013 0
-22032 22043 0
-22032 22062 0
-22032 22063 0
22032 -22013 -22043 -22062 -22063 0
-22106 22024 0
-22106 22025 0
22106 -22024 -22025 0
-22107 22025 0
-22107 22022 0
22107 -22025 -22022 0
-22047 22024 0
-22047 22025 0
-22047 22059 0
22047 -22024 -22025 -22059 0
-22111 22043 0
-22111 22029 0
-22111 22030 0
22111 -22043 -22029 -22030 0
-22122 22032 0
-22122 22033 0
22122 -22032 -22033 0
-22117 22042 0
-22117 22036 0
22117 -22042 -22036 0
-22114 22042 0
-22114 22043 0
22114 -22042 -22043 0
-22118 22041 0
-22118 22042 0
-22118 22043 0
22118 -22041 -22042 -22043 0
-22044 22071 0
-22044 22055 0
-22044 22047 0
22044 -22071 -22055 -22047 0
-22064 22058 0
-22064 22071 0
-22064 22055 0
22064 -22058 -22071 -22055 0
-22069 22058 0
-22069 22059 0
-22069 22055 0
22069 -22058 -22059 -22055 0
-22073 22057 0
-22073 22058 0
-22073 22059 0
22073 -22057 -22058 -22059 0
-22127 22061 0
-22127 22062 0
-22127 22063 0
-22127 22064 0
22127 -22061 -22062 -22063 -22064 0
-22131 22066 0
-22131 22067 0
-22131 22068 0
-22131 22069 0
22131 -22066 -22067 -22068 -22069 0
-22135 22071 0
-22135 22072 0
-22135 22073 0
22135 -22071 -22072 -22073 0
22137 -22075 0
22137 -22076 0
22137 -22077 0
-22137 22075 22076 22077 0
22140 -22079 0
22140 -22080 0
22140 -22081 0
-22140 22079 22080 22081 0
22155 -22083 0
22155 -22084 0
22155 -22085 0
-22155 22083 22084 22085 0
22158 -22087 0
22158 -22088 0
-22158 22087 22088 0
22161 -22090 0
22161 -22091 0
-22161 22090 22091 0
22164 -22093 0
22164 -22094 0
-22164 22093 22094 0
22182 -22096 0
22182 -22097 0
-22182 22096 22097 0
22185 -22099 0
22185 -22100 0
-22185 22099 22100 0
22188 -22102 0
22188 -22103 0
22188 -22104 0
-22188 22102 22103 22104 0
22105 -22106 0
22105 -22107 0
22105 -22108 0
-22105 22106 22107 22108 0
22123 -22110 0
22123 -22111 0
22123 -22112 0
-22123 22110 22111 22112 0
22203 -22114 0
22203 -22115 0
-22203 22114 22115 0
22206 -22117 0
22206 -22118 0
-22206 22117 22118 0
22209 -22120 0
22209 -22121 0
22209 -22122 0
22209 -22123 0
-22209 22120 22121 22122 22123 0
22124 -22125 0
22124 -22126 0
22124 -22127 0
-22124 22125 22126 22127 0
22128 -22129 0
22128 -22130 0
22128 -22131 0
-22128 22129 22130 22131 0
22132 -22133 0
22132 -22134 0
22132 -22135 0
-22132 22133 22134 22135 0
22143 22137 0
22143 22138 0
-22143 -22137 -22138 0
22146 22140 0
22146 22141 0
-22146 -22140 -22141 0
22142 22143 0
22142 22144 0
-22142 -22143 -22144 0
22145 22146 0
22145 22147 0
-22145 -22146 -22147 0
22148 22200 0
22148 22150 0
-22148 -22200 -22150 0
22151 22200 0
22151 22153 0
-22151 -22200 -22153 0
22167 22155 0
22167 22156 0
-22167 -22155 -22156 0
22170 22158 0
22170 22159 0
-22170 -22158 -22159 0
22173 22161 0
22173 22162 0
-22173 -22161 -22162 0
22176 22164 0
22176 22165 0
-22176 -22164 -22165 0
22166 22167 0
22166 22168 0
-22166 -22167 -22168 0
22237 22170 0
22237 22171 0
-22237 -22170 -22171 0
22235 22173 0
22235 22174 0
-22235 -22173 -22174 0
22229 22176 0
22229 22177 0
-22229 -22176 -22177 0
22178 22200 0
22178 22180 0
-22178 -22200 -22180 0
22191 22182 0
22191 22183 0
-22191 -22182 -22183 0
22194 22185 0
22194 22186 0
-22194 -22185 -22186 0
22197 22188 0
22197 22189 0
-22197 -22188 -22189 0
22233 22191 0
22233 22192 0
-22233 -22191 -22192 0
22231 22194 0
22231 22195 0
-22231 -22194 -22195 0
22196 22197 0
22196 22198 0
-22196 -22197 -22198 0
22199 22200 0
22199 22201 0
-22199 -22200 -22201 0
22212 22203 0
22212 22204 0
-22212 -22203 -22204 0
22215 22206 0
22215 22207 0
-22215 -22206 -22207 0
22218 22209 0
22218 22210 0
-22218 -22209 -22210 0
22241 22212 0
22241 22213 0
-22241 -22212 -22213 0
22239 22215 0
22239 22216 0
-22239 -22215 -22216 0
22217 22218 0
22217 22219 0
-22217 -22218 -22219 0
-22221 22882 0
22221 -22882 0
-22223 23047 0
22223 -23047 0
-22225 22864 0
22225 -22864 0
-22227 23050 0
22227 -23050 0
-22229 22323 0
22229 -22323 0
-22231 22331 0
22231 -22331 0
-22233 22287 0
22233 -22287 0
-22235 22291 0
22235 -22291 0
-22237 22295 0
22237 -22295 0
-22239 22303 0
22239 -22303 0
-22241 22311 0
22241 -22311 0
-22243 22319 0
22243 -22319 0
-22245 22327 0
22245 -22327 0
-22247 22335 0
22247 -22335 0
-22249 22339 0
22249 -22339 0
-22251 22343 0
22251 -22343 0
-22253 22299 0
22253 -22299 0
-22255 22307 0
22255 -22307 0
-22257 22315 0
22257 -22315 0
22347 22259 0
-22347 -22259 0
22994 22261 0
-22994 -22261 0
23170 22263 0
-23170 -22263 0
22349 22265 0
-22349 -22265 0
22351 22267 0
-22351 -22267 0
22353 22269 0
-22353 -22269 0
22355 22271 0
-22355 -22271 0
22357 22273 0
-22357 -22273 0
22359 22275 0
-22359 -22275 0
22361 22277 0
-22361 -22277 0
22363 22279 0
-22363 -22279 0
22365 22281 0
-22365 -22281 0
22282 22283 0
-22282 -22283 0
22284 22285 0
-22284 -22285 0
22289 22287 0
-22289 -22287 0
22889 22289 0
-22889 -22289 0
22293 22291 0
-22293 -22291 0
22741 22293 0
-22741 -22293 0
22297 22295 0
-22297 -22295 0
22812 22297 0
-22812 -22297 0
22301 22299 0
-22301 -22299 0
22750 22301 0
-22750 -22301 0
22305 22303 0
-22305 -22303 0
22744 22305 0
-22744 -22305 0
22309 22307 0
-22309 -22307 0
22753 22309 0
-22753 -22309 0
22313 22311 0
-22313 -22311 0
22959 22313 0
-22959 -22313 0
22317 22315 0
-22317 -22315 0
22756 22317 0
-22756 -22317 0
22321 22319 0
-22321 -22319 0
22962 22321 0
-22962 -22321 0
22325 22323 0
-22325 -22323 0
22806 22325 0
-22806 -22325 0
22329 22327 0
-22329 -22327 0
22815 22329 0
-22815 -22329 0
22333 22331 0
-22333 -22331 0
22738 22333 0
-22738 -22333 0
22337 22335 0
-22337 -22335 0
22892 22337 0
-22892 -22337 0
22341 22339 0
-22341 -22339 0
22809 22341 0
-22809 -22341 0
22345 22343 0
-22345 -22343 0
22747 22345 0
-22747 -22345 0
23027 22347 0
-23027 -22347 0
22379 22349 0
-22379 -22349 0
23031 22351 0
-23031 -22351 0
23036 22353 0
-23036 -22353 0
22992 22355 0
-22992 -22355 0
22904 22357 0
-22904 -22357 0
22854 22359 0
-22854 -22359 0
22733 22361 0
-22733 -22361 0
22734 22363 0
-22734 -22363 0
22735 22365 0
-22735 -22365 0
22737 22379 0
-22737 -22379 0
22740 22379 0
-22740 -22379 0
22743 22379 0
-22743 -22379 0
22746 22379 0
-22746 -22379 0
22749 22379 0
-22749 -22379 0
22752 22379 0
-22752 -22379 0
22755 22379 0
-22755 -22379 0
22970 22904 0
-22970 -22904 0
22971 22854 0
-22971 -22854 0
22911 22733 0
-22911 -22733 0
23080 22734 0
-23080 -22734 0
22999 22735 0
-22999 -22735 0
22433 22732 0
-22433 -22732 0
22395 22736 0
-22395 -22736 0
22435 22395 0
-22435 -22395 0
22399 22736 0
-22399 -22736 0
22790 22399 0
-22790 -22399 0
22403 22739 0
-22403 -22739 0
22439 22403 0
-22439 -22403 0
22407 22739 0
-22407 -22739 0
22793 22407 0
-22793 -22407 0
22411 22742 0
-22411 -22742 0
22443 22411 0
-22443 -22411 0
22415 22742 0
-22415 -22742 0
22796 22415 0
-22796 -22415 0
22419 22745 0
-22419 -22745 0
22418 22419 0
-22418 -22419 0
22423 22748 0
-22423 -22748 0
22422 22423 0
-22422 -22423 0
22427 22751 0
-22427 -22751 0
22426 22427 0
-22426 -22427 0
22431 22754 0
-22431 -22754 0
22430 22431 0
-22430 -22431 0
22447 22433 0
-22447 -22433 0
22437 22435 0
-22437 -22435 0
23038 22437 0
-23038 -22437 0
22441 22439 0
-22441 -22439 0
23033 22441 0
-23033 -22441 0
22445 22443 0
-22445 -22443 0
23013 22445 0
-23013 -22445 0
22449 22447 0
-22449 -22447 0
22448 22449 0
-22448 -22449 0
23108 23107 0
-23108 -23107 0
23111 23110 0
-23111 -23110 0
22928 23038 0
-22928 -23038 0
22872 23033 0
-22872 -23033 0
23006 23013 0
-23006 -23013 0
23114 23108 0
-23114 -23108 0
23117 23111 0
-23117 -23111 0
22467 23112 0
-22467 -23112 0
22799 22467 0
-22799 -22467 0
22471 23115 0
-22471 -23115 0
22802 22471 0
-22802 -22471 0
22477 22798 0
-22477 -22798 0
22479 22801 0
-22479 -22801 0
22481 22477 0
-22481 -22477 0
22485 22479 0
-22485 -22479 0
22483 22481 0
-22483 -22481 0
22489 22483 0
-22489 -22483 0
22487 22485 0
-22487 -22485 0
22493 22487 0
-22493 -22487 0
22491 22489 0
-22491 -22489 0
22877 22491 0
-22877 -22491 0
23120 22493 0
-23120 -22493 0
23123 22877 0
-23123 -22877 0
22805 23120 0
-22805 -23120 0
22811 23123 0
-22811 -23123 0
22503 22804 0
-22503 -22804 0
22533 22503 0
-22533 -22503 0
22507 22804 0
-22507 -22804 0
22817 22507 0
-22817 -22507 0
22511 22807 0
-22511 -22807 0
22537 22511 0
-22537 -22511 0
22515 22807 0
-22515 -22807 0
22820 22515 0
-22820 -22515 0
22519 22810 0
-22519 -22810 0
22541 22519 0
-22541 -22519 0
22523 22810 0
-22523 -22810 0
22823 22523 0
-22823 -22523 0
22527 22813 0
-22527 -22813 0
22545 22527 0
-22545 -22527 0
22531 22813 0
-22531 -22813 0
22826 22531 0
-22826 -22531 0
22535 22533 0
-22535 -22533 0
23042 22535 0
-23042 -22535 0
22539 22537 0
-22539 -22537 0
22847 22539 0
-22847 -22539 0
22543 22541 0
-22543 -22541 0
23032 22543 0
-23032 -22543 0
22547 22545 0
-22547 -22545 0
22951 22547 0
-22951 -22547 0
22557 23042 0
-22557 -23042 0
23025 22847 0
-23025 -22847 0
22878 23032 0
-22878 -23032 0
23029 22951 0
-23029 -22951 0
22561 22557 0
-22561 -22557 0
22563 22845 0
-22563 -22845 0
23063 22561 0
-23063 -22561 0
23227 22563 0
-23227 -22563 0
23126 23125 0
-23126 -23125 0
23129 23128 0
-23129 -23128 0
23132 23131 0
-23132 -23131 0
23135 23134 0
-23135 -23134 0
23138 23126 0
-23138 -23126 0
23141 23129 0
-23141 -23129 0
23144 23132 0
-23144 -23132 0
23147 23135 0
-23147 -23135 0
22583 23136 0
-22583 -23136 0
22885 22583 0
-22885 -22583 0
22587 22884 0
-22587 -22884 0
22589 22587 0
-22589 -22587 0
22591 22589 0
-22591 -22589 0
22593 22591 0
-22593 -22591 0
22595 22593 0
-22595 -22593 0
22933 22595 0
-22933 -22595 0
23150 22933 0
-23150 -22933 0
22888 23150 0
-22888 -23150 0
22603 22887 0
-22603 -22887 0
22617 22603 0
-22617 -22603 0
22607 22887 0
-22607 -22887 0
22894 22607 0
-22894 -22607 0
22611 22890 0
-22611 -22890 0
22920 22611 0
-22920 -22611 0
22615 22890 0
-22615 -22890 0
22897 22615 0
-22897 -22615 0
22619 22617 0
-22619 -22617 0
23037 22619 0
-23037 -22619 0
22623 22920 0
-22623 -22920 0
23195 22623 0
-23195 -22623 0
22934 23037 0
-22934 -23037 0
23041 22920 0
-23041 -22920 0
22631 22918 0
-22631 -22918 0
23225 22631 0
-23225 -22631 0
22641 22949 0
-22641 -22949 0
23153 23152 0
-23153 -23152 0
23156 23155 0
-23156 -23155 0
23159 23158 0
-23159 -23158 0
23223 22641 0
-23223 -22641 0
23162 23153 0
-23162 -23153 0
23165 23156 0
-23165 -23156 0
23168 23159 0
-23168 -23159 0
22651 23166 0
-22651 -23166 0
22955 22651 0
-22955 -22651 0
22655 22954 0
-22655 -22954 0
22657 22655 0
-22657 -22655 0
22659 22657 0
-22659 -22657 0
22661 22659 0
-22661 -22659 0
22663 22661 0
-22663 -22661 0
23011 22663 0
-23011 -22663 0
23171 23011 0
-23171 -23011 0
22958 23171 0
-22958 -23171 0
22671 22957 0
-22671 -22957 0
22685 22671 0
-22685 -22671 0
22675 22957 0
-22675 -22957 0
22964 22675 0
-22964 -22675 0
22679 22960 0
-22679 -22960 0
22995 22679 0
-22995 -22679 0
22683 22960 0
-22683 -22960 0
22967 22683 0
-22967 -22683 0
22687 22685 0
-22687 -22685 0
22983 22687 0
-22983 -22687 0
22691 22995 0
-22691 -22995 0
23191 22691 0
-23191 -22691 0
23012 22983 0
-23012 -22983 0
23028 22995 0
-23028 -22995 0
22705 23075 0
-22705 -23075 0
22707 23014 0
-22707 -23014 0
23174 23173 0
-23174 -23173 0
23177 23176 0
-23177 -23176 0
23213 22705 0
-23213 -22705 0
23221 22707 0
-23221 -22707 0
23180 23179 0
-23180 -23179 0
23183 23174 0
-23183 -23174 0
23186 23177 0
-23186 -23177 0
22723 23094 0
-22723 -23094 0
22725 23098 0
-22725 -23098 0
22727 23102 0
-22727 -23102 0
23189 23180 0
-23189 -23180 0
23215 22723 0
-23215 -22723 0
23217 22725 0
-23217 -22725 0
23219 22727 0
-23219 -22727 0
22731 23187 0
-22731 -23187 0
22730 22731 0
-22730 -22731 0
-22732 22733 0
-22732 22734 0
-22732 22735 0
22732 -22733 -22734 -22735 0
-22736 22737 0
-22736 22738 0
22736 -22737 -22738 0
-22739 22740 0
-22739 22741 0
22739 -22740 -22741 0
-22742 22743 0
-22742 22744 0
22742 -22743 -22744 0
-22745 22746 0
-22745 22747 0
22745 -22746 -22747 0
-22748 22749 0
-22748 22750 0
22748 -22749 -22750 0
-22751 22752 0
-22751 22753 0
22751 -22752 -22753 0
-22754 22755 0
-22754 22756 0
22754 -22755 -22756 0
-23072 23170 0
-23072 22911 0
23072 -23170 -22911 0
-23045 23170 0
-23045 22911 0
23045 -23170 -22911 0
-23053 23170 0
-23053 22911 0
23053 -23170 -22911 0
-23049 23170 0
-23049 22911 0
23049 -23170 -22911 0
-23073 23170 0
-23073 22970 0
-23073 22971 0
-23073 22999 0
23073 -23170 -22970 -22971 -22999 0
-23046 23170 0
-23046 22970 0
-23046 22854 0
-23046 22999 0
23046 -23170 -22970 -22854 -22999 0
-23055 23170 0
-23055 22904 0
-23055 22971 0
-23055 22999 0
23055 -23170 -22904 -22971 -22999 0
-23051 23170 0
-23051 22904 0
-23051 22854 0
-23051 22999 0
23051 -23170 -22904 -22854 -22999 0
-22789 22790 0
-22789 22791 0
22789 -22790 -22791 0
-22792 22793 0
-22792 22794 0
22792 -22793 -22794 0
-22795 22796 0
-22795 22797 0
22795 -22796 -22797 0
-22798 22799 0
-22798 22800 0
22798 -22799 -22800 0
-22801 22802 0
-22801 22803 0
22801 -22802 -22803 0
-22804 22805 0
-22804 22806 0
22804 -22805 -22806 0
-22807 23118 0
-22807 22809 0
22807 -23118 -22809 0
-22810 22811 0
-22810 22812 0
22810 -22811 -22812 0
-22813 23121 0
-22813 22815 0
22813 -23121 -22815 0
-22816 22817 0
-22816 22818 0
22816 -22817 -22818 0
-22819 22820 0
-22819 22821 0
22819 -22820 -22821 0
-22822 22823 0
-22822 22824 0
22822 -22823 -22824 0
-22825 22826 0
-22825 22827 0
22825 -22826 -22827 0
-23064 23120 0
-23064 23042 0
23064 -23120 -23042 0
-23091 22904 0
-23091 22854 0
-23091 23042 0
-23091 22999 0
23091 -22904 -22854 -23042 -22999 0
-23103 22994 0
-23103 22847 0
23103 -22994 -22847 0
-23104 23027 0
-23104 22847 0
23104 -23027 -22847 0
-23197 22994 0
-23197 22847 0
23197 -22994 -22847 0
-22845 22994 0
-22845 22847 0
22845 -22994 -22847 0
-23058 23123 0
-23058 23032 0
-23058 23033 0
23058 -23123 -23032 -23033 0
-22869 22970 0
-22869 22854 0
-22869 23032 0
22869 -22970 -22854 -23032 0
-23095 22994 0
-23095 22951 0
23095 -22994 -22951 0
-23096 22951 0
-23096 23031 0
23096 -22951 -23031 0
-23054 22994 0
-23054 22864 0
-23054 23025 0
23054 -22994 -22864 -23025 0
-23090 23033 0
-23090 22999 0
-23090 22869 0
23090 -23033 -22999 -22869 0
-23060 22878 0
-23060 22872 0
23060 -22878 -22872 0
-23057 22878 0
-23057 23033 0
23057 -22878 -23033 0
-23061 22877 0
-23061 22878 0
-23061 23033 0
23061 -22877 -22878 -23033 0
-22943 22994 0
-22943 22882 0
-22943 23029 0
22943 -22994 -22882 -23029 0
-22884 22885 0
-22884 22886 0
22884 -22885 -22886 0
-22887 22888 0
-22887 22889 0
22887 -22888 -22889 0
-22890 23148 0
-22890 22892 0
22890 -23148 -22892 0
-22893 22894 0
-22893 22895 0
22893 -22894 -22895 0
-22896 22897 0
-22896 22898 0
22896 -22897 -22898 0
-23067 23150 0
-23067 23037 0
-23067 23038 0
23067 -23150 -23037 -23038 0
-22925 22904 0
-22925 22971 0
-22925 23037 0
22925 -22904 -22971 -23037 0
-23003 23037 0
-23003 23038 0
-23003 23042 0
-23003 22911 0
23003 -23037 -23038 -23042 -22911 0
-23099 22994 0
-23099 22920 0
23099 -22994 -22920 0
-23100 22920 0
-23100 23036 0
23100 -22920 -23036 0
-22918 22994 0
-22918 22920 0
-22918 23025 0
22918 -22994 -22920 -23025 0
-23082 23038 0
-23082 22999 0
-23082 22925 0
23082 -23038 -22999 -22925 0
-23069 22934 0
-23069 22928 0
23069 -22934 -22928 0
-23066 22934 0
-23066 23038 0
23066 -22934 -23038 0
-23070 22933 0
-23070 22934 0
-23070 23038 0
23070 -22933 -22934 -23038 0
-22981 23029 0
-22981 23041 0
-22981 23025 0
22981 -23029 -23041 -23025 0
-23074 23041 0
-23074 23025 0
-23074 22943 0
23074 -23041 -23025 -22943 0
-23193 22994 0
-23193 22951 0
-23193 23041 0
-23193 23025 0
23193 -22994 -22951 -23041 -23025 0
-22949 22994 0
-22949 22951 0
-22949 23041 0
-22949 23025 0
22949 -22994 -22951 -23041 -23025 0
-22954 22955 0
-22954 22956 0
22954 -22955 -22956 0
-22957 22958 0
-22957 22959 0
22957 -22958 -22959 0
-22960 23169 0
-22960 22962 0
22960 -23169 -22962 0
-22963 22964 0
-22963 22965 0
22963 -22964 -22965 0
-22966 22967 0
-22966 22968 0
22966 -22967 -22968 0
-23000 22970 0
-23000 22971 0
-23000 22983 0
23000 -22970 -22971 -22983 0
-23085 23171 0
-23085 22983 0
-23085 23013 0
23085 -23171 -22983 -23013 0
-23078 22992 0
-23078 22983 0
-23078 23013 0
-23078 22981 0
23078 -22992 -22983 -23013 -22981 0
-23002 22983 0
-23002 23013 0
-23002 23032 0
-23002 23033 0
23002 -22983 -23013 -23032 -23033 0
-23076 22994 0
-23076 22995 0
23076 -22994 -22995 0
-23077 22995 0
-23077 22992 0
23077 -22995 -22992 0
-23017 22994 0
-23017 22995 0
-23017 23029 0
23017 -22994 -22995 -23029 0
-23081 23013 0
-23081 22999 0
-23081 23000 0
23081 -23013 -22999 -23000 0
-23092 23002 0
-23092 23003 0
23092 -23002 -23003 0
-23087 23012 0
-23087 23006 0
23087 -23012 -23006 0
-23084 23012 0
-23084 23013 0
23084 -23012 -23013 0
-23088 23011 0
-23088 23012 0
-23088 23013 0
23088 -23011 -23012 -23013 0
-23014 23041 0
-23014 23025 0
-23014 23017 0
23014 -23041 -23025 -23017 0
-23034 23028 0
-23034 23041 0
-23034 23025 0
23034 -23028 -23041 -23025 0
-23039 23028 0
-23039 23029 0
-23039 23025 0
23039 -23028 -23029 -23025 0
-23043 23027 0
-23043 23028 0
-23043 23029 0
23043 -23027 -23028 -23029 0
-23097 23031 0
-23097 23032 0
-23097 23033 0
-23097 23034 0
23097 -23031 -23032 -23033 -23034 0
-23101 23036 0
-23101 23037 0
-23101 23038 0
-23101 23039 0
23101 -23036 -23037 -23038 -23039 0
-23105 23041 0
-23105 23042 0
-23105 23043 0
23105 -23041 -23042 -23043 0
23107 -23045 0
23107 -23046 0
23107 -23047 0
-23107 23045 23046 23047 0
23110 -23049 0
23110 -23050 0
23110 -23051 0
-23110 23049 23050 23051 0
23125 -23053 0
23125 -23054 0
23125 -23055 0
-23125 23053 23054 23055 0
23128 -23057 0
23128 -23058 0
-23128 23057 23058 0
23131 -23060 0
23131 -23061 0
-23131 23060 23061 0
23134 -23063 0
23134 -23064 0
-23134 23063 23064 0
23152 -23066 0
23152 -23067 0
-23152 23066 23067 0
23155 -23069 0
23155 -23070 0
-23155 23069 23070 0
23158 -23072 0
23158 -23073 0
23158 -23074 0
-23158 23072 23073 23074 0
23075 -23076 0
23075 -23077 0
23075 -23078 0
-23075 23076 23077 23078 0
23093 -23080 0
23093 -23081 0
23093 -23082 0
-23093 23080 23081 23082 0
23173 -23084 0
23173 -23085 0
-23173 23084 23085 0
23176 -23087 0
23176 -23088 0
-23176 23087 23088 0
23179 -23090 0
23179 -23091 0
23179 -23092 0
23179 -23093 0
-23179 23090 23091 23092 23093 0
23094 -23095 0
23094 -23096 0
23094 -23097 0
-23094 23095 23096 23097 0
23098 -23099 0
23098 -23100 0
23098 -23101 0
-23098 23099 23100 23101 0
23102 -23103 0
23102 -23104 0
23102 -23105 0
-23102 23103 23104 23105 0
23113 23107 0
23113 23108 0
-23113 -23107 -23108 0
23116 23110 0
23116 23111 0
-23116 -23110 -23111 0
23112 23113 0
23112 23114 0
-23112 -23113 -23114 0
23115 23116 0
23115 23117 0
-23115 -23116 -23117 0
23118 23170 0
23118 23120 0
-23118 -23170 -23120 0
23121 23170 0
23121 23123 0
-23121 -23170 -23123 0
23137 23125 0
23137 23126 0
-23137 -23125 -23126 0
23140 23128 0
23140 23129 0
-23140 -23128 -23129 0
23143 23131 0
23143 23132 0
-23143 -23131 -23132 0
23146 23134 0
23146 23135 0
-23146 -23134 -23135 0
23136 23137 0
23136 23138 0
-23136 -23137 -23138 0
23207 23140 0
23207 23141 0
-23207 -23140 -23141 0
23205 23143 0
23205 23144 0
-23205 -23143 -23144 0
23199 23146 0
23199 23147 0
-23199 -23146 -23147 0
23148 23170 0
23148 23150 0
-23148 -23170 -23150 0
23161 23152 0
23161 23153 0
-23161 -23152 -23153 0
23164 23155 0
23164 23156 0
-23164 -23155 -23156 0
23167 23158 0
23167 23159 0
-23167 -23158 -23159 0
23203 23161 0
23203 23162 0
-23203 -23161 -23162 0
23201 23164 0
23201 23165 0
-23201 -23164 -23165 0
23166 23167 0
23166 23168 0
-23166 -23167 -23168 0
23169 23170 0
23169 23171 0
-23169 -23170 -23171 0
23182 23173 0
23182 23174 0
-23182 -23173 -23174 0
23185 23176 0
23185 23177 0
-23185 -23176 -23177 0
23188 23179 0
23188 23180 0
-23188 -23179 -23180 0
23211 23182 0
23211 23183 0
-23211 -23182 -23183 0
23209 23185 0
23209 23186 0
-23209 -23185 -23186 0
23187 23188 0
23187 23189 0
-23187 -23188 -23189 0
-23191 23852 0
23191 -23852 0
-23193 24017 0
23193 -24017 0
-23195 23834 0
23195 -23834 0
-23197 24020 0
23197 -24020 0
-23199 23293 0
23199 -23293 0
-23201 23301 0
23201 -23301 0
-23203 23257 0
23203 -23257 0
-23205 23261 0
23205 -23261 0
-23207 23265 0
23207 -23265 0
-23209 23273 0
23209 -23273 0
-23211 23281 0
23211 -23281 0
-23213 23289 0
23213 -23289 0
-23215 23297 0
23215 -23297 0
-23217 23305 0
23217 -23305 0
-23219 23309 0
23219 -23309 0
-23221 23313 0
23221 -23313 0
-23223 23269 0
23223 -23269 0
-23225 23277 0
23225 -23277 0
-23227 23285 0
23227 -23285 0
23317 23229 0
-23317 -23229 0
23964 23231 0
-23964 -23231 0
24140 23233 0
-24140 -23233 0
23319 23235 0
-23319 -23235 0
23321 23237 0
-23321 -23237 0
23323 23239 0
-23323 -23239 0
23325 23241 0
-23325 -23241 0
23327 23243 0
-23327 -23243 0
23329 23245 0
-23329 -23245 0
23331 23247 0
-23331 -23247 0
23333 23249 0
-23333 -23249 0
23335 23251 0
-23335 -23251 0
23252 23253 0
-23252 -23253 0
23254 23255 0
-23254 -23255 0
23259 23257 0
-23259 -23257 0
23859 23259 0
-23859 -23259 0
23263 23261 0
-23263 -23261 0
23711 23263 0
-23711 -23263 0
23267 23265 0
-23267 -23265 0
23782 23267 0
-23782 -23267 0
23271 23269 0
-23271 -23269 0
23720 23271 0
-23720 -23271 0
23275 23273 0
-23275 -23273 0
23714 23275 0
-23714 -23275 0
23279 23277 0
-23279 -23277 0
23723 23279 0
-23723 -23279 0
23283 23281 0
-23283 -23281 0
23929 23283 0
-23929 -23283 0
23287 23285 0
-23287 -23285 0
23726 23287 0
-23726 -23287 0
23291 23289 0
-23291 -23289 0
23932 23291 0
-23932 -23291 0
23295 23293 0
-23295 -23293 0
23776 23295 0
-23776 -23295 0
23299 23297 0
-23299 -23297 0
23785 23299 0
-23785 -23299 0
23303 23301 0
-23303 -23301 0
23708 23303 0
-23708 -23303 0
23307 23305 0
-23307 -23305 0
23862 23307 0
-23862 -23307 0
23311 23309 0
-23311 -23309 0
23779 23311 0
-23779 -23311 0
23315 23313 0
-23315 -23313 0
23717 23315 0
-23717 -23315 0
23997 23317 0
-23997 -23317 0
23349 23319 0
-23349 -23319 0
24001 23321 0
-24001 -23321 0
24006 23323 0
-24006 -23323 0
23962 23325 0
-23962 -23325 0
23874 23327 0
-23874 -23327 0
23824 23329 0
-23824 -23329 0
23703 23331 0
-23703 -23331 0
23704 23333 0
-23704 -23333 0
23705 23335 0
-23705 -23335 0
23707 23349 0
-23707 -23349 0
23710 23349 0
-23710 -23349 0
23713 23349 0
-23713 -23349 0
23716 23349 0
-23716 -23349 0
23719 23349 0
-23719 -23349 0
23722 23349 0
-23722 -23349 0
23725 23349 0
-23725 -23349 0
23940 23874 0
-23940 -23874 0
23941 23824 0
-23941 -23824 0
23881 23703 0
-23881 -23703 0
24050 23704 0
-24050 -23704 0
23969 23705 0
-23969 -23705 0
23403 23702 0
-23403 -23702 0
23365 23706 0
-23365 -23706 0
23405 23365 0
-23405 -23365 0
23369 23706 0
-23369 -23706 0
23760 23369 0
-23760 -23369 0
23373 23709 0
-23373 -23709 0
23409 23373 0
-23409 -23373 0
23377 23709 0
-23377 -23709 0
23763 23377 0
-23763 -23377 0
23381 23712 0
-23381 -23712 0
23413 23381 0
-23413 -23381 0
23385 23712 0
-23385 -23712 0
23766 23385 0
-23766 -23385 0
23389 23715 0
-23389 -23715 0
23388 23389 0
-23388 -23389 0
23393 23718 0
-23393 -23718 0
23392 23393 0
-23392 -23393 0
23397 23721 0
-23397 -23721 0
23396 23397 0
-23396 -23397 0
23401 23724 0
-23401 -23724 0
23400 23401 0
-23400 -23401 0
23417 23403 0
-23417 -23403 0
23407 23405 0
-23407 -23405 0
24008 23407 0
-24008 -23407 0
23411 23409 0
-23411 -23409 0
24003 23411 0
-24003 -23411 0
23415 23413 0
-23415 -23413 0
23983 23415 0
-23983 -23415 0
23419 23417 0
-23419 -23417 0
23418 23419 0
-23418 -23419 0
24078 24077 0
-24078 -24077 0
24081 24080 0
-24081 -24080 0
23898 24008 0
-23898 -24008 0
23842 24003 0
-23842 -24003 0
23976 23983 0
-23976 -23983 0
24084 24078 0
-24084 -24078 0
24087 24081 0
-24087 -24081 0
23437 24082 0
-23437 -24082 0
23769 23437 0
-23769 -23437 0
23441 24085 0
-23441 -24085 0
23772 23441 0
-23772 -23441 0
23447 23768 0
-23447 -23768 0
23449 23771 0
-23449 -23771 0
23451 23447 0
-23451 -23447 0
23455 23449 0
-23455 -23449 0
23453 23451 0
-23453 -23451 0
23459 23453 0
-23459 -23453 0
23457 23455 0
-23457 -23455 0
23463 23457 0
-23463 -23457 0
23461 23459 0
-23461 -23459 0
23847 23461 0
-23847 -23461 0
24090 23463 0
-24090 -23463 0
24093 23847 0
-24093 -23847 0
23775 24090 0
-23775 -24090 0
23781 24093 0
-23781 -24093 0
23473 23774 0
-23473 -23774 0
23503 23473 0
-23503 -23473 0
23477 23774 0
-23477 -23774 0
23787 23477 0
-23787 -23477 0
23481 23777 0
-23481 -23777 0
23507 23481 0
-23507 -23481 0
23485 23777 0
-23485 -23777 0
23790 23485 0
-23790 -23485 0
23489 23780 0
-23489 -23780 0
23511 23489 0
-23511 -23489 0
23493 23780 0
-23493 -23780 0
23793 23493 0
-23793 -23493 0
23497 23783 0
-23497 -23783 0
23515 23497 0
-23515 -23497 0
23501 23783 0
-23501 -23783 0
23796 23501 0
-23796 -23501 0
23505 23503 0
-23505 -23503 0
24012 23505 0
-24012 -23505 0
23509 23507 0
-23509 -23507 0
23817 23509 0
-23817 -23509 0
23513 23511 0
-23513 -23511 0
24002 23513 0
-24002 -23513 0
23517 23515 0
-23517 -23515 0
23921 23517 0
-23921 -23517 0
23527 24012 0
-23527 -24012 0
23995 23817 0
-23995 -23817 0
23848 24002 0
-23848 -24002 0
23999 23921 0
-23999 -23921 0
23531 23527 0
-23531 -23527 0
23533 23815 0
-23533 -23815 0
24033 23531 0
-24033 -23531 0
24197 23533 0
-24197 -23533 0
24096 24095 0
-24096 -24095 0
24099 24098 0
-24099 -24098 0
24102 24101 0
-24102 -24101 0
24105 24104 0
-24105 -24104 0
24108 24096 0
-24108 -24096 0
24111 24099 0
-24111 -24099 0
24114 24102 0
-24114 -24102 0
24117 24105 0
-24117 -24105 0
23553 24106 0
-23553 -24106 0
23855 23553 0
-23855 -23553 0
23557 23854 0
-23557 -23854 0
23559 23557 0
-23559 -23557 0
23561 23559 0
-23561 -23559 0
23563 23561 0
-23563 -23561 0
23565 23563 0
-23565 -23563 0
23903 23565 0
-23903 -23565 0
24120 23903 0
-24120 -23903 0
23858 24120 0
-23858 -24120 0
23573 23857 0
-23573 -23857 0
23587 23573 0
-23587 -23573 0
23577 23857 0
-23577 -23857 0
23864 23577 0
-23864 -23577 0
23581 23860 0
-23581 -23860 0
23890 23581 0
-23890 -23581 0
23585 23860 0
-23585 -23860 0
23867 23585 0
-23867 -23585 0
23589 23587 0
-23589 -23587 0
24007 23589 0
-24007 -23589 0
23593 23890 0
-23593 -23890 0
24165 23593 0
-24165 -23593 0
23904 24007 0
-23904 -24007 0
24011 23890 0
-24011 -23890 0
23601 23888 0
-23601 -23888 0
24195 23601 0
-24195 -23601 0
23611 23919 0
-23611 -23919 0
24123 24122 0
-24123 -24122 0
24126 24125 0
-24126 -24125 0
24129 24128 0
-24129 -24128 0
24193 23611 0
-24193 -23611 0
24132 24123 0
-24132 -24123 0
24135 24126 0
-24135 -24126 0
24138 24129 0
-24138 -24129 0
23621 24136 0
-23621 -24136 0
23925 23621 0
-23925 -23621 0
23625 23924 0
-23625 -23924 0
23627 23625 0
-23627 -23625 0
23629 23627 0
-23629 -23627 0
23631 23629 0
-23631 -23629 0
23633 23631 0
-23633 -23631 0
23981 23633 0
-23981 -23633 0
24141 23981 0
-24141 -23981 0
23928 24141 0
-23928 -24141 0
23641 23927 0
-23641 -23927 0
23655 23641 0
-23655 -23641 0
23645 23927 0
-23645 -23927 0
23934 23645 0
-23934 -23645 0
23649 23930 0
-23649 -23930 0
23965 23649 0
-23965 -23649 0
23653 23930 0
-23653 -23930 0
23937 23653 0
-23937 -23653 0
23657 23655 0
-23657 -23655 0
23953 23657 0
-23953 -23657 0
23661 23965 0
-23661 -23965 0
24161 23661 0
-24161 -23661 0
23982 23953 0
-23982 -23953 0
23998 23965 0
-23998 -23965 0
23675 24045 0
-23675 -24045 0
23677 23984 0
-23677 -23984 0
24144 24143 0
-24144 -24143 0
24147 24146 0
-24147 -24146 0
24183 23675 0
-24183 -23675 0
24191 23677 0
-24191 -23677 0
24150 24149 0
-24150 -24149 0
24153 24144 0
-24153 -24144 0
24156 24147 0
-24156 -24147 0
23693 24064 0
-23693 -24064 0
23695 24068 0
-23695 -24068 0
23697 24072 0
-23697 -24072 0
24159 24150 0
-24159 -24150 0
24185 23693 0
-24185 -23693 0
24187 23695 0
-24187 -23695 0
24189 23697 0
-24189 -23697 0
23701 24157 0
-23701 -24157 0
23700 23701 0
-23700 -23701 0
-23702 23703 0
-23702 23704 0
-23702 23705 0
23702 -23703 -23704 -23705 0
-23706 23707 0
-23706 23708 0
23706 -23707 -23708 0
-23709 23710 0
-23709 23711 0
23709 -23710 -23711 0
-23712 23713 0
-23712 23714 0
23712 -23713 -23714 0
-23715 23716 0
-23715 23717 0
23715 -23716 -23717 0
-23718 23719 0
-23718 23720 0
23718 -23719 -23720 0
-23721 23722 0
-23721 23723 0
23721 -23722 -23723 0
-23724 23725 0
-23724 23726 0
23724 -23725 -23726 0
-24042 24140 0
-24042 23881 0
24042 -24140 -23881 0
-24015 24140 0
-24015 23881 0
24015 -24140 -23881 0
-24023 24140 0
-24023 23881 0
24023 -24140 -23881 0
-24019 24140 0
-24019 23881 0
24019 -24140 -23881 0
-24043 24140 0
-24043 23940 0
-24043 23941 0
-24043 23969 0
24043 -24140 -23940 -23941 -23969 0
-24016 24140 0
-24016 23940 0
-24016 23824 0
-24016 23969 0
24016 -24140 -23940 -23824 -23969 0
-24025 24140 0
-24025 23874 0
-24025 23941 0
-24025 23969 0
24025 -24140 -23874 -23941 -23969 0
-24021 24140 0
-24021 23874 0
-24021 23824 0
-24021 23969 0
24021 -24140 -23874 -23824 -23969 0
-23759 23760 0
-23759 23761 0
23759 -23760 -23761 0
-23762 23763 0
-23762 23764 0
23762 -23763 -23764 0
-23765 23766 0
-23765 23767 0
23765 -23766 -23767 0
-23768 23769 0
-23768 23770 0
23768 -23769 -23770 0
-23771 23772 0
-23771 23773 0
23771 -23772 -23773 0
-23774 23775 0
-23774 23776 0
23774 -23775 -23776 0
-23777 24088 0
-23777 23779 0
23777 -24088 -23779 0
-23780 23781 0
-23780 23782 0
23780 -23781 -23782 0
-23783 24091 0
-23783 23785 0
23783 -24091 -23785 0
-23786 23787 0
-23786 23788 0
23786 -23787 -23788 0
-23789 23790 0
-23789 23791 0
23789 -23790 -23791 0
-23792 23793 0
-23792 23794 0
23792 -23793 -23794 0
-23795 23796 0
-23795 23797 0
23795 -23796 -23797 0
-24034 24090 0
-24034 24012 0
24034 -24090 -24012 0
-24061 23874 0
-24061 23824 0
-24061 24012 0
-24061 23969 0
24061 -23874 -23824 -24012 -23969 0
-24073 23964 0
-24073 23817 0
24073 -23964 -23817 0
-24074 23997 0
-24074 23817 0
24074 -23997 -23817 0
-24167 23964 0
-24167 23817 0
24167 -23964 -23817 0
-23815 23964 0
-23815 23817 0
23815 -23964 -23817 0
-24028 24093 0
-24028 24002 0
-24028 24003 0
24028 -24093 -24002 -24003 0
-23839 23940 0
-23839 23824 0
-23839 24002 0
23839 -23940 -23824 -24002 0
-24065 23964 0
-24065 23921 0
24065 -23964 -23921 0
-24066 23921 0
-24066 24001 0
24066 -23921 -24001 0
-24024 23964 0
-24024 23834 0
-24024 23995 0
24024 -23964 -23834 -23995 0
-24060 24003 0
-24060 23969 0
-24060 23839 0
24060 -24003 -23969 -23839 0
-24030 23848 0
-24030 23842 0
24030 -23848 -23842 0
-24027 23848 0
-24027 24003 0
24027 -23848 -24003 0
-24031 23847 0
-24031 23848 0
-24031 24003 0
24031 -23847 -23848 -24003 0
-23913 23964 0
-23913 23852 0
-23913 23999 0
23913 -23964 -23852 -23999 0
-23854 23855 0
-23854 23856 0
23854 -23855 -23856 0
-23857 23858 0
-23857 23859 0
23857 -23858 -23859 0
-23860 24118 0
-23860 23862 0
23860 -24118 -23862 0
-23863 23864 0
-23863 23865 0
23863 -23864 -23865 0
-23866 23867 0
-23866 23868 0
23866 -23867 -23868 0
-24037 24120 0
-24037 24007 0
-24037 24008 0
24037 -24120 -24007 -24008 0
-23895 23874 0
-23895 23941 0
-23895 24007 0
23895 -23874 -23941 -24007 0
-23973 24007 0
-23973 24008 0
-23973 24012 0
-23973 23881 0
23973 -24007 -24008 -24012 -23881 0
-24069 23964 0
-24069 23890 0
24069 -23964 -23890 0
-24070 23890 0
-24070 24006 0
24070 -23890 -24006 0
-23888 23964 0
-23888 23890 0
-23888 23995 0
23888 -23964 -23890 -23995 0
-24052 24008 0
-24052 23969 0
-24052 23895 0
24052 -24008 -23969 -23895 0
-24039 23904 0
-24039 23898 0
24039 -23904 -23898 0
-24036 23904 0
-24036 24008 0
24036 -23904 -24008 0
-24040 23903 0
-24040 23904 0
-24040 24008 0
24040 -23903 -23904 -24008 0
-23951 23999 0
-23951 24011 0
-23951 23995 0
23951 -23999 -24011 -23995 0
-24044 24011 0
-24044 23995 0
-24044 23913 0
24044 -24011 -23995 -23913 0
-24163 23964 0
-24163 23921 0
-24163 24011 0
-24163 23995 0
24163 -23964 -23921 -24011 -23995 0
-23919 23964 0
-23919 23921 0
-23919 24011 0
-23919 23995 0
23919 -23964 -23921 -24011 -23995 0
-23924 23925 0
-23924 23926 0
23924 -23925 -23926 0
-23927 23928 0
-23927 23929 0
23927 -23928 -23929 0
-23930 24139 0
-23930 23932 0
23930 -24139 -23932 0
-23933 23934 0
-23933 23935 0
23933 -23934 -23935 0
-23936 23937 0
-23936 23938 0
23936 -23937 -23938 0
-23970 23940 0
-23970 23941 0
-23970 23953 0
23970 -23940 -23941 -23953 0
-24055 24141 0
-24055 23953 0
-24055 23983 0
24055 -24141 -23953 -23983 0
-24048 23962 0
-24048 23953 0
-24048 23983 0
-24048 23951 0
24048 -23962 -23953 -23983 -23951 0
-23972 23953 0
-23972 23983 0
-23972 24002 0
-23972 24003 0
23972 -23953 -23983 -24002 -24003 0
-24046 23964 0
-24046 23965 0
24046 -23964 -23965 0
-24047 23965 0
-24047 23962 0
24047 -23965 -23962 0
-23987 23964 0
-23987 23965 0
-23987 23999 0
23987 -23964 -23965 -23999 0
-24051 23983 0
-24051 23969 0
-24051 23970 0
24051 -23983 -23969 -23970 0
-24062 23972 0
-24062 23973 0
24062 -23972 -23973 0
-24057 23982 0
-24057 23976 0
24057 -23982 -23976 0
-24054 23982 0
-24054 23983 0
24054 -23982 -23983 0
-24058 23981 0
-24058 23982 0
-24058 23983 0
24058 -23981 -23982 -23983 0
-23984 24011 0
-23984 23995 0
-23984 23987 0
23984 -24011 -23995 -23987 0
-24004 23998 0
-24004 24011 0
-24004 23995 0
24004 -23998 -24011 -23995 0
-24009 23998 0
-24009 23999 0
-24009 23995 0
24009 -23998 -23999 -23995 0
-24013 23997 0
-24013 23998 0
-24013 23999 0
24013 -23997 -23998 -23999 0
-24067 24001 0
-24067 24002 0
-24067 24003 0
-24067 24004 0
24067 -24001 -24002 -24003 -24004 0
-24071 24006 0
-24071 24007 0
-24071 24008 0
-24071 24009 0
24071 -24006 -24007 -24008 -24009 0
-24075 24011 0
-24075 24012 0
-24075 24013 0
24075 -24011 -24012 -24013 0
24077 -24015 0
24077 -24016 0
24077 -24017 0
-24077 24015 24016 24017 0
24080 -24019 0
24080 -24020 0
24080 -24021 0
-24080 24019 24020 24021 0
24095 -24023 0
24095 -24024 0
24095 -24025 0
-24095 24023 24024 24025 0
24098 -24027 0
24098 -24028 0
-24098 24027 24028 0
24101 -24030 0
24101 -24031 0
-24101 24030 24031 0
24104 -24033 0
24104 -24034 0
-24104 24033 24034 0
24122 -24036 0
24122 -24037 0
-24122 24036 24037 0
24125 -24039 0
24125 -24040 0
-24125 24039 24040 0
24128 -24042 0
24128 -24043 0
24128 -24044 0
-24128 24042 24043 24044 0
24045 -24046 0
24045 -24047 0
24045 -24048 0
-24045 24046 24047 24048 0
24063 -24050 0
24063 -24051 0
24063 -24052 0
-24063 24050 24051 24052 0
24143 -24054 0
24143 -24055 0
-24143 24054 24055 0
24146 -24057 0
24146 -24058 0
-24146 24057 24058 0
24149 -24060 0
24149 -24061 0
24149 -24062 0
24149 -24063 0
-24149 24060 24061 24062 24063 0
24064 -24065 0
24064 -24066 0
24064 -24067 0
-24064 24065 24066 24067 0
24068 -24069 0
24068 -24070 0
24068 -24071 0
-24068 24069 24070 24071 0
24072 -24073 0
24072 -24074 0
24072 -24075 0
-24072 24073 24074 24075 0
24083 24077 0
24083 24078 0
-24083 -24077 -24078 0
24086 24080 0
24086 24081 0
-24086 -24080 -24081 0
24082 24083 0
24082 24084 0
-24082 -24083 -24084 0
24085 24086 0
24085 24087 0
-24085 -24086 -24087 0
24088 24140 0
24088 24090 0
-24088 -24140 -24090 0
24091 24140 0
24091 24093 0
-24091 -24140 -24093 0
24107 24095 0
24107 24096 0
-24107 -24095 -24096 0
24110 24098 0
24110 24099 0
-24110 -24098 -24099 0
24113 24101 0
24113 24102 0
-24113 -24101 -24102 0
24116 24104 0
24116 24105 0
-24116 -24104 -24105 0
24106 24107 0
24106 24108 0
-24106 -24107 -24108 0
24177 24110 0
24177 24111 0
-24177 -24110 -24111 0
24175 24113 0
24175 24114 0
-24175 -24113 -24114 0
24169 24116 0
24169 24117 0
-24169 -24116 -24117 0
24118 24140 0
24118 24120 0
-24118 -24140 -24120 0
24131 24122 0
24131 24123 0
-24131 -24122 -24123 0
24134 24125 0
24134 24126 0
-24134 -24125 -24126 0
24137 24128 0
24137 24129 0
-24137 -24128 -24129 0
24173 24131 0
24173 24132 0
-24173 -24131 -24132 0
24171 24134 0
24171 24135 0
-24171 -24134 -24135 0
24136 24137 0
24136 24138 0
-24136 -24137 -24138 0
24139 24140 0
24139 24141 0
-24139 -24140 -24141 0
24152 24143 0
24152 24144 0
-24152 -24143 -24144 0
24155 24146 0
24155 24147 0
-24155 -24146 -24147 0
24158 24149 0
24158 24150 0
-24158 -24149 -24150 0
24181 24152 0
24181 24153 0
-24181 -24152 -24153 0
24179 24155 0
24179 24156 0
-24179 -24155 -24156 0
24157 24158 0
24157 24159 0
-24157 -24158 -24159 0
-24161 24822 0
24161 -24822 0
-24163 24987 0
24163 -24987 0
-24165 24804 0
24165 -24804 0
-24167 24990 0
24167 -24990 0
-24169 24263 0
24169 -24263 0
-24171 24271 0
24171 -24271 0
-24173 24227 0
24173 -24227 0
-24175 24231 0
24175 -24231 0
-24177 24235 0
24177 -24235 0
-24179 24243 0
24179 -24243 0
-24181 24251 0
24181 -24251 0
-24183 24259 0
24183 -24259 0
-24185 24267 0
24185 -24267 0
-24187 24275 0
24187 -24275 0
-24189 24279 0
24189 -24279 0
-24191 24283 0
24191 -24283 0
-24193 24239 0
24193 -24239 0
-24195 24247 0
24195 -24247 0
-24197 24255 0
24197 -24255 0
24287 24199 0
-24287 -24199 0
24934 24201 0
-24934 -24201 0
25110 24203 0
-25110 -24203 0
24289 24205 0
-24289 -24205 0
24291 24207 0
-24291 -24207 0
24293 24209 0
-24293 -24209 0
24295 24211 0
-24295 -24211 0
24297 24213 0
-24297 -24213 0
24299 24215 0
-24299 -24215 0
24301 24217 0
-24301 -24217 0
24303 24219 0
-24303 -24219 0
24305 24221 0
-24305 -24221 0
25131 24223 0
-25131 -24223 0
25133 24225 0
-25133 -24225 0
24229 24227 0
-24229 -24227 0
24829 24229 0
-24829 -24229 0
24233 24231 0
-24233 -24231 0
24681 24233 0
-24681 -24233 0
24237 24235 0
-24237 -24235 0
24752 24237 0
-24752 -24237 0
24241 24239 0
-24241 -24239 0
24690 24241 0
-24690 -24241 0
24245 24243 0
-24245 -24243 0
24684 24245 0
-24684 -24245 0
24249 24247 0
-24249 -24247 0
24693 24249 0
-24693 -24249 0
24253 24251 0
-24253 -24251 0
24899 24253 0
-24899 -24253 0
24257 24255 0
-24257 -24255 0
24696 24257 0
-24696 -24257 0
24261 24259 0
-24261 -24259 0
24902 24261 0
-24902 -24261 0
24265 24263 0
-24265 -24263 0
24746 24265 0
-24746 -24265 0
24269 24267 0
-24269 -24267 0
24755 24269 0
-24755 -24269 0
24273 24271 0
-24273 -24271 0
24678 24273 0
-24678 -24273 0
24277 24275 0
-24277 -24275 0
24832 24277 0
-24832 -24277 0
24281 24279 0
-24281 -24279 0
24749 24281 0
-24749 -24281 0
24285 24283 0
-24285 -24283 0
24687 24285 0
-24687 -24285 0
24967 24287 0
-24967 -24287 0
24319 24289 0
-24319 -24289 0
24971 24291 0
-24971 -24291 0
24976 24293 0
-24976 -24293 0
24932 24295 0
-24932 -24295 0
24844 24297 0
-24844 -24297 0
24794 24299 0
-24794 -24299 0
24673 24301 0
-24673 -24301 0
24674 24303 0
-24674 -24303 0
24675 24305 0
-24675 -24305 0
24677 24319 0
-24677 -24319 0
24680 24319 0
-24680 -24319 0
24683 24319 0
-24683 -24319 0
24686 24319 0
-24686 -24319 0
24689 24319 0
-24689 -24319 0
24692 24319 0
-24692 -24319 0
24695 24319 0
-24695 -24319 0
24910 24844 0
-24910 -24844 0
24911 24794 0
-24911 -24794 0
24851 24673 0
-24851 -24673 0
25020 24674 0
-25020 -24674 0
24939 24675 0
-24939 -24675 0
24373 24672 0
-24373 -24672 0
24335 24676 0
-24335 -24676 0
24375 24335 0
-24375 -24335 0
24339 24676 0
-24339 -24676 0
24730 24339 0
-24730 -24339 0
24343 24679 0
-24343 -24679 0
24379 24343 0
-24379 -24343 0
24347 24679 0
-24347 -24679 0
24733 24347 0
-24733 -24347 0
24351 24682 0
-24351 -24682 0
24383 24351 0
-24383 -24351 0
24355 24682 0
-24355 -24682 0
24736 24355 0
-24736 -24355 0
24359 24685 0
-24359 -24685 0
25165 24359 0
-25165 -24359 0
24363 24688 0
-24363 -24688 0
25168 24363 0
-25168 -24363 0
24367 24691 0
-24367 -24691 0
25171 24367 0
-25171 -24367 0
24371 24694 0
-24371 -24694 0
25174 24371 0
-25174 -24371 0
24387 24373 0
-24387 -24373 0
24377 24375 0
-24377 -24375 0
24978 24377 0
-24978 -24377 0
24381 24379 0
-24381 -24379 0
24973 24381 0
-24973 -24381 0
24385 24383 0
-24385 -24383 0
24953 24385 0
-24953 -24385 0
24389 24387 0
-24389 -24387 0
25177 24389 0
-25177 -24389 0
25048 25047 0
-25048 -25047 0
25051 25050 0
-25051 -25050 0
24868 24978 0
-24868 -24978 0
24812 24973 0
-24812 -24973 0
24946 24953 0
-24946 -24953 0
25054 25048 0
-25054 -25048 0
25057 25051 0
-25057 -25051 0
24407 25052 0
-24407 -25052 0
24739 24407 0
-24739 -24407 0
24411 25055 0
-24411 -25055 0
24742 24411 0
-24742 -24411 0
24417 25141 0
-24417 -25141 0
24419 25143 0
-24419 -25143 0
24421 24417 0
-24421 -24417 0
24425 24419 0
-24425 -24419 0
24423 24421 0
-24423 -24421 0
24429 24423 0
-24429 -24423 0
24427 24425 0
-24427 -24425 0
24433 24427 0
-24433 -24427 0
24431 24429 0
-24431 -24429 0
24817 24431 0
-24817 -24431 0
25060 24433 0
-25060 -24433 0
25063 24817 0
-25063 -24817 0
24745 25060 0
-24745 -25060 0
24751 25063 0
-24751 -25063 0
24443 24744 0
-24443 -24744 0
24473 24443 0
-24473 -24443 0
24447 24744 0
-24447 -24744 0
24757 24447 0
-24757 -24447 0
24451 24747 0
-24451 -24747 0
24477 24451 0
-24477 -24451 0
24455 24747 0
-24455 -24747 0
24760 24455 0
-24760 -24455 0
24459 24750 0
-24459 -24750 0
24481 24459 0
-24481 -24459 0
24463 24750 0
-24463 -24750 0
24763 24463 0
-24763 -24463 0
24467 24753 0
-24467 -24753 0
24485 24467 0
-24485 -24467 0
24471 24753 0
-24471 -24753 0
24766 24471 0
-24766 -24471 0
24475 24473 0
-24475 -24473 0
24982 24475 0
-24982 -24475 0
24479 24477 0
-24479 -24477 0
24787 24479 0
-24787 -24479 0
24483 24481 0
-24483 -24481 0
24972 24483 0
-24972 -24483 0
24487 24485 0
-24487 -24485 0
24891 24487 0
-24891 -24487 0
24497 24982 0
-24497 -24982 0
24965 24787 0
-24965 -24787 0
24818 24972 0
-24818 -24972 0
24969 24891 0
-24969 -24891 0
24501 24497 0
-24501 -24497 0
24503 24785 0
-24503 -24785 0
25003 24501 0
-25003 -24501 0
24502 24503 0
-24502 -24503 0
25066 25065 0
-25066 -25065 0
25069 25068 0
-25069 -25068 0
25072 25071 0
-25072 -25071 0
25075 25074 0
-25075 -25074 0
25078 25066 0
-25078 -25066 0
25081 25069 0
-25081 -25069 0
25084 25072 0
-25084 -25072 0
25087 25075 0
-25087 -25075 0
24523 25076 0
-24523 -25076 0
24825 24523 0
-24825 -24523 0
24527 25153 0
-24527 -25153 0
24529 24527 0
-24529 -24527 0
24531 24529 0
-24531 -24529 0
24533 24531 0
-24533 -24531 0
24535 24533 0
-24535 -24533 0
24873 24535 0
-24873 -24535 0
25090 24873 0
-25090 -24873 0
24828 25090 0
-24828 -25090 0
24543 24827 0
-24543 -24827 0
24557 24543 0
-24557 -24543 0
24547 24827 0
-24547 -24827 0
24834 24547 0
-24834 -24547 0
24551 24830 0
-24551 -24830 0
24860 24551 0
-24860 -24551 0
24555 24830 0
-24555 -24830 0
24837 24555 0
-24837 -24555 0
24559 24557 0
-24559 -24557 0
24977 24559 0
-24977 -24559 0
24563 24860 0
-24563 -24860 0
24562 24563 0
-24562 -24563 0
24874 24977 0
-24874 -24977 0
24981 24860 0
-24981 -24860 0
24571 24858 0
-24571 -24858 0
24570 24571 0
-24570 -24571 0
24581 24889 0
-24581 -24889 0
25093 25092 0
-25093 -25092 0
25096 25095 0
-25096 -25095 0
25099 25098 0
-25099 -25098 0
24580 24581 0
-24580 -24581 0
25102 25093 0
-25102 -25093 0
25105 25096 0
-25105 -25096 0
25108 25099 0
-25108 -25099 0
24591 25106 0
-24591 -25106 0
24895 24591 0
-24895 -24591 0
24595 25159 0
-24595 -25159 0
24597 24595 0
-24597 -24595 0
24599 24597 0
-24599 -24597 0
24601 24599 0
-24601 -24599 0
24603 24601 0
-24603 -24601 0
24951 24603 0
-24951 -24603 0
25111 24951 0
-25111 -24951 0
24898 25111 0
-24898 -25111 0
24611 24897 0
-24611 -24897 0
24625 24611 0
-24625 -24611 0
24615 24897 0
-24615 -24897 0
24904 24615 0
-24904 -24615 0
24619 24900 0
-24619 -24900 0
24935 24619 0
-24935 -24619 0
24623 24900 0
-24623 -24900 0
24907 24623 0
-24907 -24623 0
24627 24625 0
-24627 -24625 0
24923 24627 0
-24923 -24627 0
24631 24935 0
-24631 -24935 0
24630 24631 0
-24630 -24631 0
24952 24923 0
-24952 -24923 0
24968 24935 0
-24968 -24935 0
24645 25015 0
-24645 -25015 0
24647 24954 0
-24647 -24954 0
25114 25113 0
-25114 -25113 0
25117 25116 0
-25117 -25116 0
24644 24645 0
-24644 -24645 0
24646 24647 0
-24646 -24647 0
25120 25119 0
-25120 -25119 0
25123 25114 0
-25123 -25114 0
25126 25117 0
-25126 -25117 0
24663 25034 0
-24663 -25034 0
24665 25038 0
-24665 -25038 0
24667 25042 0
-24667 -25042 0
25129 25120 0
-25129 -25120 0
24662 24663 0
-24662 -24663 0
24664 24665 0
-24664 -24665 0
24666 24667 0
-24666 -24667 0
24671 25127 0
-24671 -25127 0
25180 24671 0
-25180 -24671 0
-24672 24673 0
-24672 24674 0
-24672 24675 0
24672 -24673 -24674 -24675 0
-24676 24677 0
-24676 24678 0
24676 -24677 -24678 0
-24679 24680 0
-24679 24681 0
24679 -24680 -24681 0
-24682 24683 0
-24682 24684 0
24682 -24683 -24684 0
-24685 24686 0
-24685 24687 0
24685 -24686 -24687 0
-24688 24689 0
-24688 24690 0
24688 -24689 -24690 0
-24691 24692 0
-24691 24693 0
24691 -24692 -24693 0
-24694 24695 0
-24694 24696 0
24694 -24695 -24696 0
-25012 25110 0
-25012 24851 0
25012 -25110 -24851 0
-24985 25110 0
-24985 24851 0
24985 -25110 -24851 0
-24993 25110 0
-24993 24851 0
24993 -25110 -24851 0
-24989 25110 0
-24989 24851 0
24989 -25110 -24851 0
-25013 25110 0
-25013 24910 0
-25013 24911 0
-25013 24939 0
25013 -25110 -24910 -24911 -24939 0
-24986 25110 0
-24986 24910 0
-24986 24794 0
-24986 24939 0
24986 -25110 -24910 -24794 -24939 0
-24995 25110 0
-24995 24844 0
-24995 24911 0
-24995 24939 0
24995 -25110 -24844 -24911 -24939 0
-24991 25110 0
-24991 24844 0
-24991 24794 0
-24991 24939 0
24991 -25110 -24844 -24794 -24939 0
-25135 24730 0
-25135 24731 0
25135 -24730 -24731 0
-25137 24733 0
-25137 24734 0
25137 -24733 -24734 0
-25139 24736 0
-25139 24737 0
25139 -24736 -24737 0
-25141 24739 0
-25141 24740 0
25141 -24739 -24740 0
-25143 24742 0
-25143 24743 0
25143 -24742 -24743 0
-24744 24745 0
-24744 24746 0
24744 -24745 -24746 0
-24747 25058 0
-24747 24749 0
24747 -25058 -24749 0
-24750 24751 0
-24750 24752 0
24750 -24751 -24752 0
-24753 25061 0
-24753 24755 0
24753 -25061 -24755 0
-25145 24757 0
-25145 24758 0
25145 -24757 -24758 0
-25147 24760 0
-25147 24761 0
25147 -24760 -24761 0
-25149 24763 0
-25149 24764 0
25149 -24763 -24764 0
-25151 24766 0
-25151 24767 0
25151 -24766 -24767 0
-25004 25060 0
-25004 24982 0
25004 -25060 -24982 0
-25031 24844 0
-25031 24794 0
-25031 24982 0
-25031 24939 0
25031 -24844 -24794 -24982 -24939 0
-25043 24934 0
-25043 24787 0
25043 -24934 -24787 0
-25044 24967 0
-25044 24787 0
25044 -24967 -24787 0
-24782 24934 0
-24782 24787 0
24782 -24934 -24787 0
-24785 24934 0
-24785 24787 0
24785 -24934 -24787 0
-24998 25063 0
-24998 24972 0
-24998 24973 0
24998 -25063 -24972 -24973 0
-24809 24910 0
-24809 24794 0
-24809 24972 0
24809 -24910 -24794 -24972 0
-25035 24934 0
-25035 24891 0
25035 -24934 -24891 0
-25036 24891 0
-25036 24971 0
25036 -24891 -24971 0
-24994 24934 0
-24994 24804 0
-24994 24965 0
24994 -24934 -24804 -24965 0
-25030 24973 0
-25030 24939 0
-25030 24809 0
25030 -24973 -24939 -24809 0
-25000 24818 0
-25000 24812 0
25000 -24818 -24812 0
-24997 24818 0
-24997 24973 0
24997 -24818 -24973 0
-25001 24817 0
-25001 24818 0
-25001 24973 0
25001 -24817 -24818 -24973 0
-24883 24934 0
-24883 24822 0
-24883 24969 0
24883 -24934 -24822 -24969 0
-25153 24825 0
-25153 24826 0
25153 -24825 -24826 0
-24827 24828 0
-24827 24829 0
24827 -24828 -24829 0
-24830 25088 0
-24830 24832 0
24830 -25088 -24832 0
-25155 24834 0
-25155 24835 0
25155 -24834 -24835 0
-25157 24837 0
-25157 24838 0
25157 -24837 -24838 0
-25007 25090 0
-25007 24977 0
-25007 24978 0
25007 -25090 -24977 -24978 0
-24865 24844 0
-24865 24911 0
-24865 24977 0
24865 -24844 -24911 -24977 0
-24943 24977 0
-24943 24978 0
-24943 24982 0
-24943 24851 0
24943 -24977 -24978 -24982 -24851 0
-25039 24934 0
-25039 24860 0
25039 -24934 -24860 0
-25040 24860 0
-25040 24976 0
25040 -24860 -24976 0
-24858 24934 0
-24858 24860 0
-24858 24965 0
24858 -24934 -24860 -24965 0
-25022 24978 0
-25022 24939 0
-25022 24865 0
25022 -24978 -24939 -24865 0
-25009 24874 0
-25009 24868 0
25009 -24874 -24868 0
-25006 24874 0
-25006 24978 0
25006 -24874 -24978 0
-25010 24873 0
-25010 24874 0
-25010 24978 0
25010 -24873 -24874 -24978 0
-24921 24969 0
-24921 24981 0
-24921 24965 0
24921 -24969 -24981 -24965 0
-25014 24981 0
-25014 24965 0
-25014 24883 0
25014 -24981 -24965 -24883 0
-24884 24934 0
-24884 24891 0
-24884 24981 0
-24884 24965 0
24884 -24934 -24891 -24981 -24965 0
-24889 24934 0
-24889 24891 0
-24889 24981 0
-24889 24965 0
24889 -24934 -24891 -24981 -24965 0
-25159 24895 0
-25159 24896 0
25159 -24895 -24896 0
-24897 24898 0
-24897 24899 0
24897 -24898 -24899 0
-24900 25109 0
-24900 24902 0
24900 -25109 -24902 0
-25161 24904 0
-25161 24905 0
25161 -24904 -24905 0
-25163 24907 0
-25163 24908 0
25163 -24907 -24908 0
-24940 24910 0
-24940 24911 0
-24940 24923 0
24940 -24910 -24911 -24923 0
-25025 25111 0
-25025 24923 0
-25025 24953 0
25025 -25111 -24923 -24953 0
-25018 24932 0
-25018 24923 0
-25018 24953 0
-25018 24921 0
25018 -24932 -24923 -24953 -24921 0
-24942 24923 0
-24942 24953 0
-24942 24972 0
-24942 24973 0
24942 -24923 -24953 -24972 -24973 0
-25016 24934 0
-25016 24935 0
25016 -24934 -24935 0
-25017 24935 0
-25017 24932 0
25017 -24935 -24932 0
-24957 24934 0
-24957 24935 0
-24957 24969 0
24957 -24934 -24935 -24969 0
-25021 24953 0
-25021 24939 0
-25021 24940 0
25021 -24953 -24939 -24940 0
-25032 24942 0
-25032 24943 0
25032 -24942 -24943 0
-25027 24952 0
-25027 24946 0
25027 -24952 -24946 0
-25024 24952 0
-25024 24953 0
25024 -24952 -24953 0
-25028 24951 0
-25028 24952 0
-25028 24953 0
25028 -24951 -24952 -24953 0
-24954 24981 0
-24954 24965 0
-24954 24957 0
24954 -24981 -24965 -24957 0
-24974 24968 0
-24974 24981 0
-24974 24965 0
24974 -24968 -24981 -24965 0
-24979 24968 0
-24979 24969 0
-24979 24965 0
24979 -24968 -24969 -24965 0
-24983 24967 0
-24983 24968 0
-24983 24969 0
24983 -24967 -24968 -24969 0
-25037 24971 0
-25037 24972 0
-25037 24973 0
-25037 24974 0
25037 -24971 -24972 -24973 -24974 0
-25041 24976 0
-25041 24977 0
-25041 24978 0
-25041 24979 0
25041 -24976 -24977 -24978 -24979 0
-25045 24981 0
-25045 24982 0
-25045 24983 0
25045 -24981 -24982 -24983 0
25047 -24985 0
25047 -24986 0
25047 -24987 0
-25047 24985 24986 24987 0
25050 -24989 0
25050 -24990 0
25050 -24991 0
-25050 24989 24990 24991 0
25065 -24993 0
25065 -24994 0
25065 -24995 0
-25065 24993 24994 24995 0
25068 -24997 0
25068 -24998 0
-25068 24997 24998 0
25071 -25000 0
25071 -25001 0
-25071 25000 25001 0
25074 -25003 0
25074 -25004 0
-25074 25003 25004 0
25092 -25006 0
25092 -25007 0
-25092 25006 25007 0
25095 -25009 0
25095 -25010 0
-25095 25009 25010 0
25098 -25012 0
25098 -25013 0
25098 -25014 0
-25098 25012 25013 25014 0
25015 -25016 0
25015 -25017 0
25015 -25018 0
-25015 25016 25017 25018 0
25033 -25020 0
25033 -25021 0
25033 -25022 0
-25033 25020 25021 25022 0
25113 -25024 0
25113 -25025 0
-25113 25024 25025 0
25116 -25027 0
25116 -25028 0
-25116 25027 25028 0
25119 -25030 0
25119 -25031 0
25119 -25032 0
25119 -25033 0
-25119 25030 25031 25032 25033 0
25034 -25035 0
25034 -25036 0
25034 -25037 0
-25034 25035 25036 25037 0
25038 -25039 0
25038 -25040 0
25038 -25041 0
-25038 25039 25040 25041 0
25042 -25043 0
25042 -25044 0
25042 -25045 0
-25042 25043 25044 25045 0
25053 25047 0
25053 25048 0
-25053 -25047 -25048 0
25056 25050 0
25056 25051 0
-25056 -25050 -25051 0
25052 25053 0
25052 25054 0
-25052 -25053 -25054 0
25055 25056 0
25055 25057 0
-25055 -25056 -25057 0
25058 25110 0
25058 25060 0
-25058 -25110 -25060 0
25061 25110 0
25061 25063 0
-25061 -25110 -25063 0
25077 25065 0
25077 25066 0
-25077 -25065 -25066 0
25080 25068 0
25080 25069 0
-25080 -25068 -25069 0
25083 25071 0
25083 25072 0
-25083 -25071 -25072 0
25086 25074 0
25086 25075 0
-25086 -25074 -25075 0
25076 25077 0
25076 25078 0
-25076 -25077 -25078 0
25079 25080 0
25079 25081 0
-25079 -25080 -25081 0
25082 25083 0
25082 25084 0
-25082 -25083 -25084 0
25085 25086 0
25085 25087 0
-25085 -25086 -25087 0
25088 25110 0
25088 25090 0
-25088 -25110 -25090 0
25101 25092 0
25101 25093 0
-25101 -25092 -25093 0
25104 25095 0
25104 25096 0
-25104 -25095 -25096 0
25107 25098 0
25107 25099 0
-25107 -25098 -25099 0
25100 25101 0
25100 25102 0
-25100 -25101 -25102 0
25103 25104 0
25103 25105 0
-25103 -25104 -25105 0
25106 25107 0
25106 25108 0
-25106 -25107 -25108 0
25109 25110 0
25109 25111 0
-25109 -25110 -25111 0
25122 25113 0
25122 25114 0
-25122 -25113 -25114 0
25125 25116 0
25125 25117 0
-25125 -25116 -25117 0
25128 25119 0
25128 25120 0
-25128 -25119 -25120 0
25121 25122 0
25121 25123 0
-25121 -25122 -25123 0
25124 25125 0
25124 25126 0
-25124 -25125 -25126 0
25127 25128 0
25127 25129 0
-25127 -25128 -25129 0
25130 25131 0
-25130 -25131 0
25132 25133 0
-25132 -25133 0
25134 25135 0
-25134 -25135 0
25136 25137 0
-25136 -25137 0
25138 25139 0
-25138 -25139 0
25140 25141 0
-25140 -25141 0
25142 25143 0
-25142 -25143 0
25144 25145 0
-25144 -25145 0
25146 25147 0
-25146 -25147 0
25148 25149 0
-25148 -25149 0
25150 25151 0
-25150 -25151 0
25152 25153 0
-25152 -25153 0
25154 25155 0
-25154 -25155 0
25156 25157 0
-25156 -25157 0
25158 25159 0
-25158 -25159 0
25160 25161 0
-25160 -25161 0
25162 25163 0
-25162 -25163 0
-25164 25165 0
-25164 25166 0
25164 -25165 -25166 0
-25167 25168 0
-25167 25169 0
25167 -25168 -25169 0
-25170 25171 0
-25170 25172 0
25170 -25171 -25172 0
-25173 25174 0
-25173 25175 0
25173 -25174 -25175 0
-25176 25177 0
-25176 25178 0
25176 -25177 -25178 0
-25179 25180 0
-25179 25181 0
25179 -25180 -25181 0
25162 0
-25150 0