p cnf 30769 30348
-1255 0
-1444 0
-1380 0
-1524 0
-1415 0
-1492 0
-430 0
-431 0
-432 0
-433 0
-434 0
-435 0
-436 0
-437 0
-438 0
-439 0
-440 0
-441 0
-442 0
-443 0
-444 0
-445 0
-446 0
-447 0
-448 0
-449 0
-450 0
-451 0
-452 0
1390 1501 0
-1390 -1501 0
1461 456 0
-1461 -456 0
653 656 0
-653 -656 0
924 656 0
-924 -656 0
1371 1429 0
-1371 -1429 0
655 1351 0
-655 -1351 0
1544 1351 0
-1544 -1351 0
1041 1444 0
-1041 -1444 0
1341 1380 0
-1341 -1380 0
1294 1524 0
-1294 -1524 0
1048 1211 0
-1048 -1211 0
1297 1282 0
-1297 -1282 0
1345 1415 0
-1345 -1415 0
1060 999 0
-1060 -999 0
1305 1374 0
-1305 -1374 0
1331 1492 0
-1331 -1492 0
1495 1034 0
-1495 -1034 0
1475 960 0
-1475 -960 0
1175 1182 0
-1175 -1182 0
1343 1279 0
-1343 -1279 0
1466 1253 0
-1466 -1253 0
677 1259 0
-677 -1259 0
1489 1045 0
-1489 -1045 0
684 1277 0
-684 -1277 0
1481 1280 0
-1481 -1280 0
852 923 0
-852 -923 0
730 1286 0
-730 -1286 0
1204 1527 0
-1204 -1527 0
1062 1458 0
-1062 -1458 0
834 953 0
-834 -953 0
1522 1298 0
-1522 -1298 0
825 962 0
-825 -962 0
1407 1360 0
-1407 -1360 0
698 1304 0
-698 -1304 0
833 971 0
-833 -971 0
836 980 0
-836 -980 0
1518 1310 0
-1518 -1310 0
840 986 0
-840 -986 0
913 1316 0
-913 -1316 0
765 1329 0
-765 -1329 0
901 1012 0
-901 -1012 0
708 1336 0
-708 -1336 0
711 1342 0
-711 -1342 0
727 1352 0
-727 -1352 0
853 1633 0
-853 -1633 0
787 1029 0
-787 -1029 0
1665 1036 0
-1665 -1036 0
736 1222 0
-736 -1222 0
1167 1559 0
-1167 -1559 0
1158 1064 0
-1158 -1064 0
1596 1188 0
-1596 -1188 0
751 1391 0
-751 -1391 0
763 1397 0
-763 -1397 0
894 1078 0
-894 -1078 0
861 1400 0
-861 -1400 0
753 1087 0
-753 -1087 0
1499 1168 0
-1499 -1168 0
762 1434 0
-762 -1434 0
883 1099 0
-883 -1099 0
886 1102 0
-886 -1102 0
766 1437 0
-766 -1437 0
1221 1440 0
-1221 -1440 0
1171 1443 0
-1171 -1443 0
768 1447 0
-768 -1447 0
1506 1105 0
-1506 -1105 0
774 1163 0
-774 -1163 0
1639 1460 0
-1639 -1460 0
1511 1197 0
-1511 -1197 0
1224 1453 0
-1224 -1453 0
1595 1227 0
-1595 -1227 0
793 1483 0
-793 -1483 0
1201 1153 0
-1201 -1153 0
1520 1456 0
-1520 -1456 0
1195 1159 0
-1195 -1159 0
891 1462 0
-891 -1462 0
1194 1465 0
-1194 -1465 0
1546 1468 0
-1546 -1468 0
1601 1497 0
-1601 -1497 0
903 1500 0
-903 -1500 0
1623 1507 0
-1623 -1507 0
1578 1191 0
-1578 -1191 0
909 1176 0
-909 -1176 0
1582 1179 0
-1582 -1179 0
1233 1515 0
-1233 -1515 0
800 1529 0
-800 -1529 0
1625 1532 0
-1625 -1532 0
1586 1540 0
-1586 -1540 0
1591 1547 0
-1591 -1547 0
1629 1551 0
-1629 -1551 0
1643 1556 0
-1643 -1556 0
912 1561 0
-912 -1561 0
1653 1571 0
-1653 -1571 0
1659 1575 0
-1659 -1575 0
1600 1580 0
-1600 -1580 0
1609 1584 0
-1609 -1584 0
1239 1212 0
-1239 -1212 0
1641 1592 0
-1641 -1592 0
1248 1228 0
-1248 -1228 0
1627 1607 0
-1627 -1607 0
-1320 1351 0
-1320 653 0
1320 -1351 -653 0
-1321 655 0
-1321 656 0
1321 -655 -656 0
-1338 1415 0
-1338 1294 0
1338 -1415 -1294 0
-1446 1501 0
-1446 1294 0
1446 -1501 -1294 0
-1353 1151 0
-1353 1351 0
-1353 1294 0
1353 -1151 -1351 -1294 0
-1530 1390 0
-1530 1367 0
1530 -1390 -1367 0
-1442 1294 0
-1442 1412 0
1442 -1294 -1412 0
-1421 1294 0
-1421 935 0
1421 -1294 -935 0
-1393 677 0
-1393 968 0
1393 -677 -968 0
-1399 956 0
-1399 989 0
1399 -956 -989 0
-1402 1415 0
-1402 684 0
1402 -1415 -684 0
-1505 1492 0
-1505 1322 0
1505 -1492 -1322 0
-1418 1294 0
-1418 1009 0
1418 -1294 -1009 0
-1478 1019 0
-1478 1001 0
1478 -1019 -1001 0
-1557 1322 0
-1557 1522 0
1557 -1322 -1522 0
-1436 698 0
-1436 1026 0
1436 -698 -1026 0
-1594 1633 0
-1594 1501 0
1594 -1633 -1501 0
-1484 1080 0
-1484 1029 0
1484 -1080 -1029 0
-1452 1409 0
-1452 708 0
1452 -1409 -708 0
-1455 1364 0
-1455 711 0
1455 -1364 -711 0
-1508 1255 0
-1508 1378 0
1508 -1255 -1378 0
-1608 1489 0
-1608 1253 0
-1608 1378 0
1608 -1489 -1253 -1378 0
-1509 1381 0
-1509 1289 0
1509 -1381 -1289 0
-1603 1282 0
-1603 1381 0
1603 -1282 -1381 0
-1513 1274 0
-1513 727 0
1513 -1274 -727 0
-1538 1403 0
-1538 730 0
1538 -1403 -730 0
-1504 1403 0
-1504 1388 0
1504 -1403 -1388 0
-1550 1412 0
-1550 736 0
1550 -1412 -736 0
-1590 1298 0
-1590 1410 0
1590 -1298 -1410 0
-1598 1410 0
-1598 1310 0
1598 -1410 -1310 0
-1583 1422 0
-1583 1388 0
1583 -1422 -1388 0
-1467 1084 0
-1467 1016 0
1467 -1084 -1016 0
-1502 1096 0
-1502 751 0
1502 -1096 -751 0
-1514 753 0
-1514 1475 0
1514 -753 -1475 0
-1552 1456 0
-1552 1449 0
1552 -1456 -1449 0
-1587 1448 0
-1587 1456 0
1587 -1448 -1456 0
-1525 762 0
-1525 763 0
1525 -762 -763 0
-1528 765 0
-1528 766 0
1528 -765 -766 0
-1531 768 0
-1531 1355 0
1531 -768 -1355 0
-1533 1544 0
-1533 774 0
1533 -1544 -774 0
-1577 774 0
-1577 1211 0
1577 -774 -1211 0
-1539 1639 0
-1539 1351 0
1539 -1639 -1351 0
-1541 1462 0
-1541 1218 0
-1541 1182 0
1541 -1462 -1218 -1182 0
-1566 1468 0
-1566 1349 0
1566 -1468 -1349 0
-1570 787 0
-1570 1468 0
1570 -787 -1468 0
-1589 983 0
-1589 1471 0
1589 -983 -1471 0
-1576 793 0
-1576 1349 0
1576 -793 -1349 0
-1563 891 0
-1563 1130 0
1563 -891 -1130 0
-1593 1346 0
-1593 800 0
1593 -1346 -800 0
1100 -1182 0
1100 -1492 0
1100 -1034 0
-1100 1182 1492 1034 0
1013 -1492 0
1013 -1256 0
-1013 1492 1256 0
1157 -1175 0
1157 -1283 0
-1157 1175 1283 0
1180 -1030 0
1180 -1495 0
-1180 1030 1495 0
1079 -1494 0
1079 -1351 0
-1079 1494 1351 0
1082 -1367 0
1082 -1339 0
-1082 1367 1339 0
1085 -1292 0
1085 -1339 0
-1085 1292 1339 0
1088 -1492 0
1088 -825 0
-1088 1492 825 0
1091 -1444 0
1091 -1355 0
-1091 1444 1355 0
1094 -1380 0
1094 -1358 0
-1094 1380 1358 0
1097 -833 0
1097 -834 0
-1097 833 834 0
1101 -836 0
1101 -1494 0
-1101 836 1494 0
1106 -1255 0
1106 -840 0
-1106 1255 840 0
1109 -1289 0
1109 -1372 0
-1109 1289 1372 0
1207 -1331 0
1207 -1430 0
-1207 1331 1430 0
1154 -1390 0
1154 -1444 0
1154 -1433 0
-1154 1390 1444 1433 0
1244 -852 0
1244 -853 0
-1244 852 853 0
1160 -1438 0
1160 -1411 0
-1160 1438 1411 0
1185 -1211 0
1185 -1167 0
-1185 1211 1167 0
1166 -861 0
1166 -1331 0
-1166 861 1331 0
1170 -1460 0
1170 -924 0
-1170 1460 924 0
1230 -1460 0
1230 -1211 0
-1230 1460 1211 0
1213 -1108 0
1213 -1464 0
-1213 1108 1464 0
1190 -1480 0
1190 -1001 0
-1190 1480 1001 0
1184 -894 0
1184 -1483 0
-1184 894 1483 0
1187 -1029 0
1187 -1488 0
-1187 1029 1488 0
1237 -1064 0
1237 -883 0
-1237 1064 883 0
1229 -1414 0
1229 -886 0
-1229 1414 886 0
1193 -1520 0
1193 -1447 0
-1193 1520 1447 0
1238 -891 0
1238 -1313 0
-1238 891 1313 0
1241 -894 0
1241 -1546 0
-1241 894 1546 0
1200 -1527 0
1200 -1512 0
-1200 1527 1512 0
1203 -1523 0
1203 -901 0
-1203 1523 901 0
1206 -903 0
1206 -1426 0
-1206 903 1426 0
1210 -1558 0
1210 -1459 0
-1210 1558 1459 0
1217 -909 0
1217 -1490 0
-1217 909 1490 0
1247 -912 0
1247 -913 0
-1247 912 913 0
1151 1374 0
1151 1282 0
-1151 -1374 -1282 0
1045 1284 0
1045 1429 0
-1045 -1284 -1429 0
1361 960 0
1361 999 0
-1361 -960 -999 0
923 924 0
923 1390 0
-923 -924 -1390 0
1545 1284 0
1545 1371 0
-1545 -1284 -1371 0
1454 1380 0
1454 1253 0
-1454 -1380 -1253 0
1412 1390 0
1412 1041 0
-1412 -1390 -1041 0
935 1288 0
935 1041 0
-935 -1288 -1041 0
1432 1041 0
1432 1255 0
-1432 -1041 -1255 0
1363 1341 0
1363 943 0
-1363 -1341 -943 0
1527 1341 0
1527 1255 0
-1527 -1341 -1255 0
1409 1294 0
1409 1492 0
-1409 -1294 -1492 0
1458 1294 0
1458 1341 0
-1458 -1294 -1341 0
953 1297 0
953 960 0
-953 -1297 -960 0
956 1345 0
956 1501 0
-956 -1345 -1501 0
1517 960 0
1517 1060 0
-1517 -960 -1060 0
962 1256 0
962 1151 0
-962 -1256 -1151 0
1360 1305 0
1360 1297 0
-1360 -1305 -1297 0
968 1305 0
968 1284 0
-968 -1305 -1284 0
971 1305 0
971 1060 0
-971 -1305 -1060 0
1474 1501 0
1474 1305 0
-1474 -1501 -1305 0
1364 1367 0
1364 1524 0
-1364 -1367 -1524 0
980 1331 0
980 1182 0
-980 -1331 -1182 0
983 1487 0
983 1182 0
-983 -1487 -1182 0
986 1041 0
986 1045 0
-986 -1041 -1045 0
989 1351 0
989 1045 0
-989 -1351 -1045 0
1370 1415 0
1370 1274 0
-1370 -1415 -1274 0
1030 1475 0
1030 1060 0
-1030 -1475 -1060 0
1494 999 0
1494 1475 0
-1494 -999 -1475 0
1001 1544 0
1001 1495 0
1001 1280 0
1001 1182 0
-1001 -1544 -1495 -1280 -1182 0
1080 1283 0
1080 1351 0
-1080 -1283 -1351 0
1009 1361 0
1009 1412 0
-1009 -1361 -1412 0
1012 1013 0
1012 1345 0
1012 1361 0
-1012 -1013 -1345 -1361 0
1016 1292 0
1016 1363 0
-1016 -1292 -1363 0
1019 1371 0
1019 1295 0
1019 1351 0
-1019 -1371 -1295 -1351 0
1379 1298 0
1379 1524 0
-1379 -1298 -1524 0
1026 1360 0
1026 1492 0
-1026 -1360 -1492 0
1029 1030 0
1029 1544 0
1029 1361 0
-1029 -1030 -1544 -1361 0
1218 1034 0
1218 1494 0
-1218 -1034 -1494 0
1036 1322 0
1036 1367 0
-1036 -1322 -1367 0
1408 1333 0
1408 1041 0
-1408 -1333 -1041 0
1222 1331 0
1222 1333 0
1222 1045 0
-1222 -1331 -1333 -1045 0
1411 1204 0
1411 1048 0
-1411 -1204 -1048 0
1414 1204 0
1414 1444 0
-1414 -1204 -1444 0
1424 1310 0
1424 1204 0
-1424 -1310 -1204 0
1426 1204 0
1426 1265 0
-1426 -1204 -1265 0
1430 1346 0
1430 1060 0
-1430 -1346 -1060 0
1433 1062 0
1433 1367 0
-1433 -1062 -1367 0
1064 1355 0
1064 1345 0
1064 1346 0
-1064 -1355 -1345 -1346 0
1188 1325 0
1188 1341 0
1188 1358 0
-1188 -1325 -1341 -1358 0
1438 1366 0
1438 1524 0
-1438 -1366 -1524 0
1445 1204 0
1445 1366 0
-1445 -1204 -1366 0
1078 1079 0
1078 1080 0
-1078 -1079 -1080 0
1208 1082 0
1208 1253 0
-1208 -1082 -1253 0
1084 1085 0
1084 1415 0
-1084 -1085 -1415 0
1087 1088 0
1087 1345 0
-1087 -1088 -1345 0
1457 1091 0
1457 1255 0
-1457 -1091 -1255 0
1168 1094 0
1168 1325 0
-1168 -1094 -1325 0
1096 1097 0
1096 1544 0
-1096 -1097 -1544 0
1099 1100 0
1099 1101 0
-1099 -1100 -1101 0
1102 1438 0
1102 1370 0
-1102 -1438 -1370 0
1105 1106 0
1105 1378 0
-1105 -1106 -1378 0
1108 1109 0
1108 1345 0
-1108 -1109 -1345 0
1163 1294 0
1163 1390 0
1163 1403 0
-1163 -1294 -1390 -1403 0
1460 1265 0
1460 1413 0
-1460 -1265 -1413 0
1249 1492 0
1249 1413 0
1249 1475 0
-1249 -1492 -1413 -1475 0
1197 1289 0
1197 1294 0
1197 1422 0
-1197 -1289 -1294 -1422 0
1464 1425 0
1464 1297 0
1464 1283 0
-1464 -1425 -1297 -1283 0
1130 1175 0
1130 1425 0
1130 1355 0
-1130 -1175 -1425 -1355 0
1227 1407 0
1227 1605 0
1227 1368 0
-1227 -1407 -1605 -1368 0
1472 1431 0
1472 1297 0
-1472 -1431 -1297 0
1480 1431 0
1480 1305 0
1480 1284 0
-1480 -1431 -1305 -1284 0
1483 1305 0
1483 1431 0
1483 1295 0
-1483 -1305 -1431 -1295 0
1488 1390 0
1488 1151 0
1488 1431 0
-1488 -1390 -1151 -1431 0
1153 1154 0
1153 1208 0
-1153 -1154 -1208 0
1496 1157 0
1496 1158 0
-1496 -1157 -1158 0
1159 1160 0
1159 1188 0
-1159 -1160 -1188 0
1645 1163 0
1645 1460 0
-1645 -1163 -1460 0
1615 1166 0
1615 1167 0
1615 1168 0
-1615 -1166 -1167 -1168 0
1637 1170 0
1637 1171 0
-1637 -1170 -1171 0
1191 1471 0
1191 1562 0
1191 1175 0
-1191 -1471 -1562 -1175 0
1176 1479 0
1176 1351 0
-1176 -1479 -1351 0
1179 1180 0
1179 1479 0
1179 1182 0
-1179 -1180 -1479 -1182 0
1549 1184 0
1549 1185 0
-1549 -1184 -1185 0
1555 1187 0
1555 1188 0
-1555 -1187 -1188 0
1667 1190 0
1667 1191 0
-1667 -1190 -1191 0
1617 1193 0
1617 1194 0
1617 1195 0
-1617 -1193 -1194 -1195 0
1635 1197 0
1635 1537 0
-1635 -1197 -1537 0
1647 1200 0
1647 1201 0
-1647 -1200 -1201 0
1220 1203 0
1220 1204 0
-1220 -1203 -1204 0
1649 1206 0
1649 1207 0
1649 1208 0
-1649 -1206 -1207 -1208 0
1225 1210 0
1225 1211 0
-1225 -1210 -1211 0
1212 1213 0
1212 1224 0
1212 1567 0
-1212 -1213 -1224 -1567 0
1231 1217 0
1231 1218 0
-1231 -1217 -1218 0
1604 1220 0
1604 1221 0
1604 1222 0
-1604 -1220 -1221 -1222 0
1657 1224 0
1657 1225 0
1657 1564 0
1657 1227 0
-1657 -1224 -1225 -1564 -1227 0
1228 1229 0
1228 1230 0
1228 1231 0
-1228 -1229 -1230 -1231 0
1619 1233 0
1619 1503 0
1619 1588 0
-1619 -1233 -1503 -1588 0
1651 1237 0
1651 1238 0
1651 1239 0
-1651 -1237 -1238 -1239 0
1621 1241 0
1621 1597 0
-1621 -1241 -1597 0
1611 1244 0
1611 1602 0
-1611 -1244 -1602 0
1613 1247 0
1613 1248 0
1613 1249 0
-1613 -1247 -1248 -1249 0
-1288 -1501 0
-1288 -1351 0
1288 1501 1351 0
-1253 -1444 0
-1253 -1255 0
1253 1444 1255 0
-1256 -1351 0
-1256 -1524 0
1256 1351 1524 0
-1259 -1282 0
-1259 -1429 0
1259 1282 1429 0
-1367 -1492 0
-1367 -1415 0
1367 1492 1415 0
-1265 -1524 0
-1265 -1492 0
1265 1524 1492 0
-1663 -1374 0
-1663 -1387 0
1663 1374 1387 0
-1487 -1284 0
-1487 -1429 0
1487 1284 1429 0
-1274 -1492 0
-1274 -1284 0
1274 1492 1284 0
-1277 -1524 0
-1277 -1279 0
1277 1524 1279 0
-1280 -1390 0
-1280 -1282 0
1280 1390 1282 0
-1283 -1284 0
-1283 -1371 0
1283 1284 1371 0
-1286 -1524 0
-1286 -1288 0
1286 1524 1288 0
-1289 -1501 0
-1289 -1544 0
1289 1501 1544 0
-1292 -1492 0
-1292 -1294 0
1292 1492 1294 0
-1295 -1501 0
-1295 -1297 0
1295 1501 1297 0
-1298 -1492 0
-1298 -1345 0
1298 1492 1345 0
-1661 -1305 0
-1661 -1387 0
1661 1305 1387 0
-1304 -1305 0
-1304 -1345 0
1304 1305 1345 0
-1368 -1345 0
-1368 -1331 0
1368 1345 1331 0
-1310 -1331 0
-1310 -1415 0
1310 1331 1415 0
-1313 -1415 0
-1313 -1495 0
1313 1415 1495 0
-1316 -1475 0
-1316 -1415 0
1316 1475 1415 0
-1562 -1320 0
-1562 -1321 0
1562 1320 1321 0
-1322 -1454 0
-1322 -1524 0
1322 1454 1524 0
-1325 -1415 0
-1325 -1466 0
-1325 -1524 0
1325 1415 1466 1524 0
-1329 -1412 0
-1329 -1331 0
-1329 -1415 0
1329 1412 1331 1415 0
-1333 -1527 0
-1333 -1345 0
1333 1527 1345 0
-1336 -1492 0
-1336 -1338 0
1336 1492 1338 0
-1339 -1409 0
-1339 -1341 0
1339 1409 1341 0
-1342 -1343 0
-1342 -1409 0
-1342 -1345 0
1342 1343 1409 1345 0
-1346 -1432 0
-1346 -1458 0
1346 1432 1458 0
-1349 -1517 0
-1349 -1351 0
1349 1517 1351 0
-1352 -1353 0
-1352 -1415 0
1352 1353 1415 0
-1355 -1360 0
-1355 -1390 0
1355 1360 1390 0
-1358 -1492 0
-1358 -1360 0
-1358 -1361 0
1358 1492 1360 1361 0
-1633 -1363 0
-1633 -1364 0
-1633 -1466 0
1633 1363 1364 1466 0
-1366 -1367 0
-1366 -1368 0
1366 1367 1368 0
-1448 -1370 0
-1448 -1371 0
1448 1370 1371 0
-1372 -1494 0
-1372 -1374 0
1372 1494 1374 0
-1559 -1379 0
-1559 -1454 0
1559 1379 1454 0
-1378 -1379 0
-1378 -1380 0
1378 1379 1380 0
-1381 -1444 0
-1381 -1522 0
-1381 -1527 0
1381 1444 1522 1527 0
-1655 -1407 0
-1655 -1387 0
1655 1407 1387 0
-1388 -1407 0
-1388 -1390 0
1388 1407 1390 0
-1391 -1544 0
-1391 -1393 0
1391 1544 1393 0
-1449 -1518 0
-1449 -1494 0
1449 1518 1494 0
-1397 -1492 0
-1397 -1399 0
1397 1492 1399 0
-1400 -1454 0
-1400 -1402 0
1400 1454 1402 0
-1403 -1492 0
-1403 -1408 0
1403 1492 1408 0
-1548 -1407 0
-1548 -1408 0
-1548 -1409 0
1548 1407 1408 1409 0
-1410 -1411 0
-1410 -1412 0
1410 1411 1412 0
-1413 -1414 0
-1413 -1415 0
1413 1414 1415 0
-1581 -1424 0
-1581 -1418 0
1581 1424 1418 0
-1536 -1424 0
-1536 -1421 0
1536 1424 1421 0
-1422 -1444 0
-1422 -1424 0
1422 1444 1424 0
-1425 -1426 0
-1425 -1444 0
1425 1426 1444 0
-1605 -1429 0
-1605 -1430 0
1605 1429 1430 0
-1431 -1432 0
-1431 -1433 0
1431 1432 1433 0
-1434 -1444 0
-1434 -1436 0
1434 1444 1436 0
-1437 -1438 0
-1437 -1444 0
1437 1438 1444 0
-1440 -1445 0
-1440 -1442 0
1440 1445 1442 0
-1443 -1444 0
-1443 -1445 0
-1443 -1446 0
1443 1444 1445 1446 0
-1447 -1448 0
-1447 -1449 0
1447 1448 1449 0
-1631 -1454 0
-1631 -1452 0
1631 1454 1452 0
-1453 -1454 0
-1453 -1455 0
1453 1454 1455 0
-1456 -1457 0
-1456 -1458 0
1456 1457 1458 0
-1459 -1460 0
-1459 -1461 0
1459 1460 1461 0
-1462 -1474 0
-1462 -1464 0
1462 1474 1464 0
-1465 -1466 0
-1465 -1467 0
1465 1466 1467 0
-1468 -1472 0
-1468 -1501 0
1468 1472 1501 0
-1471 -1472 0
-1471 -1495 0
-1471 -1474 0
-1471 -1475 0
1471 1472 1495 1474 1475 0
-1579 -1480 0
-1579 -1478 0
1579 1480 1478 0
-1479 -1480 0
-1479 -1481 0
1479 1480 1481 0
-1574 -1483 0
-1574 -1484 0
1574 1483 1484 0
-1585 -1544 0
-1585 -1487 0
-1585 -1488 0
-1585 -1489 0
1585 1544 1487 1488 1489 0
-1490 -1496 0
-1490 -1492 0
1490 1496 1492 0
-1554 -1494 0
-1554 -1495 0
-1554 -1496 0
1554 1494 1495 1496 0
-1497 -1548 0
-1497 -1499 0
1497 1548 1499 0
-1500 -1501 0
-1500 -1502 0
1500 1501 1502 0
-1503 -1504 0
-1503 -1505 0
-1503 -1506 0
1503 1504 1505 1506 0
-1507 -1508 0
-1507 -1509 0
-1507 -1639 0
-1507 -1511 0
1507 1508 1509 1639 1511 0
-1512 -1513 0
-1512 -1514 0
1512 1513 1514 0
-1515 -1520 0
-1515 -1517 0
-1515 -1518 0
1515 1520 1517 1518 0
-1599 -1520 0
-1599 -1545 0
-1599 -1522 0
1599 1520 1545 1522 0
-1523 -1524 0
-1523 -1525 0
1523 1524 1525 0
-1558 -1527 0
-1558 -1528 0
1558 1527 1528 0
-1529 -1530 0
-1529 -1531 0
1529 1530 1531 0
-1532 -1533 0
-1532 -1639 0
-1532 -1631 0
-1532 -1536 0
1532 1533 1639 1631 1536 0
-1537 -1538 0
-1537 -1539 0
1537 1538 1539 0
-1540 -1541 0
-1540 -1595 0
1540 1541 1595 0
-1568 -1544 0
-1568 -1545 0
-1568 -1546 0
1568 1544 1545 1546 0
-1547 -1548 0
-1547 -1549 0
-1547 -1550 0
1547 1548 1549 1550 0
-1551 -1552 0
-1551 -1595 0
-1551 -1554 0
-1551 -1555 0
1551 1552 1595 1554 1555 0
-1556 -1557 0
-1556 -1558 0
-1556 -1559 0
-1556 -1639 0
1556 1557 1558 1559 1639 0
-1561 -1562 0
-1561 -1563 0
1561 1562 1563 0
-1564 -1568 0
-1564 -1566 0
1564 1568 1566 0
-1567 -1568 0
-1567 -1595 0
-1567 -1570 0
1567 1568 1595 1570 0
-1571 -1579 0
-1571 -1578 0
-1571 -1574 0
1571 1579 1578 1574 0
-1575 -1576 0
-1575 -1577 0
-1575 -1578 0
-1575 -1579 0
1575 1576 1577 1578 1579 0
-1580 -1581 0
-1580 -1582 0
-1580 -1583 0
1580 1581 1582 1583 0
-1584 -1585 0
-1584 -1586 0
-1584 -1587 0
1584 1585 1586 1587 0
-1588 -1589 0
-1588 -1590 0
-1588 -1591 0
1588 1589 1590 1591 0
-1592 -1593 0
-1592 -1594 0
-1592 -1595 0
-1592 -1596 0
1592 1593 1594 1595 1596 0
-1597 -1598 0
-1597 -1599 0
-1597 -1600 0
-1597 -1601 0
1597 1598 1599 1600 1601 0
-1602 -1603 0
-1602 -1604 0
-1602 -1605 0
-1602 -1639 0
1602 1603 1604 1605 1639 0
-1607 -1608 0
-1607 -1609 0
1607 1608 1609 0
-1611 2470 0
1611 -2470 0
-1613 2659 0
1613 -2659 0
-1615 2595 0
1615 -2595 0
-1617 2739 0
1617 -2739 0
-1619 2630 0
1619 -2630 0
-1621 2707 0
1621 -2707 0
-1623 1622 0
1623 -1622 0
-1625 1624 0
1625 -1624 0
-1627 1626 0
1627 -1626 0
-1629 1628 0
1629 -1628 0
-1631 1630 0
1631 -1630 0
-1633 1632 0
1633 -1632 0
-1635 1634 0
1635 -1634 0
-1637 1636 0
1637 -1636 0
-1639 1638 0
1639 -1638 0
-1641 1640 0
1641 -1640 0
-1643 1642 0
1643 -1642 0
-1645 1644 0
1645 -1644 0
-1647 1646 0
1647 -1646 0
-1649 1648 0
1649 -1648 0
-1651 1650 0
1651 -1650 0
-1653 1652 0
1653 -1652 0
-1655 1654 0
1655 -1654 0
-1657 1656 0
1657 -1656 0
-1659 1658 0
1659 -1658 0
-1661 1660 0
1661 -1660 0
-1663 1662 0
1663 -1662 0
-1665 1664 0
1665 -1664 0
-1667 1666 0
1667 -1666 0
2605 2716 0
-2605 -2716 0
2676 1671 0
-2676 -1671 0
1868 1871 0
-1868 -1871 0
2139 1871 0
-2139 -1871 0
2586 2644 0
-2586 -2644 0
1870 2566 0
-1870 -2566 0
2759 2566 0
-2759 -2566 0
2256 2659 0
-2256 -2659 0
2556 2595 0
-2556 -2595 0
2509 2739 0
-2509 -2739 0
2263 2426 0
-2263 -2426 0
2512 2497 0
-2512 -2497 0
2560 2630 0
-2560 -2630 0
2275 2214 0
-2275 -2214 0
2520 2589 0
-2520 -2589 0
2546 2707 0
-2546 -2707 0
2710 2249 0
-2710 -2249 0
2690 2175 0
-2690 -2175 0
2390 2397 0
-2390 -2397 0
2558 2494 0
-2558 -2494 0
2681 2468 0
-2681 -2468 0
1892 2474 0
-1892 -2474 0
2704 2260 0
-2704 -2260 0
1899 2492 0
-1899 -2492 0
2696 2495 0
-2696 -2495 0
2067 2138 0
-2067 -2138 0
1945 2501 0
-1945 -2501 0
2419 2742 0
-2419 -2742 0
2277 2673 0
-2277 -2673 0
2049 2168 0
-2049 -2168 0
2737 2513 0
-2737 -2513 0
2040 2177 0
-2040 -2177 0
2622 2575 0
-2622 -2575 0
1913 2519 0
-1913 -2519 0
2048 2186 0
-2048 -2186 0
2051 2195 0
-2051 -2195 0
2733 2525 0
-2733 -2525 0
2055 2201 0
-2055 -2201 0
2128 2531 0
-2128 -2531 0
1980 2544 0
-1980 -2544 0
2116 2227 0
-2116 -2227 0
1923 2551 0
-1923 -2551 0
1926 2557 0
-1926 -2557 0
1942 2567 0
-1942 -2567 0
2068 2848 0
-2068 -2848 0
2002 2244 0
-2002 -2244 0
2880 2251 0
-2880 -2251 0
1951 2437 0
-1951 -2437 0
2382 2774 0
-2382 -2774 0
2373 2279 0
-2373 -2279 0
2811 2403 0
-2811 -2403 0
1966 2606 0
-1966 -2606 0
1978 2612 0
-1978 -2612 0
2109 2293 0
-2109 -2293 0
2076 2615 0
-2076 -2615 0
1968 2302 0
-1968 -2302 0
2714 2383 0
-2714 -2383 0
1977 2649 0
-1977 -2649 0
2098 2314 0
-2098 -2314 0
2101 2317 0
-2101 -2317 0
1981 2652 0
-1981 -2652 0
2436 2655 0
-2436 -2655 0
2386 2658 0
-2386 -2658 0
1983 2662 0
-1983 -2662 0
2721 2320 0
-2721 -2320 0
1989 2378 0
-1989 -2378 0
2854 2675 0
-2854 -2675 0
2726 2412 0
-2726 -2412 0
2439 2668 0
-2439 -2668 0
2810 2442 0
-2810 -2442 0
2008 2698 0
-2008 -2698 0
2416 2368 0
-2416 -2368 0
2735 2671 0
-2735 -2671 0
2410 2374 0
-2410 -2374 0
2106 2677 0
-2106 -2677 0
2409 2680 0
-2409 -2680 0
2761 2683 0
-2761 -2683 0
2816 2712 0
-2816 -2712 0
2118 2715 0
-2118 -2715 0
2838 2722 0
-2838 -2722 0
2793 2406 0
-2793 -2406 0
2124 2391 0
-2124 -2391 0
2797 2394 0
-2797 -2394 0
2448 2730 0
-2448 -2730 0
2015 2744 0
-2015 -2744 0
2840 2747 0
-2840 -2747 0
2801 2755 0
-2801 -2755 0
2806 2762 0
-2806 -2762 0
2844 2766 0
-2844 -2766 0
2858 2771 0
-2858 -2771 0
2127 2776 0
-2127 -2776 0
2868 2786 0
-2868 -2786 0
2874 2790 0
-2874 -2790 0
2815 2795 0
-2815 -2795 0
2824 2799 0
-2824 -2799 0
2454 2427 0
-2454 -2427 0
2856 2807 0
-2856 -2807 0
2463 2443 0
-2463 -2443 0
2842 2822 0
-2842 -2822 0
-2535 2566 0
-2535 1868 0
2535 -2566 -1868 0
-2536 1870 0
-2536 1871 0
2536 -1870 -1871 0
-2553 2630 0
-2553 2509 0
2553 -2630 -2509 0
-2661 2716 0
-2661 2509 0
2661 -2716 -2509 0
-2568 2366 0
-2568 2566 0
-2568 2509 0
2568 -2366 -2566 -2509 0
-2745 2605 0
-2745 2582 0
2745 -2605 -2582 0
-2657 2509 0
-2657 2627 0
2657 -2509 -2627 0
-2636 2509 0
-2636 2150 0
2636 -2509 -2150 0
-2608 1892 0
-2608 2183 0
2608 -1892 -2183 0
-2614 2171 0
-2614 2204 0
2614 -2171 -2204 0
-2617 2630 0
-2617 1899 0
2617 -2630 -1899 0
-2720 2707 0
-2720 2537 0
2720 -2707 -2537 0
-2633 2509 0
-2633 2224 0
2633 -2509 -2224 0
-2693 2234 0
-2693 2216 0
2693 -2234 -2216 0
-2772 2537 0
-2772 2737 0
2772 -2537 -2737 0
-2651 1913 0
-2651 2241 0
2651 -1913 -2241 0
-2809 2848 0
-2809 2716 0
2809 -2848 -2716 0
-2699 2295 0
-2699 2244 0
2699 -2295 -2244 0
-2667 2624 0
-2667 1923 0
2667 -2624 -1923 0
-2670 2579 0
-2670 1926 0
2670 -2579 -1926 0
-2723 2470 0
-2723 2593 0
2723 -2470 -2593 0
-2823 2704 0
-2823 2468 0
-2823 2593 0
2823 -2704 -2468 -2593 0
-2724 2596 0
-2724 2504 0
2724 -2596 -2504 0
-2818 2497 0
-2818 2596 0
2818 -2497 -2596 0
-2728 2489 0
-2728 1942 0
2728 -2489 -1942 0
-2753 2618 0
-2753 1945 0
2753 -2618 -1945 0
-2719 2618 0
-2719 2603 0
2719 -2618 -2603 0
-2765 2627 0
-2765 1951 0
2765 -2627 -1951 0
-2805 2513 0
-2805 2625 0
2805 -2513 -2625 0
-2813 2625 0
-2813 2525 0
2813 -2625 -2525 0
-2798 2637 0
-2798 2603 0
2798 -2637 -2603 0
-2682 2299 0
-2682 2231 0
2682 -2299 -2231 0
-2717 2311 0
-2717 1966 0
2717 -2311 -1966 0
-2729 1968 0
-2729 2690 0
2729 -1968 -2690 0
-2767 2671 0
-2767 2664 0
2767 -2671 -2664 0
-2802 2663 0
-2802 2671 0
2802 -2663 -2671 0
-2740 1977 0
-2740 1978 0
2740 -1977 -1978 0
-2743 1980 0
-2743 1981 0
2743 -1980 -1981 0
-2746 1983 0
-2746 2570 0
2746 -1983 -2570 0
-2748 2759 0
-2748 1989 0
2748 -2759 -1989 0
-2792 1989 0
-2792 2426 0
2792 -1989 -2426 0
-2754 2854 0
-2754 2566 0
2754 -2854 -2566 0
-2756 2677 0
-2756 2433 0
-2756 2397 0
2756 -2677 -2433 -2397 0
-2781 2683 0
-2781 2564 0
2781 -2683 -2564 0
-2785 2002 0
-2785 2683 0
2785 -2002 -2683 0
-2804 2198 0
-2804 2686 0
2804 -2198 -2686 0
-2791 2008 0
-2791 2564 0
2791 -2008 -2564 0
-2778 2106 0
-2778 2345 0
2778 -2106 -2345 0
-2808 2561 0
-2808 2015 0
2808 -2561 -2015 0
2315 -2397 0
2315 -2707 0
2315 -2249 0
-2315 2397 2707 2249 0
2228 -2707 0
2228 -2471 0
-2228 2707 2471 0
2372 -2390 0
2372 -2498 0
-2372 2390 2498 0
2395 -2245 0
2395 -2710 0
-2395 2245 2710 0
2294 -2709 0
2294 -2566 0
-2294 2709 2566 0
2297 -2582 0
2297 -2554 0
-2297 2582 2554 0
2300 -2507 0
2300 -2554 0
-2300 2507 2554 0
2303 -2707 0
2303 -2040 0
-2303 2707 2040 0
2306 -2659 0
2306 -2570 0
-2306 2659 2570 0
2309 -2595 0
2309 -2573 0
-2309 2595 2573 0
2312 -2048 0
2312 -2049 0
-2312 2048 2049 0
2316 -2051 0
2316 -2709 0
-2316 2051 2709 0
2321 -2470 0
2321 -2055 0
-2321 2470 2055 0
2324 -2504 0
2324 -2587 0
-2324 2504 2587 0
2422 -2546 0
2422 -2645 0
-2422 2546 2645 0
2369 -2605 0
2369 -2659 0
2369 -2648 0
-2369 2605 2659 2648 0
2459 -2067 0
2459 -2068 0
-2459 2067 2068 0
2375 -2653 0
2375 -2626 0
-2375 2653 2626 0
2400 -2426 0
2400 -2382 0
-2400 2426 2382 0
2381 -2076 0
2381 -2546 0
-2381 2076 2546 0
2385 -2675 0
2385 -2139 0
-2385 2675 2139 0
2445 -2675 0
2445 -2426 0
-2445 2675 2426 0
2428 -2323 0
2428 -2679 0
-2428 2323 2679 0
2405 -2695 0
2405 -2216 0
-2405 2695 2216 0
2399 -2109 0
2399 -2698 0
-2399 2109 2698 0
2402 -2244 0
2402 -2703 0
-2402 2244 2703 0
2452 -2279 0
2452 -2098 0
-2452 2279 2098 0
2444 -2629 0
2444 -2101 0
-2444 2629 2101 0
2408 -2735 0
2408 -2662 0
-2408 2735 2662 0
2453 -2106 0
2453 -2528 0
-2453 2106 2528 0
2456 -2109 0
2456 -2761 0
-2456 2109 2761 0
2415 -2742 0
2415 -2727 0
-2415 2742 2727 0
2418 -2738 0
2418 -2116 0
-2418 2738 2116 0
2421 -2118 0
2421 -2641 0
-2421 2118 2641 0
2425 -2773 0
2425 -2674 0
-2425 2773 2674 0
2432 -2124 0
2432 -2705 0
-2432 2124 2705 0
2462 -2127 0
2462 -2128 0
-2462 2127 2128 0
2366 2589 0
2366 2497 0
-2366 -2589 -2497 0
2260 2499 0
2260 2644 0
-2260 -2499 -2644 0
2576 2175 0
2576 2214 0
-2576 -2175 -2214 0
2138 2139 0
2138 2605 0
-2138 -2139 -2605 0
2760 2499 0
2760 2586 0
-2760 -2499 -2586 0
2669 2595 0
2669 2468 0
-2669 -2595 -2468 0
2627 2605 0
2627 2256 0
-2627 -2605 -2256 0
2150 2503 0
2150 2256 0
-2150 -2503 -2256 0
2647 2256 0
2647 2470 0
-2647 -2256 -2470 0
2578 2556 0
2578 2158 0
-2578 -2556 -2158 0
2742 2556 0
2742 2470 0
-2742 -2556 -2470 0
2624 2509 0
2624 2707 0
-2624 -2509 -2707 0
2673 2509 0
2673 2556 0
-2673 -2509 -2556 0
2168 2512 0
2168 2175 0
-2168 -2512 -2175 0
2171 2560 0
2171 2716 0
-2171 -2560 -2716 0
2732 2175 0
2732 2275 0
-2732 -2175 -2275 0
2177 2471 0
2177 2366 0
-2177 -2471 -2366 0
2575 2520 0
2575 2512 0
-2575 -2520 -2512 0
2183 2520 0
2183 2499 0
-2183 -2520 -2499 0
2186 2520 0
2186 2275 0
-2186 -2520 -2275 0
2689 2716 0
2689 2520 0
-2689 -2716 -2520 0
2579 2582 0
2579 2739 0
-2579 -2582 -2739 0
2195 2546 0
2195 2397 0
-2195 -2546 -2397 0
2198 2702 0
2198 2397 0
-2198 -2702 -2397 0
2201 2256 0
2201 2260 0
-2201 -2256 -2260 0
2204 2566 0
2204 2260 0
-2204 -2566 -2260 0
2585 2630 0
2585 2489 0
-2585 -2630 -2489 0
2245 2690 0
2245 2275 0
-2245 -2690 -2275 0
2709 2214 0
2709 2690 0
-2709 -2214 -2690 0
2216 2759 0
2216 2710 0
2216 2495 0
2216 2397 0
-2216 -2759 -2710 -2495 -2397 0
2295 2498 0
2295 2566 0
-2295 -2498 -2566 0
2224 2576 0
2224 2627 0
-2224 -2576 -2627 0
2227 2228 0
2227 2560 0
2227 2576 0
-2227 -2228 -2560 -2576 0
2231 2507 0
2231 2578 0
-2231 -2507 -2578 0
2234 2586 0
2234 2510 0
2234 2566 0
-2234 -2586 -2510 -2566 0
2594 2513 0
2594 2739 0
-2594 -2513 -2739 0
2241 2575 0
2241 2707 0
-2241 -2575 -2707 0
2244 2245 0
2244 2759 0
2244 2576 0
-2244 -2245 -2759 -2576 0
2433 2249 0
2433 2709 0
-2433 -2249 -2709 0
2251 2537 0
2251 2582 0
-2251 -2537 -2582 0
2623 2548 0
2623 2256 0
-2623 -2548 -2256 0
2437 2546 0
2437 2548 0
2437 2260 0
-2437 -2546 -2548 -2260 0
2626 2419 0
2626 2263 0
-2626 -2419 -2263 0
2629 2419 0
2629 2659 0
-2629 -2419 -2659 0
2639 2525 0
2639 2419 0
-2639 -2525 -2419 0
2641 2419 0
2641 2480 0
-2641 -2419 -2480 0
2645 2561 0
2645 2275 0
-2645 -2561 -2275 0
2648 2277 0
2648 2582 0
-2648 -2277 -2582 0
2279 2570 0
2279 2560 0
2279 2561 0
-2279 -2570 -2560 -2561 0
2403 2540 0
2403 2556 0
2403 2573 0
-2403 -2540 -2556 -2573 0
2653 2581 0
2653 2739 0
-2653 -2581 -2739 0
2660 2419 0
2660 2581 0
-2660 -2419 -2581 0
2293 2294 0
2293 2295 0
-2293 -2294 -2295 0
2423 2297 0
2423 2468 0
-2423 -2297 -2468 0
2299 2300 0
2299 2630 0
-2299 -2300 -2630 0
2302 2303 0
2302 2560 0
-2302 -2303 -2560 0
2672 2306 0
2672 2470 0
-2672 -2306 -2470 0
2383 2309 0
2383 2540 0
-2383 -2309 -2540 0
2311 2312 0
2311 2759 0
-2311 -2312 -2759 0
2314 2315 0
2314 2316 0
-2314 -2315 -2316 0
2317 2653 0
2317 2585 0
-2317 -2653 -2585 0
2320 2321 0
2320 2593 0
-2320 -2321 -2593 0
2323 2324 0
2323 2560 0
-2323 -2324 -2560 0
2378 2509 0
2378 2605 0
2378 2618 0
-2378 -2509 -2605 -2618 0
2675 2480 0
2675 2628 0
-2675 -2480 -2628 0
2464 2707 0
2464 2628 0
2464 2690 0
-2464 -2707 -2628 -2690 0
2412 2504 0
2412 2509 0
2412 2637 0
-2412 -2504 -2509 -2637 0
2679 2640 0
2679 2512 0
2679 2498 0
-2679 -2640 -2512 -2498 0
2345 2390 0
2345 2640 0
2345 2570 0
-2345 -2390 -2640 -2570 0
2442 2622 0
2442 2820 0
2442 2583 0
-2442 -2622 -2820 -2583 0
2687 2646 0
2687 2512 0
-2687 -2646 -2512 0
2695 2646 0
2695 2520 0
2695 2499 0
-2695 -2646 -2520 -2499 0
2698 2520 0
2698 2646 0
2698 2510 0
-2698 -2520 -2646 -2510 0
2703 2605 0
2703 2366 0
2703 2646 0
-2703 -2605 -2366 -2646 0
2368 2369 0
2368 2423 0
-2368 -2369 -2423 0
2711 2372 0
2711 2373 0
-2711 -2372 -2373 0
2374 2375 0
2374 2403 0
-2374 -2375 -2403 0
2860 2378 0
2860 2675 0
-2860 -2378 -2675 0
2830 2381 0
2830 2382 0
2830 2383 0
-2830 -2381 -2382 -2383 0
2852 2385 0
2852 2386 0
-2852 -2385 -2386 0
2406 2686 0
2406 2777 0
2406 2390 0
-2406 -2686 -2777 -2390 0
2391 2694 0
2391 2566 0
-2391 -2694 -2566 0
2394 2395 0
2394 2694 0
2394 2397 0
-2394 -2395 -2694 -2397 0
2764 2399 0
2764 2400 0
-2764 -2399 -2400 0
2770 2402 0
2770 2403 0
-2770 -2402 -2403 0
2882 2405 0
2882 2406 0
-2882 -2405 -2406 0
2832 2408 0
2832 2409 0
2832 2410 0
-2832 -2408 -2409 -2410 0
2850 2412 0
2850 2752 0
-2850 -2412 -2752 0
2862 2415 0
2862 2416 0
-2862 -2415 -2416 0
2435 2418 0
2435 2419 0
-2435 -2418 -2419 0
2864 2421 0
2864 2422 0
2864 2423 0
-2864 -2421 -2422 -2423 0
2440 2425 0
2440 2426 0
-2440 -2425 -2426 0
2427 2428 0
2427 2439 0
2427 2782 0
-2427 -2428 -2439 -2782 0
2446 2432 0
2446 2433 0
-2446 -2432 -2433 0
2819 2435 0
2819 2436 0
2819 2437 0
-2819 -2435 -2436 -2437 0
2872 2439 0
2872 2440 0
2872 2779 0
2872 2442 0
-2872 -2439 -2440 -2779 -2442 0
2443 2444 0
2443 2445 0
2443 2446 0
-2443 -2444 -2445 -2446 0
2834 2448 0
2834 2718 0
2834 2803 0
-2834 -2448 -2718 -2803 0
2866 2452 0
2866 2453 0
2866 2454 0
-2866 -2452 -2453 -2454 0
2836 2456 0
2836 2812 0
-2836 -2456 -2812 0
2826 2459 0
2826 2817 0
-2826 -2459 -2817 0
2828 2462 0
2828 2463 0
2828 2464 0
-2828 -2462 -2463 -2464 0
-2503 -2716 0
-2503 -2566 0
2503 2716 2566 0
-2468 -2659 0
-2468 -2470 0
2468 2659 2470 0
-2471 -2566 0
-2471 -2739 0
2471 2566 2739 0
-2474 -2497 0
-2474 -2644 0
2474 2497 2644 0
-2582 -2707 0
-2582 -2630 0
2582 2707 2630 0
-2480 -2739 0
-2480 -2707 0
2480 2739 2707 0
-2878 -2589 0
-2878 -2602 0
2878 2589 2602 0
-2702 -2499 0
-2702 -2644 0
2702 2499 2644 0
-2489 -2707 0
-2489 -2499 0
2489 2707 2499 0
-2492 -2739 0
-2492 -2494 0
2492 2739 2494 0
-2495 -2605 0
-2495 -2497 0
2495 2605 2497 0
-2498 -2499 0
-2498 -2586 0
2498 2499 2586 0
-2501 -2739 0
-2501 -2503 0
2501 2739 2503 0
-2504 -2716 0
-2504 -2759 0
2504 2716 2759 0
-2507 -2707 0
-2507 -2509 0
2507 2707 2509 0
-2510 -2716 0
-2510 -2512 0
2510 2716 2512 0
-2513 -2707 0
-2513 -2560 0
2513 2707 2560 0
-2876 -2520 0
-2876 -2602 0
2876 2520 2602 0
-2519 -2520 0
-2519 -2560 0
2519 2520 2560 0
-2583 -2560 0
-2583 -2546 0
2583 2560 2546 0
-2525 -2546 0
-2525 -2630 0
2525 2546 2630 0
-2528 -2630 0
-2528 -2710 0
2528 2630 2710 0
-2531 -2690 0
-2531 -2630 0
2531 2690 2630 0
-2777 -2535 0
-2777 -2536 0
2777 2535 2536 0
-2537 -2669 0
-2537 -2739 0
2537 2669 2739 0
-2540 -2630 0
-2540 -2681 0
-2540 -2739 0
2540 2630 2681 2739 0
-2544 -2627 0
-2544 -2546 0
-2544 -2630 0
2544 2627 2546 2630 0
-2548 -2742 0
-2548 -2560 0
2548 2742 2560 0
-2551 -2707 0
-2551 -2553 0
2551 2707 2553 0
-2554 -2624 0
-2554 -2556 0
2554 2624 2556 0
-2557 -2558 0
-2557 -2624 0
-2557 -2560 0
2557 2558 2624 2560 0
-2561 -2647 0
-2561 -2673 0
2561 2647 2673 0
-2564 -2732 0
-2564 -2566 0
2564 2732 2566 0
-2567 -2568 0
-2567 -2630 0
2567 2568 2630 0
-2570 -2575 0
-2570 -2605 0
2570 2575 2605 0
-2573 -2707 0
-2573 -2575 0
-2573 -2576 0
2573 2707 2575 2576 0
-2848 -2578 0
-2848 -2579 0
-2848 -2681 0
2848 2578 2579 2681 0
-2581 -2582 0
-2581 -2583 0
2581 2582 2583 0
-2663 -2585 0
-2663 -2586 0
2663 2585 2586 0
-2587 -2709 0
-2587 -2589 0
2587 2709 2589 0
-2774 -2594 0
-2774 -2669 0
2774 2594 2669 0
-2593 -2594 0
-2593 -2595 0
2593 2594 2595 0
-2596 -2659 0
-2596 -2737 0
-2596 -2742 0
2596 2659 2737 2742 0
-2870 -2622 0
-2870 -2602 0
2870 2622 2602 0
-2603 -2622 0
-2603 -2605 0
2603 2622 2605 0
-2606 -2759 0
-2606 -2608 0
2606 2759 2608 0
-2664 -2733 0
-2664 -2709 0
2664 2733 2709 0
-2612 -2707 0
-2612 -2614 0
2612 2707 2614 0
-2615 -2669 0
-2615 -2617 0
2615 2669 2617 0
-2618 -2707 0
-2618 -2623 0
2618 2707 2623 0
-2763 -2622 0
-2763 -2623 0
-2763 -2624 0
2763 2622 2623 2624 0
-2625 -2626 0
-2625 -2627 0
2625 2626 2627 0
-2628 -2629 0
-2628 -2630 0
2628 2629 2630 0
-2796 -2639 0
-2796 -2633 0
2796 2639 2633 0
-2751 -2639 0
-2751 -2636 0
2751 2639 2636 0
-2637 -2659 0
-2637 -2639 0
2637 2659 2639 0
-2640 -2641 0
-2640 -2659 0
2640 2641 2659 0
-2820 -2644 0
-2820 -2645 0
2820 2644 2645 0
-2646 -2647 0
-2646 -2648 0
2646 2647 2648 0
-2649 -2659 0
-2649 -2651 0
2649 2659 2651 0
-2652 -2653 0
-2652 -2659 0
2652 2653 2659 0
-2655 -2660 0
-2655 -2657 0
2655 2660 2657 0
-2658 -2659 0
-2658 -2660 0
-2658 -2661 0
2658 2659 2660 2661 0
-2662 -2663 0
-2662 -2664 0
2662 2663 2664 0
-2846 -2669 0
-2846 -2667 0
2846 2669 2667 0
-2668 -2669 0
-2668 -2670 0
2668 2669 2670 0
-2671 -2672 0
-2671 -2673 0
2671 2672 2673 0
-2674 -2675 0
-2674 -2676 0
2674 2675 2676 0
-2677 -2689 0
-2677 -2679 0
2677 2689 2679 0
-2680 -2681 0
-2680 -2682 0
2680 2681 2682 0
-2683 -2687 0
-2683 -2716 0
2683 2687 2716 0
-2686 -2687 0
-2686 -2710 0
-2686 -2689 0
-2686 -2690 0
2686 2687 2710 2689 2690 0
-2794 -2695 0
-2794 -2693 0
2794 2695 2693 0
-2694 -2695 0
-2694 -2696 0
2694 2695 2696 0
-2789 -2698 0
-2789 -2699 0
2789 2698 2699 0
-2800 -2759 0
-2800 -2702 0
-2800 -2703 0
-2800 -2704 0
2800 2759 2702 2703 2704 0
-2705 -2711 0
-2705 -2707 0
2705 2711 2707 0
-2769 -2709 0
-2769 -2710 0
-2769 -2711 0
2769 2709 2710 2711 0
-2712 -2763 0
-2712 -2714 0
2712 2763 2714 0
-2715 -2716 0
-2715 -2717 0
2715 2716 2717 0
-2718 -2719 0
-2718 -2720 0
-2718 -2721 0
2718 2719 2720 2721 0
-2722 -2723 0
-2722 -2724 0
-2722 -2854 0
-2722 -2726 0
2722 2723 2724 2854 2726 0
-2727 -2728 0
-2727 -2729 0
2727 2728 2729 0
-2730 -2735 0
-2730 -2732 0
-2730 -2733 0
2730 2735 2732 2733 0
-2814 -2735 0
-2814 -2760 0
-2814 -2737 0
2814 2735 2760 2737 0
-2738 -2739 0
-2738 -2740 0
2738 2739 2740 0
-2773 -2742 0
-2773 -2743 0
2773 2742 2743 0
-2744 -2745 0
-2744 -2746 0
2744 2745 2746 0
-2747 -2748 0
-2747 -2854 0
-2747 -2846 0
-2747 -2751 0
2747 2748 2854 2846 2751 0
-2752 -2753 0
-2752 -2754 0
2752 2753 2754 0
-2755 -2756 0
-2755 -2810 0
2755 2756 2810 0
-2783 -2759 0
-2783 -2760 0
-2783 -2761 0
2783 2759 2760 2761 0
-2762 -2763 0
-2762 -2764 0
-2762 -2765 0
2762 2763 2764 2765 0
-2766 -2767 0
-2766 -2810 0
-2766 -2769 0
-2766 -2770 0
2766 2767 2810 2769 2770 0
-2771 -2772 0
-2771 -2773 0
-2771 -2774 0
-2771 -2854 0
2771 2772 2773 2774 2854 0
-2776 -2777 0
-2776 -2778 0
2776 2777 2778 0
-2779 -2783 0
-2779 -2781 0
2779 2783 2781 0
-2782 -2783 0
-2782 -2810 0
-2782 -2785 0
2782 2783 2810 2785 0
-2786 -2794 0
-2786 -2793 0
-2786 -2789 0
2786 2794 2793 2789 0
-2790 -2791 0
-2790 -2792 0
-2790 -2793 0
-2790 -2794 0
2790 2791 2792 2793 2794 0
-2795 -2796 0
-2795 -2797 0
-2795 -2798 0
2795 2796 2797 2798 0
-2799 -2800 0
-2799 -2801 0
-2799 -2802 0
2799 2800 2801 2802 0
-2803 -2804 0
-2803 -2805 0
-2803 -2806 0
2803 2804 2805 2806 0
-2807 -2808 0
-2807 -2809 0
-2807 -2810 0
-2807 -2811 0
2807 2808 2809 2810 2811 0
-2812 -2813 0
-2812 -2814 0
-2812 -2815 0
-2812 -2816 0
2812 2813 2814 2815 2816 0
-2817 -2818 0
-2817 -2819 0
-2817 -2820 0
-2817 -2854 0
2817 2818 2819 2820 2854 0
-2822 -2823 0
-2822 -2824 0
2822 2823 2824 0
-2826 3685 0
2826 -3685 0
-2828 3874 0
2828 -3874 0
-2830 3810 0
2830 -3810 0
-2832 3954 0
2832 -3954 0
-2834 3845 0
2834 -3845 0
-2836 3922 0
2836 -3922 0
-2838 2837 0
2838 -2837 0
-2840 2839 0
2840 -2839 0
-2842 2841 0
2842 -2841 0
-2844 2843 0
2844 -2843 0
-2846 2845 0
2846 -2845 0
-2848 2847 0
2848 -2847 0
-2850 2849 0
2850 -2849 0
-2852 2851 0
2852 -2851 0
-2854 2853 0
2854 -2853 0
-2856 2855 0
2856 -2855 0
-2858 2857 0
2858 -2857 0
-2860 2859 0
2860 -2859 0
-2862 2861 0
2862 -2861 0
-2864 2863 0
2864 -2863 0
-2866 2865 0
2866 -2865 0
-2868 2867 0
2868 -2867 0
-2870 2869 0
2870 -2869 0
-2872 2871 0
2872 -2871 0
-2874 2873 0
2874 -2873 0
-2876 2875 0
2876 -2875 0
-2878 2877 0
2878 -2877 0
-2880 2879 0
2880 -2879 0
-2882 2881 0
2882 -2881 0
3820 3931 0
-3820 -3931 0
3891 2886 0
-3891 -2886 0
3083 3086 0
-3083 -3086 0
3354 3086 0
-3354 -3086 0
3801 3859 0
-3801 -3859 0
3085 3781 0
-3085 -3781 0
3974 3781 0
-3974 -3781 0
3471 3874 0
-3471 -3874 0
3771 3810 0
-3771 -3810 0
3724 3954 0
-3724 -3954 0
3478 3641 0
-3478 -3641 0
3727 3712 0
-3727 -3712 0
3775 3845 0
-3775 -3845 0
3490 3429 0
-3490 -3429 0
3735 3804 0
-3735 -3804 0
3761 3922 0
-3761 -3922 0
3925 3464 0
-3925 -3464 0
3905 3390 0
-3905 -3390 0
3605 3612 0
-3605 -3612 0
3773 3709 0
-3773 -3709 0
3896 3683 0
-3896 -3683 0
3107 3689 0
-3107 -3689 0
3919 3475 0
-3919 -3475 0
3114 3707 0
-3114 -3707 0
3911 3710 0
-3911 -3710 0
3282 3353 0
-3282 -3353 0
3160 3716 0
-3160 -3716 0
3634 3957 0
-3634 -3957 0
3492 3888 0
-3492 -3888 0
3264 3383 0
-3264 -3383 0
3952 3728 0
-3952 -3728 0
3255 3392 0
-3255 -3392 0
3837 3790 0
-3837 -3790 0
3128 3734 0
-3128 -3734 0
3263 3401 0
-3263 -3401 0
3266 3410 0
-3266 -3410 0
3948 3740 0
-3948 -3740 0
3270 3416 0
-3270 -3416 0
3343 3746 0
-3343 -3746 0
3195 3759 0
-3195 -3759 0
3331 3442 0
-3331 -3442 0
3138 3766 0
-3138 -3766 0
3141 3772 0
-3141 -3772 0
3157 3782 0
-3157 -3782 0
3283 4063 0
-3283 -4063 0
3217 3459 0
-3217 -3459 0
4095 3466 0
-4095 -3466 0
3166 3652 0
-3166 -3652 0
3597 3989 0
-3597 -3989 0
3588 3494 0
-3588 -3494 0
4026 3618 0
-4026 -3618 0
3181 3821 0
-3181 -3821 0
3193 3827 0
-3193 -3827 0
3324 3508 0
-3324 -3508 0
3291 3830 0
-3291 -3830 0
3183 3517 0
-3183 -3517 0
3929 3598 0
-3929 -3598 0
3192 3864 0
-3192 -3864 0
3313 3529 0
-3313 -3529 0
3316 3532 0
-3316 -3532 0
3196 3867 0
-3196 -3867 0
3651 3870 0
-3651 -3870 0
3601 3873 0
-3601 -3873 0
3198 3877 0
-3198 -3877 0
3936 3535 0
-3936 -3535 0
3204 3593 0
-3204 -3593 0
4069 3890 0
-4069 -3890 0
3941 3627 0
-3941 -3627 0
3654 3883 0
-3654 -3883 0
4025 3657 0
-4025 -3657 0
3223 3913 0
-3223 -3913 0
3631 3583 0
-3631 -3583 0
3950 3886 0
-3950 -3886 0
3625 3589 0
-3625 -3589 0
3321 3892 0
-3321 -3892 0
3624 3895 0
-3624 -3895 0
3976 3898 0
-3976 -3898 0
4031 3927 0
-4031 -3927 0
3333 3930 0
-3333 -3930 0
4053 3937 0
-4053 -3937 0
4008 3621 0
-4008 -3621 0
3339 3606 0
-3339 -3606 0
4012 3609 0
-4012 -3609 0
3663 3945 0
-3663 -3945 0
3230 3959 0
-3230 -3959 0
4055 3962 0
-4055 -3962 0
4016 3970 0
-4016 -3970 0
4021 3977 0
-4021 -3977 0
4059 3981 0
-4059 -3981 0
4073 3986 0
-4073 -3986 0
3342 3991 0
-3342 -3991 0
4083 4001 0
-4083 -4001 0
4089 4005 0
-4089 -4005 0
4030 4010 0
-4030 -4010 0
4039 4014 0
-4039 -4014 0
3669 3642 0
-3669 -3642 0
4071 4022 0
-4071 -4022 0
3678 3658 0
-3678 -3658 0
4057 4037 0
-4057 -4037 0
-3750 3781 0
-3750 3083 0
3750 -3781 -3083 0
-3751 3085 0
-3751 3086 0
3751 -3085 -3086 0
-3768 3845 0
-3768 3724 0
3768 -3845 -3724 0
-3876 3931 0
-3876 3724 0
3876 -3931 -3724 0
-3783 3581 0
-3783 3781 0
-3783 3724 0
3783 -3581 -3781 -3724 0
-3960 3820 0
-3960 3797 0
3960 -3820 -3797 0
-3872 3724 0
-3872 3842 0
3872 -3724 -3842 0
-3851 3724 0
-3851 3365 0
3851 -3724 -3365 0
-3823 3107 0
-3823 3398 0
3823 -3107 -3398 0
-3829 3386 0
-3829 3419 0
3829 -3386 -3419 0
-3832 3845 0
-3832 3114 0
3832 -3845 -3114 0
-3935 3922 0
-3935 3752 0
3935 -3922 -3752 0
-3848 3724 0
-3848 3439 0
3848 -3724 -3439 0
-3908 3449 0
-3908 3431 0
3908 -3449 -3431 0
-3987 3752 0
-3987 3952 0
3987 -3752 -3952 0
-3866 3128 0
-3866 3456 0
3866 -3128 -3456 0
-4024 4063 0
-4024 3931 0
4024 -4063 -3931 0
-3914 3510 0
-3914 3459 0
3914 -3510 -3459 0
-3882 3839 0
-3882 3138 0
3882 -3839 -3138 0
-3885 3794 0
-3885 3141 0
3885 -3794 -3141 0
-3938 3685 0
-3938 3808 0
3938 -3685 -3808 0
-4038 3919 0
-4038 3683 0
-4038 3808 0
4038 -3919 -3683 -3808 0
-3939 3811 0
-3939 3719 0
3939 -3811 -3719 0
-4033 3712 0
-4033 3811 0
4033 -3712 -3811 0
-3943 3704 0
-3943 3157 0
3943 -3704 -3157 0
-3968 3833 0
-3968 3160 0
3968 -3833 -3160 0
-3934 3833 0
-3934 3818 0
3934 -3833 -3818 0
-3980 3842 0
-3980 3166 0
3980 -3842 -3166 0
-4020 3728 0
-4020 3840 0
4020 -3728 -3840 0
-4028 3840 0
-4028 3740 0
4028 -3840 -3740 0
-4013 3852 0
-4013 3818 0
4013 -3852 -3818 0
-3897 3514 0
-3897 3446 0
3897 -3514 -3446 0
-3932 3526 0
-3932 3181 0
3932 -3526 -3181 0
-3944 3183 0
-3944 3905 0
3944 -3183 -3905 0
-3982 3886 0
-3982 3879 0
3982 -3886 -3879 0
-4017 3878 0
-4017 3886 0
4017 -3878 -3886 0
-3955 3192 0
-3955 3193 0
3955 -3192 -3193 0
-3958 3195 0
-3958 3196 0
3958 -3195 -3196 0
-3961 3198 0
-3961 3785 0
3961 -3198 -3785 0
-3963 3974 0
-3963 3204 0
3963 -3974 -3204 0
-4007 3204 0
-4007 3641 0
4007 -3204 -3641 0
-3969 4069 0
-3969 3781 0
3969 -4069 -3781 0
-3971 3892 0
-3971 3648 0
-3971 3612 0
3971 -3892 -3648 -3612 0
-3996 3898 0
-3996 3779 0
3996 -3898 -3779 0
-4000 3217 0
-4000 3898 0
4000 -3217 -3898 0
-4019 3413 0
-4019 3901 0
4019 -3413 -3901 0
-4006 3223 0
-4006 3779 0
4006 -3223 -3779 0
-3993 3321 0
-3993 3560 0
3993 -3321 -3560 0
-4023 3776 0
-4023 3230 0
4023 -3776 -3230 0
3530 -3612 0
3530 -3922 0
3530 -3464 0
-3530 3612 3922 3464 0
3443 -3922 0
3443 -3686 0
-3443 3922 3686 0
3587 -3605 0
3587 -3713 0
-3587 3605 3713 0
3610 -3460 0
3610 -3925 0
-3610 3460 3925 0
3509 -3924 0
3509 -3781 0
-3509 3924 3781 0
3512 -3797 0
3512 -3769 0
-3512 3797 3769 0
3515 -3722 0
3515 -3769 0
-3515 3722 3769 0
3518 -3922 0
3518 -3255 0
-3518 3922 3255 0
3521 -3874 0
3521 -3785 0
-3521 3874 3785 0
3524 -3810 0
3524 -3788 0
-3524 3810 3788 0
3527 -3263 0
3527 -3264 0
-3527 3263 3264 0
3531 -3266 0
3531 -3924 0
-3531 3266 3924 0
3536 -3685 0
3536 -3270 0
-3536 3685 3270 0
3539 -3719 0
3539 -3802 0
-3539 3719 3802 0
3637 -3761 0
3637 -3860 0
-3637 3761 3860 0
3584 -3820 0
3584 -3874 0
3584 -3863 0
-3584 3820 3874 3863 0
3674 -3282 0
3674 -3283 0
-3674 3282 3283 0
3590 -3868 0
3590 -3841 0
-3590 3868 3841 0
3615 -3641 0
3615 -3597 0
-3615 3641 3597 0
3596 -3291 0
3596 -3761 0
-3596 3291 3761 0
3600 -3890 0
3600 -3354 0
-3600 3890 3354 0
3660 -3890 0
3660 -3641 0
-3660 3890 3641 0
3643 -3538 0
3643 -3894 0
-3643 3538 3894 0
3620 -3910 0
3620 -3431 0
-3620 3910 3431 0
3614 -3324 0
3614 -3913 0
-3614 3324 3913 0
3617 -3459 0
3617 -3918 0
-3617 3459 3918 0
3667 -3494 0
3667 -3313 0
-3667 3494 3313 0
3659 -3844 0
3659 -3316 0
-3659 3844 3316 0
3623 -3950 0
3623 -3877 0
-3623 3950 3877 0
3668 -3321 0
3668 -3743 0
-3668 3321 3743 0
3671 -3324 0
3671 -3976 0
-3671 3324 3976 0
3630 -3957 0
3630 -3942 0
-3630 3957 3942 0
3633 -3953 0
3633 -3331 0
-3633 3953 3331 0
3636 -3333 0
3636 -3856 0
-3636 3333 3856 0
3640 -3988 0
3640 -3889 0
-3640 3988 3889 0
3647 -3339 0
3647 -3920 0
-3647 3339 3920 0
3677 -3342 0
3677 -3343 0
-3677 3342 3343 0
3581 3804 0
3581 3712 0
-3581 -3804 -3712 0
3475 3714 0
3475 3859 0
-3475 -3714 -3859 0
3791 3390 0
3791 3429 0
-3791 -3390 -3429 0
3353 3354 0
3353 3820 0
-3353 -3354 -3820 0
3975 3714 0
3975 3801 0
-3975 -3714 -3801 0
3884 3810 0
3884 3683 0
-3884 -3810 -3683 0
3842 3820 0
3842 3471 0
-3842 -3820 -3471 0
3365 3718 0
3365 3471 0
-3365 -3718 -3471 0
3862 3471 0
3862 3685 0
-3862 -3471 -3685 0
3793 3771 0
3793 3373 0
-3793 -3771 -3373 0
3957 3771 0
3957 3685 0
-3957 -3771 -3685 0
3839 3724 0
3839 3922 0
-3839 -3724 -3922 0
3888 3724 0
3888 3771 0
-3888 -3724 -3771 0
3383 3727 0
3383 3390 0
-3383 -3727 -3390 0
3386 3775 0
3386 3931 0
-3386 -3775 -3931 0
3947 3390 0
3947 3490 0
-3947 -3390 -3490 0
3392 3686 0
3392 3581 0
-3392 -3686 -3581 0
3790 3735 0
3790 3727 0
-3790 -3735 -3727 0
3398 3735 0
3398 3714 0
-3398 -3735 -3714 0
3401 3735 0
3401 3490 0
-3401 -3735 -3490 0
3904 3931 0
3904 3735 0
-3904 -3931 -3735 0
3794 3797 0
3794 3954 0
-3794 -3797 -3954 0
3410 3761 0
3410 3612 0
-3410 -3761 -3612 0
3413 3917 0
3413 3612 0
-3413 -3917 -3612 0
3416 3471 0
3416 3475 0
-3416 -3471 -3475 0
3419 3781 0
3419 3475 0
-3419 -3781 -3475 0
3800 3845 0
3800 3704 0
-3800 -3845 -3704 0
3460 3905 0
3460 3490 0
-3460 -3905 -3490 0
3924 3429 0
3924 3905 0
-3924 -3429 -3905 0
3431 3974 0
3431 3925 0
3431 3710 0
3431 3612 0
-3431 -3974 -3925 -3710 -3612 0
3510 3713 0
3510 3781 0
-3510 -3713 -3781 0
3439 3791 0
3439 3842 0
-3439 -3791 -3842 0
3442 3443 0
3442 3775 0
3442 3791 0
-3442 -3443 -3775 -3791 0
3446 3722 0
3446 3793 0
-3446 -3722 -3793 0
3449 3801 0
3449 3725 0
3449 3781 0
-3449 -3801 -3725 -3781 0
3809 3728 0
3809 3954 0
-3809 -3728 -3954 0
3456 3790 0
3456 3922 0
-3456 -3790 -3922 0
3459 3460 0
3459 3974 0
3459 3791 0
-3459 -3460 -3974 -3791 0
3648 3464 0
3648 3924 0
-3648 -3464 -3924 0
3466 3752 0
3466 3797 0
-3466 -3752 -3797 0
3838 3763 0
3838 3471 0
-3838 -3763 -3471 0
3652 3761 0
3652 3763 0
3652 3475 0
-3652 -3761 -3763 -3475 0
3841 3634 0
3841 3478 0
-3841 -3634 -3478 0
3844 3634 0
3844 3874 0
-3844 -3634 -3874 0
3854 3740 0
3854 3634 0
-3854 -3740 -3634 0
3856 3634 0
3856 3695 0
-3856 -3634 -3695 0
3860 3776 0
3860 3490 0
-3860 -3776 -3490 0
3863 3492 0
3863 3797 0
-3863 -3492 -3797 0
3494 3785 0
3494 3775 0
3494 3776 0
-3494 -3785 -3775 -3776 0
3618 3755 0
3618 3771 0
3618 3788 0
-3618 -3755 -3771 -3788 0
3868 3796 0
3868 3954 0
-3868 -3796 -3954 0
3875 3634 0
3875 3796 0
-3875 -3634 -3796 0
3508 3509 0
3508 3510 0
-3508 -3509 -3510 0
3638 3512 0
3638 3683 0
-3638 -3512 -3683 0
3514 3515 0
3514 3845 0
-3514 -3515 -3845 0
3517 3518 0
3517 3775 0
-3517 -3518 -3775 0
3887 3521 0
3887 3685 0
-3887 -3521 -3685 0
3598 3524 0
3598 3755 0
-3598 -3524 -3755 0
3526 3527 0
3526 3974 0
-3526 -3527 -3974 0
3529 3530 0
3529 3531 0
-3529 -3530 -3531 0
3532 3868 0
3532 3800 0
-3532 -3868 -3800 0
3535 3536 0
3535 3808 0
-3535 -3536 -3808 0
3538 3539 0
3538 3775 0
-3538 -3539 -3775 0
3593 3724 0
3593 3820 0
3593 3833 0
-3593 -3724 -3820 -3833 0
3890 3695 0
3890 3843 0
-3890 -3695 -3843 0
3679 3922 0
3679 3843 0
3679 3905 0
-3679 -3922 -3843 -3905 0
3627 3719 0
3627 3724 0
3627 3852 0
-3627 -3719 -3724 -3852 0
3894 3855 0
3894 3727 0
3894 3713 0
-3894 -3855 -3727 -3713 0
3560 3605 0
3560 3855 0
3560 3785 0
-3560 -3605 -3855 -3785 0
3657 3837 0
3657 4035 0
3657 3798 0
-3657 -3837 -4035 -3798 0
3902 3861 0
3902 3727 0
-3902 -3861 -3727 0
3910 3861 0
3910 3735 0
3910 3714 0
-3910 -3861 -3735 -3714 0
3913 3735 0
3913 3861 0
3913 3725 0
-3913 -3735 -3861 -3725 0
3918 3820 0
3918 3581 0
3918 3861 0
-3918 -3820 -3581 -3861 0
3583 3584 0
3583 3638 0
-3583 -3584 -3638 0
3926 3587 0
3926 3588 0
-3926 -3587 -3588 0
3589 3590 0
3589 3618 0
-3589 -3590 -3618 0
4075 3593 0
4075 3890 0
-4075 -3593 -3890 0
4045 3596 0
4045 3597 0
4045 3598 0
-4045 -3596 -3597 -3598 0
4067 3600 0
4067 3601 0
-4067 -3600 -3601 0
3621 3901 0
3621 3992 0
3621 3605 0
-3621 -3901 -3992 -3605 0
3606 3909 0
3606 3781 0
-3606 -3909 -3781 0
3609 3610 0
3609 3909 0
3609 3612 0
-3609 -3610 -3909 -3612 0
3979 3614 0
3979 3615 0
-3979 -3614 -3615 0
3985 3617 0
3985 3618 0
-3985 -3617 -3618 0
4097 3620 0
4097 3621 0
-4097 -3620 -3621 0
4047 3623 0
4047 3624 0
4047 3625 0
-4047 -3623 -3624 -3625 0
4065 3627 0
4065 3967 0
-4065 -3627 -3967 0
4077 3630 0
4077 3631 0
-4077 -3630 -3631 0
3650 3633 0
3650 3634 0
-3650 -3633 -3634 0
4079 3636 0
4079 3637 0
4079 3638 0
-4079 -3636 -3637 -3638 0
3655 3640 0
3655 3641 0
-3655 -3640 -3641 0
3642 3643 0
3642 3654 0
3642 3997 0
-3642 -3643 -3654 -3997 0
3661 3647 0
3661 3648 0
-3661 -3647 -3648 0
4034 3650 0
4034 3651 0
4034 3652 0
-4034 -3650 -3651 -3652 0
4087 3654 0
4087 3655 0
4087 3994 0
4087 3657 0
-4087 -3654 -3655 -3994 -3657 0
3658 3659 0
3658 3660 0
3658 3661 0
-3658 -3659 -3660 -3661 0
4049 3663 0
4049 3933 0
4049 4018 0
-4049 -3663 -3933 -4018 0
4081 3667 0
4081 3668 0
4081 3669 0
-4081 -3667 -3668 -3669 0
4051 3671 0
4051 4027 0
-4051 -3671 -4027 0
4041 3674 0
4041 4032 0
-4041 -3674 -4032 0
4043 3677 0
4043 3678 0
4043 3679 0
-4043 -3677 -3678 -3679 0
-3718 -3931 0
-3718 -3781 0
3718 3931 3781 0
-3683 -3874 0
-3683 -3685 0
3683 3874 3685 0
-3686 -3781 0
-3686 -3954 0
3686 3781 3954 0
-3689 -3712 0
-3689 -3859 0
3689 3712 3859 0
-3797 -3922 0
-3797 -3845 0
3797 3922 3845 0
-3695 -3954 0
-3695 -3922 0
3695 3954 3922 0
-4093 -3804 0
-4093 -3817 0
4093 3804 3817 0
-3917 -3714 0
-3917 -3859 0
3917 3714 3859 0
-3704 -3922 0
-3704 -3714 0
3704 3922 3714 0
-3707 -3954 0
-3707 -3709 0
3707 3954 3709 0
-3710 -3820 0
-3710 -3712 0
3710 3820 3712 0
-3713 -3714 0
-3713 -3801 0
3713 3714 3801 0
-3716 -3954 0
-3716 -3718 0
3716 3954 3718 0
-3719 -3931 0
-3719 -3974 0
3719 3931 3974 0
-3722 -3922 0
-3722 -3724 0
3722 3922 3724 0
-3725 -3931 0
-3725 -3727 0
3725 3931 3727 0
-3728 -3922 0
-3728 -3775 0
3728 3922 3775 0
-4091 -3735 0
-4091 -3817 0
4091 3735 3817 0
-3734 -3735 0
-3734 -3775 0
3734 3735 3775 0
-3798 -3775 0
-3798 -3761 0
3798 3775 3761 0
-3740 -3761 0
-3740 -3845 0
3740 3761 3845 0
-3743 -3845 0
-3743 -3925 0
3743 3845 3925 0
-3746 -3905 0
-3746 -3845 0
3746 3905 3845 0
-3992 -3750 0
-3992 -3751 0
3992 3750 3751 0
-3752 -3884 0
-3752 -3954 0
3752 3884 3954 0
-3755 -3845 0
-3755 -3896 0
-3755 -3954 0
3755 3845 3896 3954 0
-3759 -3842 0
-3759 -3761 0
-3759 -3845 0
3759 3842 3761 3845 0
-3763 -3957 0
-3763 -3775 0
3763 3957 3775 0
-3766 -3922 0
-3766 -3768 0
3766 3922 3768 0
-3769 -3839 0
-3769 -3771 0
3769 3839 3771 0
-3772 -3773 0
-3772 -3839 0
-3772 -3775 0
3772 3773 3839 3775 0
-3776 -3862 0
-3776 -3888 0
3776 3862 3888 0
-3779 -3947 0
-3779 -3781 0
3779 3947 3781 0
-3782 -3783 0
-3782 -3845 0
3782 3783 3845 0
-3785 -3790 0
-3785 -3820 0
3785 3790 3820 0
-3788 -3922 0
-3788 -3790 0
-3788 -3791 0
3788 3922 3790 3791 0
-4063 -3793 0
-4063 -3794 0
-4063 -3896 0
4063 3793 3794 3896 0
-3796 -3797 0
-3796 -3798 0
3796 3797 3798 0
-3878 -3800 0
-3878 -3801 0
3878 3800 3801 0
-3802 -3924 0
-3802 -3804 0
3802 3924 3804 0
-3989 -3809 0
-3989 -3884 0
3989 3809 3884 0
-3808 -3809 0
-3808 -3810 0
3808 3809 3810 0
-3811 -3874 0
-3811 -3952 0
-3811 -3957 0
3811 3874 3952 3957 0
-4085 -3837 0
-4085 -3817 0
4085 3837 3817 0
-3818 -3837 0
-3818 -3820 0
3818 3837 3820 0
-3821 -3974 0
-3821 -3823 0
3821 3974 3823 0
-3879 -3948 0
-3879 -3924 0
3879 3948 3924 0
-3827 -3922 0
-3827 -3829 0
3827 3922 3829 0
-3830 -3884 0
-3830 -3832 0
3830 3884 3832 0
-3833 -3922 0
-3833 -3838 0
3833 3922 3838 0
-3978 -3837 0
-3978 -3838 0
-3978 -3839 0
3978 3837 3838 3839 0
-3840 -3841 0
-3840 -3842 0
3840 3841 3842 0
-3843 -3844 0
-3843 -3845 0
3843 3844 3845 0
-4011 -3854 0
-4011 -3848 0
4011 3854 3848 0
-3966 -3854 0
-3966 -3851 0
3966 3854 3851 0
-3852 -3874 0
-3852 -3854 0
3852 3874 3854 0
-3855 -3856 0
-3855 -3874 0
3855 3856 3874 0
-4035 -3859 0
-4035 -3860 0
4035 3859 3860 0
-3861 -3862 0
-3861 -3863 0
3861 3862 3863 0
-3864 -3874 0
-3864 -3866 0
3864 3874 3866 0
-3867 -3868 0
-3867 -3874 0
3867 3868 3874 0
-3870 -3875 0
-3870 -3872 0
3870 3875 3872 0
-3873 -3874 0
-3873 -3875 0
-3873 -3876 0
3873 3874 3875 3876 0
-3877 -3878 0
-3877 -3879 0
3877 3878 3879 0
-4061 -3884 0
-4061 -3882 0
4061 3884 3882 0
-3883 -3884 0
-3883 -3885 0
3883 3884 3885 0
-3886 -3887 0
-3886 -3888 0
3886 3887 3888 0
-3889 -3890 0
-3889 -3891 0
3889 3890 3891 0
-3892 -3904 0
-3892 -3894 0
3892 3904 3894 0
-3895 -3896 0
-3895 -3897 0
3895 3896 3897 0
-3898 -3902 0
-3898 -3931 0
3898 3902 3931 0
-3901 -3902 0
-3901 -3925 0
-3901 -3904 0
-3901 -3905 0
3901 3902 3925 3904 3905 0
-4009 -3910 0
-4009 -3908 0
4009 3910 3908 0
-3909 -3910 0
-3909 -3911 0
3909 3910 3911 0
-4004 -3913 0
-4004 -3914 0
4004 3913 3914 0
-4015 -3974 0
-4015 -3917 0
-4015 -3918 0
-4015 -3919 0
4015 3974 3917 3918 3919 0
-3920 -3926 0
-3920 -3922 0
3920 3926 3922 0
-3984 -3924 0
-3984 -3925 0
-3984 -3926 0
3984 3924 3925 3926 0
-3927 -3978 0
-3927 -3929 0
3927 3978 3929 0
-3930 -3931 0
-3930 -3932 0
3930 3931 3932 0
-3933 -3934 0
-3933 -3935 0
-3933 -3936 0
3933 3934 3935 3936 0
-3937 -3938 0
-3937 -3939 0
-3937 -4069 0
-3937 -3941 0
3937 3938 3939 4069 3941 0
-3942 -3943 0
-3942 -3944 0
3942 3943 3944 0
-3945 -3950 0
-3945 -3947 0
-3945 -3948 0
3945 3950 3947 3948 0
-4029 -3950 0
-4029 -3975 0
-4029 -3952 0
4029 3950 3975 3952 0
-3953 -3954 0
-3953 -3955 0
3953 3954 3955 0
-3988 -3957 0
-3988 -3958 0
3988 3957 3958 0
-3959 -3960 0
-3959 -3961 0
3959 3960 3961 0
-3962 -3963 0
-3962 -4069 0
-3962 -4061 0
-3962 -3966 0
3962 3963 4069 4061 3966 0
-3967 -3968 0
-3967 -3969 0
3967 3968 3969 0
-3970 -3971 0
-3970 -4025 0
3970 3971 4025 0
-3998 -3974 0
-3998 -3975 0
-3998 -3976 0
3998 3974 3975 3976 0
-3977 -3978 0
-3977 -3979 0
-3977 -3980 0
3977 3978 3979 3980 0
-3981 -3982 0
-3981 -4025 0
-3981 -3984 0
-3981 -3985 0
3981 3982 4025 3984 3985 0
-3986 -3987 0
-3986 -3988 0
-3986 -3989 0
-3986 -4069 0
3986 3987 3988 3989 4069 0
-3991 -3992 0
-3991 -3993 0
3991 3992 3993 0
-3994 -3998 0
-3994 -3996 0
3994 3998 3996 0
-3997 -3998 0
-3997 -4025 0
-3997 -4000 0
3997 3998 4025 4000 0
-4001 -4009 0
-4001 -4008 0
-4001 -4004 0
4001 4009 4008 4004 0
-4005 -4006 0
-4005 -4007 0
-4005 -4008 0
-4005 -4009 0
4005 4006 4007 4008 4009 0
-4010 -4011 0
-4010 -4012 0
-4010 -4013 0
4010 4011 4012 4013 0
-4014 -4015 0
-4014 -4016 0
-4014 -4017 0
4014 4015 4016 4017 0
-4018 -4019 0
-4018 -4020 0
-4018 -4021 0
4018 4019 4020 4021 0
-4022 -4023 0
-4022 -4024 0
-4022 -4025 0
-4022 -4026 0
4022 4023 4024 4025 4026 0
-4027 -4028 0
-4027 -4029 0
-4027 -4030 0
-4027 -4031 0
4027 4028 4029 4030 4031 0
-4032 -4033 0
-4032 -4034 0
-4032 -4035 0
-4032 -4069 0
4032 4033 4034 4035 4069 0
-4037 -4038 0
-4037 -4039 0
4037 4038 4039 0
-4041 4900 0
4041 -4900 0
-4043 5089 0
4043 -5089 0
-4045 5025 0
4045 -5025 0
-4047 5169 0
4047 -5169 0
-4049 5060 0
4049 -5060 0
-4051 5137 0
4051 -5137 0
-4053 4052 0
4053 -4052 0
-4055 4054 0
4055 -4054 0
-4057 4056 0
4057 -4056 0
-4059 4058 0
4059 -4058 0
-4061 4060 0
4061 -4060 0
-4063 4062 0
4063 -4062 0
-4065 4064 0
4065 -4064 0
-4067 4066 0
4067 -4066 0
-4069 4068 0
4069 -4068 0
-4071 4070 0
4071 -4070 0
-4073 4072 0
4073 -4072 0
-4075 4074 0
4075 -4074 0
-4077 4076 0
4077 -4076 0
-4079 4078 0
4079 -4078 0
-4081 4080 0
4081 -4080 0
-4083 4082 0
4083 -4082 0
-4085 4084 0
4085 -4084 0
-4087 4086 0
4087 -4086 0
-4089 4088 0
4089 -4088 0
-4091 4090 0
4091 -4090 0
-4093 4092 0
4093 -4092 0
-4095 4094 0
4095 -4094 0
-4097 4096 0
4097 -4096 0
5035 5146 0
-5035 -5146 0
5106 4101 0
-5106 -4101 0
4298 4301 0
-4298 -4301 0
4569 4301 0
-4569 -4301 0
5016 5074 0
-5016 -5074 0
4300 4996 0
-4300 -4996 0
5189 4996 0
-5189 -4996 0
4686 5089 0
-4686 -5089 0
4986 5025 0
-4986 -5025 0
4939 5169 0
-4939 -5169 0
4693 4856 0
-4693 -4856 0
4942 4927 0
-4942 -4927 0
4990 5060 0
-4990 -5060 0
4705 4644 0
-4705 -4644 0
4950 5019 0
-4950 -5019 0
4976 5137 0
-4976 -5137 0
5140 4679 0
-5140 -4679 0
5120 4605 0
-5120 -4605 0
4820 4827 0
-4820 -4827 0
4988 4924 0
-4988 -4924 0
5111 4898 0
-5111 -4898 0
4322 4904 0
-4322 -4904 0
5134 4690 0
-5134 -4690 0
4329 4922 0
-4329 -4922 0
5126 4925 0
-5126 -4925 0
4497 4568 0
-4497 -4568 0
4375 4931 0
-4375 -4931 0
4849 5172 0
-4849 -5172 0
4707 5103 0
-4707 -5103 0
4479 4598 0
-4479 -4598 0
5167 4943 0
-5167 -4943 0
4470 4607 0
-4470 -4607 0
5052 5005 0
-5052 -5005 0
4343 4949 0
-4343 -4949 0
4478 4616 0
-4478 -4616 0
4481 4625 0
-4481 -4625 0
5163 4955 0
-5163 -4955 0
4485 4631 0
-4485 -4631 0
4558 4961 0
-4558 -4961 0
4410 4974 0
-4410 -4974 0
4546 4657 0
-4546 -4657 0
4353 4981 0
-4353 -4981 0
4356 4987 0
-4356 -4987 0
4372 4997 0
-4372 -4997 0
4498 5278 0
-4498 -5278 0
4432 4674 0
-4432 -4674 0
5310 4681 0
-5310 -4681 0
4381 4867 0
-4381 -4867 0
4812 5204 0
-4812 -5204 0
4803 4709 0
-4803 -4709 0
5241 4833 0
-5241 -4833 0
4396 5036 0
-4396 -5036 0
4408 5042 0
-4408 -5042 0
4539 4723 0
-4539 -4723 0
4506 5045 0
-4506 -5045 0
4398 4732 0
-4398 -4732 0
5144 4813 0
-5144 -4813 0
4407 5079 0
-4407 -5079 0
4528 4744 0
-4528 -4744 0
4531 4747 0
-4531 -4747 0
4411 5082 0
-4411 -5082 0
4866 5085 0
-4866 -5085 0
4816 5088 0
-4816 -5088 0
4413 5092 0
-4413 -5092 0
5151 4750 0
-5151 -4750 0
4419 4808 0
-4419 -4808 0
5284 5105 0
-5284 -5105 0
5156 4842 0
-5156 -4842 0
4869 5098 0
-4869 -5098 0
5240 4872 0
-5240 -4872 0
4438 5128 0
-4438 -5128 0
4846 4798 0
-4846 -4798 0
5165 5101 0
-5165 -5101 0
4840 4804 0
-4840 -4804 0
4536 5107 0
-4536 -5107 0
4839 5110 0
-4839 -5110 0
5191 5113 0
-5191 -5113 0
5246 5142 0
-5246 -5142 0
4548 5145 0
-4548 -5145 0
5268 5152 0
-5268 -5152 0
5223 4836 0
-5223 -4836 0
4554 4821 0
-4554 -4821 0
5227 4824 0
-5227 -4824 0
4878 5160 0
-4878 -5160 0
4445 5174 0
-4445 -5174 0
5270 5177 0
-5270 -5177 0
5231 5185 0
-5231 -5185 0
5236 5192 0
-5236 -5192 0
5274 5196 0
-5274 -5196 0
5288 5201 0
-5288 -5201 0
4557 5206 0
-4557 -5206 0
5298 5216 0
-5298 -5216 0
5304 5220 0
-5304 -5220 0
5245 5225 0
-5245 -5225 0
5254 5229 0
-5254 -5229 0
4884 4857 0
-4884 -4857 0
5286 5237 0
-5286 -5237 0
4893 4873 0
-4893 -4873 0
5272 5252 0
-5272 -5252 0
-4965 4996 0
-4965 4298 0
4965 -4996 -4298 0
-4966 4300 0
-4966 4301 0
4966 -4300 -4301 0
-4983 5060 0
-4983 4939 0
4983 -5060 -4939 0
-5091 5146 0
-5091 4939 0
5091 -5146 -4939 0
-4998 4796 0
-4998 4996 0
-4998 4939 0
4998 -4796 -4996 -4939 0
-5175 5035 0
-5175 5012 0
5175 -5035 -5012 0
-5087 4939 0
-5087 5057 0
5087 -4939 -5057 0
-5066 4939 0
-5066 4580 0
5066 -4939 -4580 0
-5038 4322 0
-5038 4613 0
5038 -4322 -4613 0
-5044 4601 0
-5044 4634 0
5044 -4601 -4634 0
-5047 5060 0
-5047 4329 0
5047 -5060 -4329 0
-5150 5137 0
-5150 4967 0
5150 -5137 -4967 0
-5063 4939 0
-5063 4654 0
5063 -4939 -4654 0
-5123 4664 0
-5123 4646 0
5123 -4664 -4646 0
-5202 4967 0
-5202 5167 0
5202 -4967 -5167 0
-5081 4343 0
-5081 4671 0
5081 -4343 -4671 0
-5239 5278 0
-5239 5146 0
5239 -5278 -5146 0
-5129 4725 0
-5129 4674 0
5129 -4725 -4674 0
-5097 5054 0
-5097 4353 0
5097 -5054 -4353 0
-5100 5009 0
-5100 4356 0
5100 -5009 -4356 0
-5153 4900 0
-5153 5023 0
5153 -4900 -5023 0
-5253 5134 0
-5253 4898 0
-5253 5023 0
5253 -5134 -4898 -5023 0
-5154 5026 0
-5154 4934 0
5154 -5026 -4934 0
-5248 4927 0
-5248 5026 0
5248 -4927 -5026 0
-5158 4919 0
-5158 4372 0
5158 -4919 -4372 0
-5183 5048 0
-5183 4375 0
5183 -5048 -4375 0
-5149 5048 0
-5149 5033 0
5149 -5048 -5033 0
-5195 5057 0
-5195 4381 0
5195 -5057 -4381 0
-5235 4943 0
-5235 5055 0
5235 -4943 -5055 0
-5243 5055 0
-5243 4955 0
5243 -5055 -4955 0
-5228 5067 0
-5228 5033 0
5228 -5067 -5033 0
-5112 4729 0
-5112 4661 0
5112 -4729 -4661 0
-5147 4741 0
-5147 4396 0
5147 -4741 -4396 0
-5159 4398 0
-5159 5120 0
5159 -4398 -5120 0
-5197 5101 0
-5197 5094 0
5197 -5101 -5094 0
-5232 5093 0
-5232 5101 0
5232 -5093 -5101 0
-5170 4407 0
-5170 4408 0
5170 -4407 -4408 0
-5173 4410 0
-5173 4411 0
5173 -4410 -4411 0
-5176 4413 0
-5176 5000 0
5176 -4413 -5000 0
-5178 5189 0
-5178 4419 0
5178 -5189 -4419 0
-5222 4419 0
-5222 4856 0
5222 -4419 -4856 0
-5184 5284 0
-5184 4996 0
5184 -5284 -4996 0
-5186 5107 0
-5186 4863 0
-5186 4827 0
5186 -5107 -4863 -4827 0
-5211 5113 0
-5211 4994 0
5211 -5113 -4994 0
-5215 4432 0
-5215 5113 0
5215 -4432 -5113 0
-5234 4628 0
-5234 5116 0
5234 -4628 -5116 0
-5221 4438 0
-5221 4994 0
5221 -4438 -4994 0
-5208 4536 0
-5208 4775 0
5208 -4536 -4775 0
-5238 4991 0
-5238 4445 0
5238 -4991 -4445 0
4745 -4827 0
4745 -5137 0
4745 -4679 0
-4745 4827 5137 4679 0
4658 -5137 0
4658 -4901 0
-4658 5137 4901 0
4802 -4820 0
4802 -4928 0
-4802 4820 4928 0
4825 -4675 0
4825 -5140 0
-4825 4675 5140 0
4724 -5139 0
4724 -4996 0
-4724 5139 4996 0
4727 -5012 0
4727 -4984 0
-4727 5012 4984 0
4730 -4937 0
4730 -4984 0
-4730 4937 4984 0
4733 -5137 0
4733 -4470 0
-4733 5137 4470 0
4736 -5089 0
4736 -5000 0
-4736 5089 5000 0
4739 -5025 0
4739 -5003 0
-4739 5025 5003 0
4742 -4478 0
4742 -4479 0
-4742 4478 4479 0
4746 -4481 0
4746 -5139 0
-4746 4481 5139 0
4751 -4900 0
4751 -4485 0
-4751 4900 4485 0
4754 -4934 0
4754 -5017 0
-4754 4934 5017 0
4852 -4976 0
4852 -5075 0
-4852 4976 5075 0
4799 -5035 0
4799 -5089 0
4799 -5078 0
-4799 5035 5089 5078 0
4889 -4497 0
4889 -4498 0
-4889 4497 4498 0
4805 -5083 0
4805 -5056 0
-4805 5083 5056 0
4830 -4856 0
4830 -4812 0
-4830 4856 4812 0
4811 -4506 0
4811 -4976 0
-4811 4506 4976 0
4815 -5105 0
4815 -4569 0
-4815 5105 4569 0
4875 -5105 0
4875 -4856 0
-4875 5105 4856 0
4858 -4753 0
4858 -5109 0
-4858 4753 5109 0
4835 -5125 0
4835 -4646 0
-4835 5125 4646 0
4829 -4539 0
4829 -5128 0
-4829 4539 5128 0
4832 -4674 0
4832 -5133 0
-4832 4674 5133 0
4882 -4709 0
4882 -4528 0
-4882 4709 4528 0
4874 -5059 0
4874 -4531 0
-4874 5059 4531 0
4838 -5165 0
4838 -5092 0
-4838 5165 5092 0
4883 -4536 0
4883 -4958 0
-4883 4536 4958 0
4886 -4539 0
4886 -5191 0
-4886 4539 5191 0
4845 -5172 0
4845 -5157 0
-4845 5172 5157 0
4848 -5168 0
4848 -4546 0
-4848 5168 4546 0
4851 -4548 0
4851 -5071 0
-4851 4548 5071 0
4855 -5203 0
4855 -5104 0
-4855 5203 5104 0
4862 -4554 0
4862 -5135 0
-4862 4554 5135 0
4892 -4557 0
4892 -4558 0
-4892 4557 4558 0
4796 5019 0
4796 4927 0
-4796 -5019 -4927 0
4690 4929 0
4690 5074 0
-4690 -4929 -5074 0
5006 4605 0
5006 4644 0
-5006 -4605 -4644 0
4568 4569 0
4568 5035 0
-4568 -4569 -5035 0
5190 4929 0
5190 5016 0
-5190 -4929 -5016 0
5099 5025 0
5099 4898 0
-5099 -5025 -4898 0
5057 5035 0
5057 4686 0
-5057 -5035 -4686 0
4580 4933 0
4580 4686 0
-4580 -4933 -4686 0
5077 4686 0
5077 4900 0
-5077 -4686 -4900 0
5008 4986 0
5008 4588 0
-5008 -4986 -4588 0
5172 4986 0
5172 4900 0
-5172 -4986 -4900 0
5054 4939 0
5054 5137 0
-5054 -4939 -5137 0
5103 4939 0
5103 4986 0
-5103 -4939 -4986 0
4598 4942 0
4598 4605 0
-4598 -4942 -4605 0
4601 4990 0
4601 5146 0
-4601 -4990 -5146 0
5162 4605 0
5162 4705 0
-5162 -4605 -4705 0
4607 4901 0
4607 4796 0
-4607 -4901 -4796 0
5005 4950 0
5005 4942 0
-5005 -4950 -4942 0
4613 4950 0
4613 4929 0
-4613 -4950 -4929 0
4616 4950 0
4616 4705 0
-4616 -4950 -4705 0
5119 5146 0
5119 4950 0
-5119 -5146 -4950 0
5009 5012 0
5009 5169 0
-5009 -5012 -5169 0
4625 4976 0
4625 4827 0
-4625 -4976 -4827 0
4628 5132 0
4628 4827 0
-4628 -5132 -4827 0
4631 4686 0
4631 4690 0
-4631 -4686 -4690 0
4634 4996 0
4634 4690 0
-4634 -4996 -4690 0
5015 5060 0
5015 4919 0
-5015 -5060 -4919 0
4675 5120 0
4675 4705 0
-4675 -5120 -4705 0
5139 4644 0
5139 5120 0
-5139 -4644 -5120 0
4646 5189 0
4646 5140 0
4646 4925 0
4646 4827 0
-4646 -5189 -5140 -4925 -4827 0
4725 4928 0
4725 4996 0
-4725 -4928 -4996 0
4654 5006 0
4654 5057 0
-4654 -5006 -5057 0
4657 4658 0
4657 4990 0
4657 5006 0
-4657 -4658 -4990 -5006 0
4661 4937 0
4661 5008 0
-4661 -4937 -5008 0
4664 5016 0
4664 4940 0
4664 4996 0
-4664 -5016 -4940 -4996 0
5024 4943 0
5024 5169 0
-5024 -4943 -5169 0
4671 5005 0
4671 5137 0
-4671 -5005 -5137 0
4674 4675 0
4674 5189 0
4674 5006 0
-4674 -4675 -5189 -5006 0
4863 4679 0
4863 5139 0
-4863 -4679 -5139 0
4681 4967 0
4681 5012 0
-4681 -4967 -5012 0
5053 4978 0
5053 4686 0
-5053 -4978 -4686 0
4867 4976 0
4867 4978 0
4867 4690 0
-4867 -4976 -4978 -4690 0
5056 4849 0
5056 4693 0
-5056 -4849 -4693 0
5059 4849 0
5059 5089 0
-5059 -4849 -5089 0
5069 4955 0
5069 4849 0
-5069 -4955 -4849 0
5071 4849 0
5071 4910 0
-5071 -4849 -4910 0
5075 4991 0
5075 4705 0
-5075 -4991 -4705 0
5078 4707 0
5078 5012 0
-5078 -4707 -5012 0
4709 5000 0
4709 4990 0
4709 4991 0
-4709 -5000 -4990 -4991 0
4833 4970 0
4833 4986 0
4833 5003 0
-4833 -4970 -4986 -5003 0
5083 5011 0
5083 5169 0
-5083 -5011 -5169 0
5090 4849 0
5090 5011 0
-5090 -4849 -5011 0
4723 4724 0
4723 4725 0
-4723 -4724 -4725 0
4853 4727 0
4853 4898 0
-4853 -4727 -4898 0
4729 4730 0
4729 5060 0
-4729 -4730 -5060 0
4732 4733 0
4732 4990 0
-4732 -4733 -4990 0
5102 4736 0
5102 4900 0
-5102 -4736 -4900 0
4813 4739 0
4813 4970 0
-4813 -4739 -4970 0
4741 4742 0
4741 5189 0
-4741 -4742 -5189 0
4744 4745 0
4744 4746 0
-4744 -4745 -4746 0
4747 5083 0
4747 5015 0
-4747 -5083 -5015 0
4750 4751 0
4750 5023 0
-4750 -4751 -5023 0
4753 4754 0
4753 4990 0
-4753 -4754 -4990 0
4808 4939 0
4808 5035 0
4808 5048 0
-4808 -4939 -5035 -5048 0
5105 4910 0
5105 5058 0
-5105 -4910 -5058 0
4894 5137 0
4894 5058 0
4894 5120 0
-4894 -5137 -5058 -5120 0
4842 4934 0
4842 4939 0
4842 5067 0
-4842 -4934 -4939 -5067 0
5109 5070 0
5109 4942 0
5109 4928 0
-5109 -5070 -4942 -4928 0
4775 4820 0
4775 5070 0
4775 5000 0
-4775 -4820 -5070 -5000 0
4872 5052 0
4872 5250 0
4872 5013 0
-4872 -5052 -5250 -5013 0
5117 5076 0
5117 4942 0
-5117 -5076 -4942 0
5125 5076 0
5125 4950 0
5125 4929 0
-5125 -5076 -4950 -4929 0
5128 4950 0
5128 5076 0
5128 4940 0
-5128 -4950 -5076 -4940 0
5133 5035 0
5133 4796 0
5133 5076 0
-5133 -5035 -4796 -5076 0
4798 4799 0
4798 4853 0
-4798 -4799 -4853 0
5141 4802 0
5141 4803 0
-5141 -4802 -4803 0
4804 4805 0
4804 4833 0
-4804 -4805 -4833 0
5290 4808 0
5290 5105 0
-5290 -4808 -5105 0
5260 4811 0
5260 4812 0
5260 4813 0
-5260 -4811 -4812 -4813 0
5282 4815 0
5282 4816 0
-5282 -4815 -4816 0
4836 5116 0
4836 5207 0
4836 4820 0
-4836 -5116 -5207 -4820 0
4821 5124 0
4821 4996 0
-4821 -5124 -4996 0
4824 4825 0
4824 5124 0
4824 4827 0
-4824 -4825 -5124 -4827 0
5194 4829 0
5194 4830 0
-5194 -4829 -4830 0
5200 4832 0
5200 4833 0
-5200 -4832 -4833 0
5312 4835 0
5312 4836 0
-5312 -4835 -4836 0
5262 4838 0
5262 4839 0
5262 4840 0
-5262 -4838 -4839 -4840 0
5280 4842 0
5280 5182 0
-5280 -4842 -5182 0
5292 4845 0
5292 4846 0
-5292 -4845 -4846 0
4865 4848 0
4865 4849 0
-4865 -4848 -4849 0
5294 4851 0
5294 4852 0
5294 4853 0
-5294 -4851 -4852 -4853 0
4870 4855 0
4870 4856 0
-4870 -4855 -4856 0
4857 4858 0
4857 4869 0
4857 5212 0
-4857 -4858 -4869 -5212 0
4876 4862 0
4876 4863 0
-4876 -4862 -4863 0
5249 4865 0
5249 4866 0
5249 4867 0
-5249 -4865 -4866 -4867 0
5302 4869 0
5302 4870 0
5302 5209 0
5302 4872 0
-5302 -4869 -4870 -5209 -4872 0
4873 4874 0
4873 4875 0
4873 4876 0
-4873 -4874 -4875 -4876 0
5264 4878 0
5264 5148 0
5264 5233 0
-5264 -4878 -5148 -5233 0
5296 4882 0
5296 4883 0
5296 4884 0
-5296 -4882 -4883 -4884 0
5266 4886 0
5266 5242 0
-5266 -4886 -5242 0
5256 4889 0
5256 5247 0
-5256 -4889 -5247 0
5258 4892 0
5258 4893 0
5258 4894 0
-5258 -4892 -4893 -4894 0
-4933 -5146 0
-4933 -4996 0
4933 5146 4996 0
-4898 -5089 0
-4898 -4900 0
4898 5089 4900 0
-4901 -4996 0
-4901 -5169 0
4901 4996 5169 0
-4904 -4927 0
-4904 -5074 0
4904 4927 5074 0
-5012 -5137 0
-5012 -5060 0
5012 5137 5060 0
-4910 -5169 0
-4910 -5137 0
4910 5169 5137 0
-5308 -5019 0
-5308 -5032 0
5308 5019 5032 0
-5132 -4929 0
-5132 -5074 0
5132 4929 5074 0
-4919 -5137 0
-4919 -4929 0
4919 5137 4929 0
-4922 -5169 0
-4922 -4924 0
4922 5169 4924 0
-4925 -5035 0
-4925 -4927 0
4925 5035 4927 0
-4928 -4929 0
-4928 -5016 0
4928 4929 5016 0
-4931 -5169 0
-4931 -4933 0
4931 5169 4933 0
-4934 -5146 0
-4934 -5189 0
4934 5146 5189 0
-4937 -5137 0
-4937 -4939 0
4937 5137 4939 0
-4940 -5146 0
-4940 -4942 0
4940 5146 4942 0
-4943 -5137 0
-4943 -4990 0
4943 5137 4990 0
-5306 -4950 0
-5306 -5032 0
5306 4950 5032 0
-4949 -4950 0
-4949 -4990 0
4949 4950 4990 0
-5013 -4990 0
-5013 -4976 0
5013 4990 4976 0
-4955 -4976 0
-4955 -5060 0
4955 4976 5060 0
-4958 -5060 0
-4958 -5140 0
4958 5060 5140 0
-4961 -5120 0
-4961 -5060 0
4961 5120 5060 0
-5207 -4965 0
-5207 -4966 0
5207 4965 4966 0
-4967 -5099 0
-4967 -5169 0
4967 5099 5169 0
-4970 -5060 0
-4970 -5111 0
-4970 -5169 0
4970 5060 5111 5169 0
-4974 -5057 0
-4974 -4976 0
-4974 -5060 0
4974 5057 4976 5060 0
-4978 -5172 0
-4978 -4990 0
4978 5172 4990 0
-4981 -5137 0
-4981 -4983 0
4981 5137 4983 0
-4984 -5054 0
-4984 -4986 0
4984 5054 4986 0
-4987 -4988 0
-4987 -5054 0
-4987 -4990 0
4987 4988 5054 4990 0
-4991 -5077 0
-4991 -5103 0
4991 5077 5103 0
-4994 -5162 0
-4994 -4996 0
4994 5162 4996 0
-4997 -4998 0
-4997 -5060 0
4997 4998 5060 0
-5000 -5005 0
-5000 -5035 0
5000 5005 5035 0
-5003 -5137 0
-5003 -5005 0
-5003 -5006 0
5003 5137 5005 5006 0
-5278 -5008 0
-5278 -5009 0
-5278 -5111 0
5278 5008 5009 5111 0
-5011 -5012 0
-5011 -5013 0
5011 5012 5013 0
-5093 -5015 0
-5093 -5016 0
5093 5015 5016 0
-5017 -5139 0
-5017 -5019 0
5017 5139 5019 0
-5204 -5024 0
-5204 -5099 0
5204 5024 5099 0
-5023 -5024 0
-5023 -5025 0
5023 5024 5025 0
-5026 -5089 0
-5026 -5167 0
-5026 -5172 0
5026 5089 5167 5172 0
-5300 -5052 0
-5300 -5032 0
5300 5052 5032 0
-5033 -5052 0
-5033 -5035 0
5033 5052 5035 0
-5036 -5189 0
-5036 -5038 0
5036 5189 5038 0
-5094 -5163 0
-5094 -5139 0
5094 5163 5139 0
-5042 -5137 0
-5042 -5044 0
5042 5137 5044 0
-5045 -5099 0
-5045 -5047 0
5045 5099 5047 0
-5048 -5137 0
-5048 -5053 0
5048 5137 5053 0
-5193 -5052 0
-5193 -5053 0
-5193 -5054 0
5193 5052 5053 5054 0
-5055 -5056 0
-5055 -5057 0
5055 5056 5057 0
-5058 -5059 0
-5058 -5060 0
5058 5059 5060 0
-5226 -5069 0
-5226 -5063 0
5226 5069 5063 0
-5181 -5069 0
-5181 -5066 0
5181 5069 5066 0
-5067 -5089 0
-5067 -5069 0
5067 5089 5069 0
-5070 -5071 0
-5070 -5089 0
5070 5071 5089 0
-5250 -5074 0
-5250 -5075 0
5250 5074 5075 0
-5076 -5077 0
-5076 -5078 0
5076 5077 5078 0
-5079 -5089 0
-5079 -5081 0
5079 5089 5081 0
-5082 -5083 0
-5082 -5089 0
5082 5083 5089 0
-5085 -5090 0
-5085 -5087 0
5085 5090 5087 0
-5088 -5089 0
-5088 -5090 0
-5088 -5091 0
5088 5089 5090 5091 0
-5092 -5093 0
-5092 -5094 0
5092 5093 5094 0
-5276 -5099 0
-5276 -5097 0
5276 5099 5097 0
-5098 -5099 0
-5098 -5100 0
5098 5099 5100 0
-5101 -5102 0
-5101 -5103 0
5101 5102 5103 0
-5104 -5105 0
-5104 -5106 0
5104 5105 5106 0
-5107 -5119 0
-5107 -5109 0
5107 5119 5109 0
-5110 -5111 0
-5110 -5112 0
5110 5111 5112 0
-5113 -5117 0
-5113 -5146 0
5113 5117 5146 0
-5116 -5117 0
-5116 -5140 0
-5116 -5119 0
-5116 -5120 0
5116 5117 5140 5119 5120 0
-5224 -5125 0
-5224 -5123 0
5224 5125 5123 0
-5124 -5125 0
-5124 -5126 0
5124 5125 5126 0
-5219 -5128 0
-5219 -5129 0
5219 5128 5129 0
-5230 -5189 0
-5230 -5132 0
-5230 -5133 0
-5230 -5134 0
5230 5189 5132 5133 5134 0
-5135 -5141 0
-5135 -5137 0
5135 5141 5137 0
-5199 -5139 0
-5199 -5140 0
-5199 -5141 0
5199 5139 5140 5141 0
-5142 -5193 0
-5142 -5144 0
5142 5193 5144 0
-5145 -5146 0
-5145 -5147 0
5145 5146 5147 0
-5148 -5149 0
-5148 -5150 0
-5148 -5151 0
5148 5149 5150 5151 0
-5152 -5153 0
-5152 -5154 0
-5152 -5284 0
-5152 -5156 0
5152 5153 5154 5284 5156 0
-5157 -5158 0
-5157 -5159 0
5157 5158 5159 0
-5160 -5165 0
-5160 -5162 0
-5160 -5163 0
5160 5165 5162 5163 0
-5244 -5165 0
-5244 -5190 0
-5244 -5167 0
5244 5165 5190 5167 0
-5168 -5169 0
-5168 -5170 0
5168 5169 5170 0
-5203 -5172 0
-5203 -5173 0
5203 5172 5173 0
-5174 -5175 0
-5174 -5176 0
5174 5175 5176 0
-5177 -5178 0
-5177 -5284 0
-5177 -5276 0
-5177 -5181 0
5177 5178 5284 5276 5181 0
-5182 -5183 0
-5182 -5184 0
5182 5183 5184 0
-5185 -5186 0
-5185 -5240 0
5185 5186 5240 0
-5213 -5189 0
-5213 -5190 0
-5213 -5191 0
5213 5189 5190 5191 0
-5192 -5193 0
-5192 -5194 0
-5192 -5195 0
5192 5193 5194 5195 0
-5196 -5197 0
-5196 -5240 0
-5196 -5199 0
-5196 -5200 0
5196 5197 5240 5199 5200 0
-5201 -5202 0
-5201 -5203 0
-5201 -5204 0
-5201 -5284 0
5201 5202 5203 5204 5284 0
-5206 -5207 0
-5206 -5208 0
5206 5207 5208 0
-5209 -5213 0
-5209 -5211 0
5209 5213 5211 0
-5212 -5213 0
-5212 -5240 0
-5212 -5215 0
5212 5213 5240 5215 0
-5216 -5224 0
-5216 -5223 0
-5216 -5219 0
5216 5224 5223 5219 0
-5220 -5221 0
-5220 -5222 0
-5220 -5223 0
-5220 -5224 0
5220 5221 5222 5223 5224 0
-5225 -5226 0
-5225 -5227 0
-5225 -5228 0
5225 5226 5227 5228 0
-5229 -5230 0
-5229 -5231 0
-5229 -5232 0
5229 5230 5231 5232 0
-5233 -5234 0
-5233 -5235 0
-5233 -5236 0
5233 5234 5235 5236 0
-5237 -5238 0
-5237 -5239 0
-5237 -5240 0
-5237 -5241 0
5237 5238 5239 5240 5241 0
-5242 -5243 0
-5242 -5244 0
-5242 -5245 0
-5242 -5246 0
5242 5243 5244 5245 5246 0
-5247 -5248 0
-5247 -5249 0
-5247 -5250 0
-5247 -5284 0
5247 5248 5249 5250 5284 0
-5252 -5253 0
-5252 -5254 0
5252 5253 5254 0
-5256 6115 0
5256 -6115 0
-5258 6304 0
5258 -6304 0
-5260 6240 0
5260 -6240 0
-5262 6384 0
5262 -6384 0
-5264 6275 0
5264 -6275 0
-5266 6352 0
5266 -6352 0
-5268 5267 0
5268 -5267 0
-5270 5269 0
5270 -5269 0
-5272 5271 0
5272 -5271 0
-5274 5273 0
5274 -5273 0
-5276 5275 0
5276 -5275 0
-5278 5277 0
5278 -5277 0
-5280 5279 0
5280 -5279 0
-5282 5281 0
5282 -5281 0
-5284 5283 0
5284 -5283 0
-5286 5285 0
5286 -5285 0
-5288 5287 0
5288 -5287 0
-5290 5289 0
5290 -5289 0
-5292 5291 0
5292 -5291 0
-5294 5293 0
5294 -5293 0
-5296 5295 0
5296 -5295 0
-5298 5297 0
5298 -5297 0
-5300 5299 0
5300 -5299 0
-5302 5301 0
5302 -5301 0
-5304 5303 0
5304 -5303 0
-5306 5305 0
5306 -5305 0
-5308 5307 0
5308 -5307 0
-5310 5309 0
5310 -5309 0
-5312 5311 0
5312 -5311 0
6250 6361 0
-6250 -6361 0
6321 5316 0
-6321 -5316 0
5513 5516 0
-5513 -5516 0
5784 5516 0
-5784 -5516 0
6231 6289 0
-6231 -6289 0
5515 6211 0
-5515 -6211 0
6404 6211 0
-6404 -6211 0
5901 6304 0
-5901 -6304 0
6201 6240 0
-6201 -6240 0
6154 6384 0
-6154 -6384 0
5908 6071 0
-5908 -6071 0
6157 6142 0
-6157 -6142 0
6205 6275 0
-6205 -6275 0
5920 5859 0
-5920 -5859 0
6165 6234 0
-6165 -6234 0
6191 6352 0
-6191 -6352 0
6355 5894 0
-6355 -5894 0
6335 5820 0
-6335 -5820 0
6035 6042 0
-6035 -6042 0
6203 6139 0
-6203 -6139 0
6326 6113 0
-6326 -6113 0
5537 6119 0
-5537 -6119 0
6349 5905 0
-6349 -5905 0
5544 6137 0
-5544 -6137 0
6341 6140 0
-6341 -6140 0
5712 5783 0
-5712 -5783 0
5590 6146 0
-5590 -6146 0
6064 6387 0
-6064 -6387 0
5922 6318 0
-5922 -6318 0
5694 5813 0
-5694 -5813 0
6382 6158 0
-6382 -6158 0
5685 5822 0
-5685 -5822 0
6267 6220 0
-6267 -6220 0
5558 6164 0
-5558 -6164 0
5693 5831 0
-5693 -5831 0
5696 5840 0
-5696 -5840 0
6378 6170 0
-6378 -6170 0
5700 5846 0
-5700 -5846 0
5773 6176 0
-5773 -6176 0
5625 6189 0
-5625 -6189 0
5761 5872 0
-5761 -5872 0
5568 6196 0
-5568 -6196 0
5571 6202 0
-5571 -6202 0
5587 6212 0
-5587 -6212 0
5713 6493 0
-5713 -6493 0
5647 5889 0
-5647 -5889 0
6525 5896 0
-6525 -5896 0
5596 6082 0
-5596 -6082 0
6027 6419 0
-6027 -6419 0
6018 5924 0
-6018 -5924 0
6456 6048 0
-6456 -6048 0
5611 6251 0
-5611 -6251 0
5623 6257 0
-5623 -6257 0
5754 5938 0
-5754 -5938 0
5721 6260 0
-5721 -6260 0
5613 5947 0
-5613 -5947 0
6359 6028 0
-6359 -6028 0
5622 6294 0
-5622 -6294 0
5743 5959 0
-5743 -5959 0
5746 5962 0
-5746 -5962 0
5626 6297 0
-5626 -6297 0
6081 6300 0
-6081 -6300 0
6031 6303 0
-6031 -6303 0
5628 6307 0
-5628 -6307 0
6366 5965 0
-6366 -5965 0
5634 6023 0
-5634 -6023 0
6499 6320 0
-6499 -6320 0
6371 6057 0
-6371 -6057 0
6084 6313 0
-6084 -6313 0
6455 6087 0
-6455 -6087 0
5653 6343 0
-5653 -6343 0
6061 6013 0
-6061 -6013 0
6380 6316 0
-6380 -6316 0
6055 6019 0
-6055 -6019 0
5751 6322 0
-5751 -6322 0
6054 6325 0
-6054 -6325 0
6406 6328 0
-6406 -6328 0
6461 6357 0
-6461 -6357 0
5763 6360 0
-5763 -6360 0
6483 6367 0
-6483 -6367 0
6438 6051 0
-6438 -6051 0
5769 6036 0
-5769 -6036 0
6442 6039 0
-6442 -6039 0
6093 6375 0
-6093 -6375 0
5660 6389 0
-5660 -6389 0
6485 6392 0
-6485 -6392 0
6446 6400 0
-6446 -6400 0
6451 6407 0
-6451 -6407 0
6489 6411 0
-6489 -6411 0
6503 6416 0
-6503 -6416 0
5772 6421 0
-5772 -6421 0
6513 6431 0
-6513 -6431 0
6519 6435 0
-6519 -6435 0
6460 6440 0
-6460 -6440 0
6469 6444 0
-6469 -6444 0
6099 6072 0
-6099 -6072 0
6501 6452 0
-6501 -6452 0
6108 6088 0
-6108 -6088 0
6487 6467 0
-6487 -6467 0
-6180 6211 0
-6180 5513 0
6180 -6211 -5513 0
-6181 5515 0
-6181 5516 0
6181 -5515 -5516 0
-6198 6275 0
-6198 6154 0
6198 -6275 -6154 0
-6306 6361 0
-6306 6154 0
6306 -6361 -6154 0
-6213 6011 0
-6213 6211 0
-6213 6154 0
6213 -6011 -6211 -6154 0
-6390 6250 0
-6390 6227 0
6390 -6250 -6227 0
-6302 6154 0
-6302 6272 0
6302 -6154 -6272 0
-6281 6154 0
-6281 5795 0
6281 -6154 -5795 0
-6253 5537 0
-6253 5828 0
6253 -5537 -5828 0
-6259 5816 0
-6259 5849 0
6259 -5816 -5849 0
-6262 6275 0
-6262 5544 0
6262 -6275 -5544 0
-6365 6352 0
-6365 6182 0
6365 -6352 -6182 0
-6278 6154 0
-6278 5869 0
6278 -6154 -5869 0
-6338 5879 0
-6338 5861 0
6338 -5879 -5861 0
-6417 6182 0
-6417 6382 0
6417 -6182 -6382 0
-6296 5558 0
-6296 5886 0
6296 -5558 -5886 0
-6454 6493 0
-6454 6361 0
6454 -6493 -6361 0
-6344 5940 0
-6344 5889 0
6344 -5940 -5889 0
-6312 6269 0
-6312 5568 0
6312 -6269 -5568 0
-6315 6224 0
-6315 5571 0
6315 -6224 -5571 0
-6368 6115 0
-6368 6238 0
6368 -6115 -6238 0
-6468 6349 0
-6468 6113 0
-6468 6238 0
6468 -6349 -6113 -6238 0
-6369 6241 0
-6369 6149 0
6369 -6241 -6149 0
-6463 6142 0
-6463 6241 0
6463 -6142 -6241 0
-6373 6134 0
-6373 5587 0
6373 -6134 -5587 0
-6398 6263 0
-6398 5590 0
6398 -6263 -5590 0
-6364 6263 0
-6364 6248 0
6364 -6263 -6248 0
-6410 6272 0
-6410 5596 0
6410 -6272 -5596 0
-6450 6158 0
-6450 6270 0
6450 -6158 -6270 0
-6458 6270 0
-6458 6170 0
6458 -6270 -6170 0
-6443 6282 0
-6443 6248 0
6443 -6282 -6248 0
-6327 5944 0
-6327 5876 0
6327 -5944 -5876 0
-6362 5956 0
-6362 5611 0
6362 -5956 -5611 0
-6374 5613 0
-6374 6335 0
6374 -5613 -6335 0
-6412 6316 0
-6412 6309 0
6412 -6316 -6309 0
-6447 6308 0
-6447 6316 0
6447 -6308 -6316 0
-6385 5622 0
-6385 5623 0
6385 -5622 -5623 0
-6388 5625 0
-6388 5626 0
6388 -5625 -5626 0
-6391 5628 0
-6391 6215 0
6391 -5628 -6215 0
-6393 6404 0
-6393 5634 0
6393 -6404 -5634 0
-6437 5634 0
-6437 6071 0
6437 -5634 -6071 0
-6399 6499 0
-6399 6211 0
6399 -6499 -6211 0
-6401 6322 0
-6401 6078 0
-6401 6042 0
6401 -6322 -6078 -6042 0
-6426 6328 0
-6426 6209 0
6426 -6328 -6209 0
-6430 5647 0
-6430 6328 0
6430 -5647 -6328 0
-6449 5843 0
-6449 6331 0
6449 -5843 -6331 0
-6436 5653 0
-6436 6209 0
6436 -5653 -6209 0
-6423 5751 0
-6423 5990 0
6423 -5751 -5990 0
-6453 6206 0
-6453 5660 0
6453 -6206 -5660 0
5960 -6042 0
5960 -6352 0
5960 -5894 0
-5960 6042 6352 5894 0
5873 -6352 0
5873 -6116 0
-5873 6352 6116 0
6017 -6035 0
6017 -6143 0
-6017 6035 6143 0
6040 -5890 0
6040 -6355 0
-6040 5890 6355 0
5939 -6354 0
5939 -6211 0
-5939 6354 6211 0
5942 -6227 0
5942 -6199 0
-5942 6227 6199 0
5945 -6152 0
5945 -6199 0
-5945 6152 6199 0
5948 -6352 0
5948 -5685 0
-5948 6352 5685 0
5951 -6304 0
5951 -6215 0
-5951 6304 6215 0
5954 -6240 0
5954 -6218 0
-5954 6240 6218 0
5957 -5693 0
5957 -5694 0
-5957 5693 5694 0
5961 -5696 0
5961 -6354 0
-5961 5696 6354 0
5966 -6115 0
5966 -5700 0
-5966 6115 5700 0
5969 -6149 0
5969 -6232 0
-5969 6149 6232 0
6067 -6191 0
6067 -6290 0
-6067 6191 6290 0
6014 -6250 0
6014 -6304 0
6014 -6293 0
-6014 6250 6304 6293 0
6104 -5712 0
6104 -5713 0
-6104 5712 5713 0
6020 -6298 0
6020 -6271 0
-6020 6298 6271 0
6045 -6071 0
6045 -6027 0
-6045 6071 6027 0
6026 -5721 0
6026 -6191 0
-6026 5721 6191 0
6030 -6320 0
6030 -5784 0
-6030 6320 5784 0
6090 -6320 0
6090 -6071 0
-6090 6320 6071 0
6073 -5968 0
6073 -6324 0
-6073 5968 6324 0
6050 -6340 0
6050 -5861 0
-6050 6340 5861 0
6044 -5754 0
6044 -6343 0
-6044 5754 6343 0
6047 -5889 0
6047 -6348 0
-6047 5889 6348 0
6097 -5924 0
6097 -5743 0
-6097 5924 5743 0
6089 -6274 0
6089 -5746 0
-6089 6274 5746 0
6053 -6380 0
6053 -6307 0
-6053 6380 6307 0
6098 -5751 0
6098 -6173 0
-6098 5751 6173 0
6101 -5754 0
6101 -6406 0
-6101 5754 6406 0
6060 -6387 0
6060 -6372 0
-6060 6387 6372 0
6063 -6383 0
6063 -5761 0
-6063 6383 5761 0
6066 -5763 0
6066 -6286 0
-6066 5763 6286 0
6070 -6418 0
6070 -6319 0
-6070 6418 6319 0
6077 -5769 0
6077 -6350 0
-6077 5769 6350 0
6107 -5772 0
6107 -5773 0
-6107 5772 5773 0
6011 6234 0
6011 6142 0
-6011 -6234 -6142 0
5905 6144 0
5905 6289 0
-5905 -6144 -6289 0
6221 5820 0
6221 5859 0
-6221 -5820 -5859 0
5783 5784 0
5783 6250 0
-5783 -5784 -6250 0
6405 6144 0
6405 6231 0
-6405 -6144 -6231 0
6314 6240 0
6314 6113 0
-6314 -6240 -6113 0
6272 6250 0
6272 5901 0
-6272 -6250 -5901 0
5795 6148 0
5795 5901 0
-5795 -6148 -5901 0
6292 5901 0
6292 6115 0
-6292 -5901 -6115 0
6223 6201 0
6223 5803 0
-6223 -6201 -5803 0
6387 6201 0
6387 6115 0
-6387 -6201 -6115 0
6269 6154 0
6269 6352 0
-6269 -6154 -6352 0
6318 6154 0
6318 6201 0
-6318 -6154 -6201 0
5813 6157 0
5813 5820 0
-5813 -6157 -5820 0
5816 6205 0
5816 6361 0
-5816 -6205 -6361 0
6377 5820 0
6377 5920 0
-6377 -5820 -5920 0
5822 6116 0
5822 6011 0
-5822 -6116 -6011 0
6220 6165 0
6220 6157 0
-6220 -6165 -6157 0
5828 6165 0
5828 6144 0
-5828 -6165 -6144 0
5831 6165 0
5831 5920 0
-5831 -6165 -5920 0
6334 6361 0
6334 6165 0
-6334 -6361 -6165 0
6224 6227 0
6224 6384 0
-6224 -6227 -6384 0
5840 6191 0
5840 6042 0
-5840 -6191 -6042 0
5843 6347 0
5843 6042 0
-5843 -6347 -6042 0
5846 5901 0
5846 5905 0
-5846 -5901 -5905 0
5849 6211 0
5849 5905 0
-5849 -6211 -5905 0
6230 6275 0
6230 6134 0
-6230 -6275 -6134 0
5890 6335 0
5890 5920 0
-5890 -6335 -5920 0
6354 5859 0
6354 6335 0
-6354 -5859 -6335 0
5861 6404 0
5861 6355 0
5861 6140 0
5861 6042 0
-5861 -6404 -6355 -6140 -6042 0
5940 6143 0
5940 6211 0
-5940 -6143 -6211 0
5869 6221 0
5869 6272 0
-5869 -6221 -6272 0
5872 5873 0
5872 6205 0
5872 6221 0
-5872 -5873 -6205 -6221 0
5876 6152 0
5876 6223 0
-5876 -6152 -6223 0
5879 6231 0
5879 6155 0
5879 6211 0
-5879 -6231 -6155 -6211 0
6239 6158 0
6239 6384 0
-6239 -6158 -6384 0
5886 6220 0
5886 6352 0
-5886 -6220 -6352 0
5889 5890 0
5889 6404 0
5889 6221 0
-5889 -5890 -6404 -6221 0
6078 5894 0
6078 6354 0
-6078 -5894 -6354 0
5896 6182 0
5896 6227 0
-5896 -6182 -6227 0
6268 6193 0
6268 5901 0
-6268 -6193 -5901 0
6082 6191 0
6082 6193 0
6082 5905 0
-6082 -6191 -6193 -5905 0
6271 6064 0
6271 5908 0
-6271 -6064 -5908 0
6274 6064 0
6274 6304 0
-6274 -6064 -6304 0
6284 6170 0
6284 6064 0
-6284 -6170 -6064 0
6286 6064 0
6286 6125 0
-6286 -6064 -6125 0
6290 6206 0
6290 5920 0
-6290 -6206 -5920 0
6293 5922 0
6293 6227 0
-6293 -5922 -6227 0
5924 6215 0
5924 6205 0
5924 6206 0
-5924 -6215 -6205 -6206 0
6048 6185 0
6048 6201 0
6048 6218 0
-6048 -6185 -6201 -6218 0
6298 6226 0
6298 6384 0
-6298 -6226 -6384 0
6305 6064 0
6305 6226 0
-6305 -6064 -6226 0
5938 5939 0
5938 5940 0
-5938 -5939 -5940 0
6068 5942 0
6068 6113 0
-6068 -5942 -6113 0
5944 5945 0
5944 6275 0
-5944 -5945 -6275 0
5947 5948 0
5947 6205 0
-5947 -5948 -6205 0
6317 5951 0
6317 6115 0
-6317 -5951 -6115 0
6028 5954 0
6028 6185 0
-6028 -5954 -6185 0
5956 5957 0
5956 6404 0
-5956 -5957 -6404 0
5959 5960 0
5959 5961 0
-5959 -5960 -5961 0
5962 6298 0
5962 6230 0
-5962 -6298 -6230 0
5965 5966 0
5965 6238 0
-5965 -5966 -6238 0
5968 5969 0
5968 6205 0
-5968 -5969 -6205 0
6023 6154 0
6023 6250 0
6023 6263 0
-6023 -6154 -6250 -6263 0
6320 6125 0
6320 6273 0
-6320 -6125 -6273 0
6109 6352 0
6109 6273 0
6109 6335 0
-6109 -6352 -6273 -6335 0
6057 6149 0
6057 6154 0
6057 6282 0
-6057 -6149 -6154 -6282 0
6324 6285 0
6324 6157 0
6324 6143 0
-6324 -6285 -6157 -6143 0
5990 6035 0
5990 6285 0
5990 6215 0
-5990 -6035 -6285 -6215 0
6087 6267 0
6087 6465 0
6087 6228 0
-6087 -6267 -6465 -6228 0
6332 6291 0
6332 6157 0
-6332 -6291 -6157 0
6340 6291 0
6340 6165 0
6340 6144 0
-6340 -6291 -6165 -6144 0
6343 6165 0
6343 6291 0
6343 6155 0
-6343 -6165 -6291 -6155 0
6348 6250 0
6348 6011 0
6348 6291 0
-6348 -6250 -6011 -6291 0
6013 6014 0
6013 6068 0
-6013 -6014 -6068 0
6356 6017 0
6356 6018 0
-6356 -6017 -6018 0
6019 6020 0
6019 6048 0
-6019 -6020 -6048 0
6505 6023 0
6505 6320 0
-6505 -6023 -6320 0
6475 6026 0
6475 6027 0
6475 6028 0
-6475 -6026 -6027 -6028 0
6497 6030 0
6497 6031 0
-6497 -6030 -6031 0
6051 6331 0
6051 6422 0
6051 6035 0
-6051 -6331 -6422 -6035 0
6036 6339 0
6036 6211 0
-6036 -6339 -6211 0
6039 6040 0
6039 6339 0
6039 6042 0
-6039 -6040 -6339 -6042 0
6409 6044 0
6409 6045 0
-6409 -6044 -6045 0
6415 6047 0
6415 6048 0
-6415 -6047 -6048 0
6527 6050 0
6527 6051 0
-6527 -6050 -6051 0
6477 6053 0
6477 6054 0
6477 6055 0
-6477 -6053 -6054 -6055 0
6495 6057 0
6495 6397 0
-6495 -6057 -6397 0
6507 6060 0
6507 6061 0
-6507 -6060 -6061 0
6080 6063 0
6080 6064 0
-6080 -6063 -6064 0
6509 6066 0
6509 6067 0
6509 6068 0
-6509 -6066 -6067 -6068 0
6085 6070 0
6085 6071 0
-6085 -6070 -6071 0
6072 6073 0
6072 6084 0
6072 6427 0
-6072 -6073 -6084 -6427 0
6091 6077 0
6091 6078 0
-6091 -6077 -6078 0
6464 6080 0
6464 6081 0
6464 6082 0
-6464 -6080 -6081 -6082 0
6517 6084 0
6517 6085 0
6517 6424 0
6517 6087 0
-6517 -6084 -6085 -6424 -6087 0
6088 6089 0
6088 6090 0
6088 6091 0
-6088 -6089 -6090 -6091 0
6479 6093 0
6479 6363 0
6479 6448 0
-6479 -6093 -6363 -6448 0
6511 6097 0
6511 6098 0
6511 6099 0
-6511 -6097 -6098 -6099 0
6481 6101 0
6481 6457 0
-6481 -6101 -6457 0
6471 6104 0
6471 6462 0
-6471 -6104 -6462 0
6473 6107 0
6473 6108 0
6473 6109 0
-6473 -6107 -6108 -6109 0
-6148 -6361 0
-6148 -6211 0
6148 6361 6211 0
-6113 -6304 0
-6113 -6115 0
6113 6304 6115 0
-6116 -6211 0
-6116 -6384 0
6116 6211 6384 0
-6119 -6142 0
-6119 -6289 0
6119 6142 6289 0
-6227 -6352 0
-6227 -6275 0
6227 6352 6275 0
-6125 -6384 0
-6125 -6352 0
6125 6384 6352 0
-6523 -6234 0
-6523 -6247 0
6523 6234 6247 0
-6347 -6144 0
-6347 -6289 0
6347 6144 6289 0
-6134 -6352 0
-6134 -6144 0
6134 6352 6144 0
-6137 -6384 0
-6137 -6139 0
6137 6384 6139 0
-6140 -6250 0
-6140 -6142 0
6140 6250 6142 0
-6143 -6144 0
-6143 -6231 0
6143 6144 6231 0
-6146 -6384 0
-6146 -6148 0
6146 6384 6148 0
-6149 -6361 0
-6149 -6404 0
6149 6361 6404 0
-6152 -6352 0
-6152 -6154 0
6152 6352 6154 0
-6155 -6361 0
-6155 -6157 0
6155 6361 6157 0
-6158 -6352 0
-6158 -6205 0
6158 6352 6205 0
-6521 -6165 0
-6521 -6247 0
6521 6165 6247 0
-6164 -6165 0
-6164 -6205 0
6164 6165 6205 0
-6228 -6205 0
-6228 -6191 0
6228 6205 6191 0
-6170 -6191 0
-6170 -6275 0
6170 6191 6275 0
-6173 -6275 0
-6173 -6355 0
6173 6275 6355 0
-6176 -6335 0
-6176 -6275 0
6176 6335 6275 0
-6422 -6180 0
-6422 -6181 0
6422 6180 6181 0
-6182 -6314 0
-6182 -6384 0
6182 6314 6384 0
-6185 -6275 0
-6185 -6326 0
-6185 -6384 0
6185 6275 6326 6384 0
-6189 -6272 0
-6189 -6191 0
-6189 -6275 0
6189 6272 6191 6275 0
-6193 -6387 0
-6193 -6205 0
6193 6387 6205 0
-6196 -6352 0
-6196 -6198 0
6196 6352 6198 0
-6199 -6269 0
-6199 -6201 0
6199 6269 6201 0
-6202 -6203 0
-6202 -6269 0
-6202 -6205 0
6202 6203 6269 6205 0
-6206 -6292 0
-6206 -6318 0
6206 6292 6318 0
-6209 -6377 0
-6209 -6211 0
6209 6377 6211 0
-6212 -6213 0
-6212 -6275 0
6212 6213 6275 0
-6215 -6220 0
-6215 -6250 0
6215 6220 6250 0
-6218 -6352 0
-6218 -6220 0
-6218 -6221 0
6218 6352 6220 6221 0
-6493 -6223 0
-6493 -6224 0
-6493 -6326 0
6493 6223 6224 6326 0
-6226 -6227 0
-6226 -6228 0
6226 6227 6228 0
-6308 -6230 0
-6308 -6231 0
6308 6230 6231 0
-6232 -6354 0
-6232 -6234 0
6232 6354 6234 0
-6419 -6239 0
-6419 -6314 0
6419 6239 6314 0
-6238 -6239 0
-6238 -6240 0
6238 6239 6240 0
-6241 -6304 0
-6241 -6382 0
-6241 -6387 0
6241 6304 6382 6387 0
-6515 -6267 0
-6515 -6247 0
6515 6267 6247 0
-6248 -6267 0
-6248 -6250 0
6248 6267 6250 0
-6251 -6404 0
-6251 -6253 0
6251 6404 6253 0
-6309 -6378 0
-6309 -6354 0
6309 6378 6354 0
-6257 -6352 0
-6257 -6259 0
6257 6352 6259 0
-6260 -6314 0
-6260 -6262 0
6260 6314 6262 0
-6263 -6352 0
-6263 -6268 0
6263 6352 6268 0
-6408 -6267 0
-6408 -6268 0
-6408 -6269 0
6408 6267 6268 6269 0
-6270 -6271 0
-6270 -6272 0
6270 6271 6272 0
-6273 -6274 0
-6273 -6275 0
6273 6274 6275 0
-6441 -6284 0
-6441 -6278 0
6441 6284 6278 0
-6396 -6284 0
-6396 -6281 0
6396 6284 6281 0
-6282 -6304 0
-6282 -6284 0
6282 6304 6284 0
-6285 -6286 0
-6285 -6304 0
6285 6286 6304 0
-6465 -6289 0
-6465 -6290 0
6465 6289 6290 0
-6291 -6292 0
-6291 -6293 0
6291 6292 6293 0
-6294 -6304 0
-6294 -6296 0
6294 6304 6296 0
-6297 -6298 0
-6297 -6304 0
6297 6298 6304 0
-6300 -6305 0
-6300 -6302 0
6300 6305 6302 0
-6303 -6304 0
-6303 -6305 0
-6303 -6306 0
6303 6304 6305 6306 0
-6307 -6308 0
-6307 -6309 0
6307 6308 6309 0
-6491 -6314 0
-6491 -6312 0
6491 6314 6312 0
-6313 -6314 0
-6313 -6315 0
6313 6314 6315 0
-6316 -6317 0
-6316 -6318 0
6316 6317 6318 0
-6319 -6320 0
-6319 -6321 0
6319 6320 6321 0
-6322 -6334 0
-6322 -6324 0
6322 6334 6324 0
-6325 -6326 0
-6325 -6327 0
6325 6326 6327 0
-6328 -6332 0
-6328 -6361 0
6328 6332 6361 0
-6331 -6332 0
-6331 -6355 0
-6331 -6334 0
-6331 -6335 0
6331 6332 6355 6334 6335 0
-6439 -6340 0
-6439 -6338 0
6439 6340 6338 0
-6339 -6340 0
-6339 -6341 0
6339 6340 6341 0
-6434 -6343 0
-6434 -6344 0
6434 6343 6344 0
-6445 -6404 0
-6445 -6347 0
-6445 -6348 0
-6445 -6349 0
6445 6404 6347 6348 6349 0
-6350 -6356 0
-6350 -6352 0
6350 6356 6352 0
-6414 -6354 0
-6414 -6355 0
-6414 -6356 0
6414 6354 6355 6356 0
-6357 -6408 0
-6357 -6359 0
6357 6408 6359 0
-6360 -6361 0
-6360 -6362 0
6360 6361 6362 0
-6363 -6364 0
-6363 -6365 0
-6363 -6366 0
6363 6364 6365 6366 0
-6367 -6368 0
-6367 -6369 0
-6367 -6499 0
-6367 -6371 0
6367 6368 6369 6499 6371 0
-6372 -6373 0
-6372 -6374 0
6372 6373 6374 0
-6375 -6380 0
-6375 -6377 0
-6375 -6378 0
6375 6380 6377 6378 0
-6459 -6380 0
-6459 -6405 0
-6459 -6382 0
6459 6380 6405 6382 0
-6383 -6384 0
-6383 -6385 0
6383 6384 6385 0
-6418 -6387 0
-6418 -6388 0
6418 6387 6388 0
-6389 -6390 0
-6389 -6391 0
6389 6390 6391 0
-6392 -6393 0
-6392 -6499 0
-6392 -6491 0
-6392 -6396 0
6392 6393 6499 6491 6396 0
-6397 -6398 0
-6397 -6399 0
6397 6398 6399 0
-6400 -6401 0
-6400 -6455 0
6400 6401 6455 0
-6428 -6404 0
-6428 -6405 0
-6428 -6406 0
6428 6404 6405 6406 0
-6407 -6408 0
-6407 -6409 0
-6407 -6410 0
6407 6408 6409 6410 0
-6411 -6412 0
-6411 -6455 0
-6411 -6414 0
-6411 -6415 0
6411 6412 6455 6414 6415 0
-6416 -6417 0
-6416 -6418 0
-6416 -6419 0
-6416 -6499 0
6416 6417 6418 6419 6499 0
-6421 -6422 0
-6421 -6423 0
6421 6422 6423 0
-6424 -6428 0
-6424 -6426 0
6424 6428 6426 0
-6427 -6428 0
-6427 -6455 0
-6427 -6430 0
6427 6428 6455 6430 0
-6431 -6439 0
-6431 -6438 0
-6431 -6434 0
6431 6439 6438 6434 0
-6435 -6436 0
-6435 -6437 0
-6435 -6438 0
-6435 -6439 0
6435 6436 6437 6438 6439 0
-6440 -6441 0
-6440 -6442 0
-6440 -6443 0
6440 6441 6442 6443 0
-6444 -6445 0
-6444 -6446 0
-6444 -6447 0
6444 6445 6446 6447 0
-6448 -6449 0
-6448 -6450 0
-6448 -6451 0
6448 6449 6450 6451 0
-6452 -6453 0
-6452 -6454 0
-6452 -6455 0
-6452 -6456 0
6452 6453 6454 6455 6456 0
-6457 -6458 0
-6457 -6459 0
-6457 -6460 0
-6457 -6461 0
6457 6458 6459 6460 6461 0
-6462 -6463 0
-6462 -6464 0
-6462 -6465 0
-6462 -6499 0
6462 6463 6464 6465 6499 0
-6467 -6468 0
-6467 -6469 0
6467 6468 6469 0
-6471 7330 0
6471 -7330 0
-6473 7519 0
6473 -7519 0
-6475 7455 0
6475 -7455 0
-6477 7599 0
6477 -7599 0
-6479 7490 0
6479 -7490 0
-6481 7567 0
6481 -7567 0
-6483 6482 0
6483 -6482 0
-6485 6484 0
6485 -6484 0
-6487 6486 0
6487 -6486 0
-6489 6488 0
6489 -6488 0
-6491 6490 0
6491 -6490 0
-6493 6492 0
6493 -6492 0
-6495 6494 0
6495 -6494 0
-6497 6496 0
6497 -6496 0
-6499 6498 0
6499 -6498 0
-6501 6500 0
6501 -6500 0
-6503 6502 0
6503 -6502 0
-6505 6504 0
6505 -6504 0
-6507 6506 0
6507 -6506 0
-6509 6508 0
6509 -6508 0
-6511 6510 0
6511 -6510 0
-6513 6512 0
6513 -6512 0
-6515 6514 0
6515 -6514 0
-6517 6516 0
6517 -6516 0
-6519 6518 0
6519 -6518 0
-6521 6520 0
6521 -6520 0
-6523 6522 0
6523 -6522 0
-6525 6524 0
6525 -6524 0
-6527 6526 0
6527 -6526 0
7465 7576 0
-7465 -7576 0
7536 6531 0
-7536 -6531 0
6728 6731 0
-6728 -6731 0
6999 6731 0
-6999 -6731 0
7446 7504 0
-7446 -7504 0
6730 7426 0
-6730 -7426 0
7619 7426 0
-7619 -7426 0
7116 7519 0
-7116 -7519 0
7416 7455 0
-7416 -7455 0
7369 7599 0
-7369 -7599 0
7123 7286 0
-7123 -7286 0
7372 7357 0
-7372 -7357 0
7420 7490 0
-7420 -7490 0
7135 7074 0
-7135 -7074 0
7380 7449 0
-7380 -7449 0
7406 7567 0
-7406 -7567 0
7570 7109 0
-7570 -7109 0
7550 7035 0
-7550 -7035 0
7250 7257 0
-7250 -7257 0
7418 7354 0
-7418 -7354 0
7541 7328 0
-7541 -7328 0
6752 7334 0
-6752 -7334 0
7564 7120 0
-7564 -7120 0
6759 7352 0
-6759 -7352 0
7556 7355 0
-7556 -7355 0
6927 6998 0
-6927 -6998 0
6805 7361 0
-6805 -7361 0
7279 7602 0
-7279 -7602 0
7137 7533 0
-7137 -7533 0
6909 7028 0
-6909 -7028 0
7597 7373 0
-7597 -7373 0
6900 7037 0
-6900 -7037 0
7482 7435 0
-7482 -7435 0
6773 7379 0
-6773 -7379 0
6908 7046 0
-6908 -7046 0
6911 7055 0
-6911 -7055 0
7593 7385 0
-7593 -7385 0
6915 7061 0
-6915 -7061 0
6988 7391 0
-6988 -7391 0
6840 7404 0
-6840 -7404 0
6976 7087 0
-6976 -7087 0
6783 7411 0
-6783 -7411 0
6786 7417 0
-6786 -7417 0
6802 7427 0
-6802 -7427 0
6928 7708 0
-6928 -7708 0
6862 7104 0
-6862 -7104 0
7740 7111 0
-7740 -7111 0
6811 7297 0
-6811 -7297 0
7242 7634 0
-7242 -7634 0
7233 7139 0
-7233 -7139 0
7671 7263 0
-7671 -7263 0
6826 7466 0
-6826 -7466 0
6838 7472 0
-6838 -7472 0
6969 7153 0
-6969 -7153 0
6936 7475 0
-6936 -7475 0
6828 7162 0
-6828 -7162 0
7574 7243 0
-7574 -7243 0
6837 7509 0
-6837 -7509 0
6958 7174 0
-6958 -7174 0
6961 7177 0
-6961 -7177 0
6841 7512 0
-6841 -7512 0
7296 7515 0
-7296 -7515 0
7246 7518 0
-7246 -7518 0
6843 7522 0
-6843 -7522 0
7581 7180 0
-7581 -7180 0
6849 7238 0
-6849 -7238 0
7714 7535 0
-7714 -7535 0
7586 7272 0
-7586 -7272 0
7299 7528 0
-7299 -7528 0
7670 7302 0
-7670 -7302 0
6868 7558 0
-6868 -7558 0
7276 7228 0
-7276 -7228 0
7595 7531 0
-7595 -7531 0
7270 7234 0
-7270 -7234 0
6966 7537 0
-6966 -7537 0
7269 7540 0
-7269 -7540 0
7621 7543 0
-7621 -7543 0
7676 7572 0
-7676 -7572 0
6978 7575 0
-6978 -7575 0
7698 7582 0
-7698 -7582 0
7653 7266 0
-7653 -7266 0
6984 7251 0
-6984 -7251 0
7657 7254 0
-7657 -7254 0
7308 7590 0
-7308 -7590 0
6875 7604 0
-6875 -7604 0
7700 7607 0
-7700 -7607 0
7661 7615 0
-7661 -7615 0
7666 7622 0
-7666 -7622 0
7704 7626 0
-7704 -7626 0
7718 7631 0
-7718 -7631 0
6987 7636 0
-6987 -7636 0
7728 7646 0
-7728 -7646 0
7734 7650 0
-7734 -7650 0
7675 7655 0
-7675 -7655 0
7684 7659 0
-7684 -7659 0
7314 7287 0
-7314 -7287 0
7716 7667 0
-7716 -7667 0
7323 7303 0
-7323 -7303 0
7702 7682 0
-7702 -7682 0
-7395 7426 0
-7395 6728 0
7395 -7426 -6728 0
-7396 6730 0
-7396 6731 0
7396 -6730 -6731 0
-7413 7490 0
-7413 7369 0
7413 -7490 -7369 0
-7521 7576 0
-7521 7369 0
7521 -7576 -7369 0
-7428 7226 0
-7428 7426 0
-7428 7369 0
7428 -7226 -7426 -7369 0
-7605 7465 0
-7605 7442 0
7605 -7465 -7442 0
-7517 7369 0
-7517 7487 0
7517 -7369 -7487 0
-7496 7369 0
-7496 7010 0
7496 -7369 -7010 0
-7468 6752 0
-7468 7043 0
7468 -6752 -7043 0
-7474 7031 0
-7474 7064 0
7474 -7031 -7064 0
-7477 7490 0
-7477 6759 0
7477 -7490 -6759 0
-7580 7567 0
-7580 7397 0
7580 -7567 -7397 0
-7493 7369 0
-7493 7084 0
7493 -7369 -7084 0
-7553 7094 0
-7553 7076 0
7553 -7094 -7076 0
-7632 7397 0
-7632 7597 0
7632 -7397 -7597 0
-7511 6773 0
-7511 7101 0
7511 -6773 -7101 0
-7669 7708 0
-7669 7576 0
7669 -7708 -7576 0
-7559 7155 0
-7559 7104 0
7559 -7155 -7104 0
-7527 7484 0
-7527 6783 0
7527 -7484 -6783 0
-7530 7439 0
-7530 6786 0
7530 -7439 -6786 0
-7583 7330 0
-7583 7453 0
7583 -7330 -7453 0
-7683 7564 0
-7683 7328 0
-7683 7453 0
7683 -7564 -7328 -7453 0
-7584 7456 0
-7584 7364 0
7584 -7456 -7364 0
-7678 7357 0
-7678 7456 0
7678 -7357 -7456 0
-7588 7349 0
-7588 6802 0
7588 -7349 -6802 0
-7613 7478 0
-7613 6805 0
7613 -7478 -6805 0
-7579 7478 0
-7579 7463 0
7579 -7478 -7463 0
-7625 7487 0
-7625 6811 0
7625 -7487 -6811 0
-7665 7373 0
-7665 7485 0
7665 -7373 -7485 0
-7673 7485 0
-7673 7385 0
7673 -7485 -7385 0
-7658 7497 0
-7658 7463 0
7658 -7497 -7463 0
-7542 7159 0
-7542 7091 0
7542 -7159 -7091 0
-7577 7171 0
-7577 6826 0
7577 -7171 -6826 0
-7589 6828 0
-7589 7550 0
7589 -6828 -7550 0
-7627 7531 0
-7627 7524 0
7627 -7531 -7524 0
-7662 7523 0
-7662 7531 0
7662 -7523 -7531 0
-7600 6837 0
-7600 6838 0
7600 -6837 -6838 0
-7603 6840 0
-7603 6841 0
7603 -6840 -6841 0
-7606 6843 0
-7606 7430 0
7606 -6843 -7430 0
-7608 7619 0
-7608 6849 0
7608 -7619 -6849 0
-7652 6849 0
-7652 7286 0
7652 -6849 -7286 0
-7614 7714 0
-7614 7426 0
7614 -7714 -7426 0
-7616 7537 0
-7616 7293 0
-7616 7257 0
7616 -7537 -7293 -7257 0
-7641 7543 0
-7641 7424 0
7641 -7543 -7424 0
-7645 6862 0
-7645 7543 0
7645 -6862 -7543 0
-7664 7058 0
-7664 7546 0
7664 -7058 -7546 0
-7651 6868 0
-7651 7424 0
7651 -6868 -7424 0
-7638 6966 0
-7638 7205 0
7638 -6966 -7205 0
-7668 7421 0
-7668 6875 0
7668 -7421 -6875 0
7175 -7257 0
7175 -7567 0
7175 -7109 0
-7175 7257 7567 7109 0
7088 -7567 0
7088 -7331 0
-7088 7567 7331 0
7232 -7250 0
7232 -7358 0
-7232 7250 7358 0
7255 -7105 0
7255 -7570 0
-7255 7105 7570 0
7154 -7569 0
7154 -7426 0
-7154 7569 7426 0
7157 -7442 0
7157 -7414 0
-7157 7442 7414 0
7160 -7367 0
7160 -7414 0
-7160 7367 7414 0
7163 -7567 0
7163 -6900 0
-7163 7567 6900 0
7166 -7519 0
7166 -7430 0
-7166 7519 7430 0
7169 -7455 0
7169 -7433 0
-7169 7455 7433 0
7172 -6908 0
7172 -6909 0
-7172 6908 6909 0
7176 -6911 0
7176 -7569 0
-7176 6911 7569 0
7181 -7330 0
7181 -6915 0
-7181 7330 6915 0
7184 -7364 0
7184 -7447 0
-7184 7364 7447 0
7282 -7406 0
7282 -7505 0
-7282 7406 7505 0
7229 -7465 0
7229 -7519 0
7229 -7508 0
-7229 7465 7519 7508 0
7319 -6927 0
7319 -6928 0
-7319 6927 6928 0
7235 -7513 0
7235 -7486 0
-7235 7513 7486 0
7260 -7286 0
7260 -7242 0
-7260 7286 7242 0
7241 -6936 0
7241 -7406 0
-7241 6936 7406 0
7245 -7535 0
7245 -6999 0
-7245 7535 6999 0
7305 -7535 0
7305 -7286 0
-7305 7535 7286 0
7288 -7183 0
7288 -7539 0
-7288 7183 7539 0
7265 -7555 0
7265 -7076 0
-7265 7555 7076 0
7259 -6969 0
7259 -7558 0
-7259 6969 7558 0
7262 -7104 0
7262 -7563 0
-7262 7104 7563 0
7312 -7139 0
7312 -6958 0
-7312 7139 6958 0
7304 -7489 0
7304 -6961 0
-7304 7489 6961 0
7268 -7595 0
7268 -7522 0
-7268 7595 7522 0
7313 -6966 0
7313 -7388 0
-7313 6966 7388 0
7316 -6969 0
7316 -7621 0
-7316 6969 7621 0
7275 -7602 0
7275 -7587 0
-7275 7602 7587 0
7278 -7598 0
7278 -6976 0
-7278 7598 6976 0
7281 -6978 0
7281 -7501 0
-7281 6978 7501 0
7285 -7633 0
7285 -7534 0
-7285 7633 7534 0
7292 -6984 0
7292 -7565 0
-7292 6984 7565 0
7322 -6987 0
7322 -6988 0
-7322 6987 6988 0
7226 7449 0
7226 7357 0
-7226 -7449 -7357 0
7120 7359 0
7120 7504 0
-7120 -7359 -7504 0
7436 7035 0
7436 7074 0
-7436 -7035 -7074 0
6998 6999 0
6998 7465 0
-6998 -6999 -7465 0
7620 7359 0
7620 7446 0
-7620 -7359 -7446 0
7529 7455 0
7529 7328 0
-7529 -7455 -7328 0
7487 7465 0
7487 7116 0
-7487 -7465 -7116 0
7010 7363 0
7010 7116 0
-7010 -7363 -7116 0
7507 7116 0
7507 7330 0
-7507 -7116 -7330 0
7438 7416 0
7438 7018 0
-7438 -7416 -7018 0
7602 7416 0
7602 7330 0
-7602 -7416 -7330 0
7484 7369 0
7484 7567 0
-7484 -7369 -7567 0
7533 7369 0
7533 7416 0
-7533 -7369 -7416 0
7028 7372 0
7028 7035 0
-7028 -7372 -7035 0
7031 7420 0
7031 7576 0
-7031 -7420 -7576 0
7592 7035 0
7592 7135 0
-7592 -7035 -7135 0
7037 7331 0
7037 7226 0
-7037 -7331 -7226 0
7435 7380 0
7435 7372 0
-7435 -7380 -7372 0
7043 7380 0
7043 7359 0
-7043 -7380 -7359 0
7046 7380 0
7046 7135 0
-7046 -7380 -7135 0
7549 7576 0
7549 7380 0
-7549 -7576 -7380 0
7439 7442 0
7439 7599 0
-7439 -7442 -7599 0
7055 7406 0
7055 7257 0
-7055 -7406 -7257 0
7058 7562 0
7058 7257 0
-7058 -7562 -7257 0
7061 7116 0
7061 7120 0
-7061 -7116 -7120 0
7064 7426 0
7064 7120 0
-7064 -7426 -7120 0
7445 7490 0
7445 7349 0
-7445 -7490 -7349 0
7105 7550 0
7105 7135 0
-7105 -7550 -7135 0
7569 7074 0
7569 7550 0
-7569 -7074 -7550 0
7076 7619 0
7076 7570 0
7076 7355 0
7076 7257 0
-7076 -7619 -7570 -7355 -7257 0
7155 7358 0
7155 7426 0
-7155 -7358 -7426 0
7084 7436 0
7084 7487 0
-7084 -7436 -7487 0
7087 7088 0
7087 7420 0
7087 7436 0
-7087 -7088 -7420 -7436 0
7091 7367 0
7091 7438 0
-7091 -7367 -7438 0
7094 7446 0
7094 7370 0
7094 7426 0
-7094 -7446 -7370 -7426 0
7454 7373 0
7454 7599 0
-7454 -7373 -7599 0
7101 7435 0
7101 7567 0
-7101 -7435 -7567 0
7104 7105 0
7104 7619 0
7104 7436 0
-7104 -7105 -7619 -7436 0
7293 7109 0
7293 7569 0
-7293 -7109 -7569 0
7111 7397 0
7111 7442 0
-7111 -7397 -7442 0
7483 7408 0
7483 7116 0
-7483 -7408 -7116 0
7297 7406 0
7297 7408 0
7297 7120 0
-7297 -7406 -7408 -7120 0
7486 7279 0
7486 7123 0
-7486 -7279 -7123 0
7489 7279 0
7489 7519 0
-7489 -7279 -7519 0
7499 7385 0
7499 7279 0
-7499 -7385 -7279 0
7501 7279 0
7501 7340 0
-7501 -7279 -7340 0
7505 7421 0
7505 7135 0
-7505 -7421 -7135 0
7508 7137 0
7508 7442 0
-7508 -7137 -7442 0
7139 7430 0
7139 7420 0
7139 7421 0
-7139 -7430 -7420 -7421 0
7263 7400 0
7263 7416 0
7263 7433 0
-7263 -7400 -7416 -7433 0
7513 7441 0
7513 7599 0
-7513 -7441 -7599 0
7520 7279 0
7520 7441 0
-7520 -7279 -7441 0
7153 7154 0
7153 7155 0
-7153 -7154 -7155 0
7283 7157 0
7283 7328 0
-7283 -7157 -7328 0
7159 7160 0
7159 7490 0
-7159 -7160 -7490 0
7162 7163 0
7162 7420 0
-7162 -7163 -7420 0
7532 7166 0
7532 7330 0
-7532 -7166 -7330 0
7243 7169 0
7243 7400 0
-7243 -7169 -7400 0
7171 7172 0
7171 7619 0
-7171 -7172 -7619 0
7174 7175 0
7174 7176 0
-7174 -7175 -7176 0
7177 7513 0
7177 7445 0
-7177 -7513 -7445 0
7180 7181 0
7180 7453 0
-7180 -7181 -7453 0
7183 7184 0
7183 7420 0
-7183 -7184 -7420 0
7238 7369 0
7238 7465 0
7238 7478 0
-7238 -7369 -7465 -7478 0
7535 7340 0
7535 7488 0
-7535 -7340 -7488 0
7324 7567 0
7324 7488 0
7324 7550 0
-7324 -7567 -7488 -7550 0
7272 7364 0
7272 7369 0
7272 7497 0
-7272 -7364 -7369 -7497 0
7539 7500 0
7539 7372 0
7539 7358 0
-7539 -7500 -7372 -7358 0
7205 7250 0
7205 7500 0
7205 7430 0
-7205 -7250 -7500 -7430 0
7302 7482 0
7302 7680 0
7302 7443 0
-7302 -7482 -7680 -7443 0
7547 7506 0
7547 7372 0
-7547 -7506 -7372 0
7555 7506 0
7555 7380 0
7555 7359 0
-7555 -7506 -7380 -7359 0
7558 7380 0
7558 7506 0
7558 7370 0
-7558 -7380 -7506 -7370 0
7563 7465 0
7563 7226 0
7563 7506 0
-7563 -7465 -7226 -7506 0
7228 7229 0
7228 7283 0
-7228 -7229 -7283 0
7571 7232 0
7571 7233 0
-7571 -7232 -7233 0
7234 7235 0
7234 7263 0
-7234 -7235 -7263 0
7720 7238 0
7720 7535 0
-7720 -7238 -7535 0
7690 7241 0
7690 7242 0
7690 7243 0
-7690 -7241 -7242 -7243 0
7712 7245 0
7712 7246 0
-7712 -7245 -7246 0
7266 7546 0
7266 7637 0
7266 7250 0
-7266 -7546 -7637 -7250 0
7251 7554 0
7251 7426 0
-7251 -7554 -7426 0
7254 7255 0
7254 7554 0
7254 7257 0
-7254 -7255 -7554 -7257 0
7624 7259 0
7624 7260 0
-7624 -7259 -7260 0
7630 7262 0
7630 7263 0
-7630 -7262 -7263 0
7742 7265 0
7742 7266 0
-7742 -7265 -7266 0
7692 7268 0
7692 7269 0
7692 7270 0
-7692 -7268 -7269 -7270 0
7710 7272 0
7710 7612 0
-7710 -7272 -7612 0
7722 7275 0
7722 7276 0
-7722 -7275 -7276 0
7295 7278 0
7295 7279 0
-7295 -7278 -7279 0
7724 7281 0
7724 7282 0
7724 7283 0
-7724 -7281 -7282 -7283 0
7300 7285 0
7300 7286 0
-7300 -7285 -7286 0
7287 7288 0
7287 7299 0
7287 7642 0
-7287 -7288 -7299 -7642 0
7306 7292 0
7306 7293 0
-7306 -7292 -7293 0
7679 7295 0
7679 7296 0
7679 7297 0
-7679 -7295 -7296 -7297 0
7732 7299 0
7732 7300 0
7732 7639 0
7732 7302 0
-7732 -7299 -7300 -7639 -7302 0
7303 7304 0
7303 7305 0
7303 7306 0
-7303 -7304 -7305 -7306 0
7694 7308 0
7694 7578 0
7694 7663 0
-7694 -7308 -7578 -7663 0
7726 7312 0
7726 7313 0
7726 7314 0
-7726 -7312 -7313 -7314 0
7696 7316 0
7696 7672 0
-7696 -7316 -7672 0
7686 7319 0
7686 7677 0
-7686 -7319 -7677 0
7688 7322 0
7688 7323 0
7688 7324 0
-7688 -7322 -7323 -7324 0
-7363 -7576 0
-7363 -7426 0
7363 7576 7426 0
-7328 -7519 0
-7328 -7330 0
7328 7519 7330 0
-7331 -7426 0
-7331 -7599 0
7331 7426 7599 0
-7334 -7357 0
-7334 -7504 0
7334 7357 7504 0
-7442 -7567 0
-7442 -7490 0
7442 7567 7490 0
-7340 -7599 0
-7340 -7567 0
7340 7599 7567 0
-7738 -7449 0
-7738 -7462 0
7738 7449 7462 0
-7562 -7359 0
-7562 -7504 0
7562 7359 7504 0
-7349 -7567 0
-7349 -7359 0
7349 7567 7359 0
-7352 -7599 0
-7352 -7354 0
7352 7599 7354 0
-7355 -7465 0
-7355 -7357 0
7355 7465 7357 0
-7358 -7359 0
-7358 -7446 0
7358 7359 7446 0
-7361 -7599 0
-7361 -7363 0
7361 7599 7363 0
-7364 -7576 0
-7364 -7619 0
7364 7576 7619 0
-7367 -7567 0
-7367 -7369 0
7367 7567 7369 0
-7370 -7576 0
-7370 -7372 0
7370 7576 7372 0
-7373 -7567 0
-7373 -7420 0
7373 7567 7420 0
-7736 -7380 0
-7736 -7462 0
7736 7380 7462 0
-7379 -7380 0
-7379 -7420 0
7379 7380 7420 0
-7443 -7420 0
-7443 -7406 0
7443 7420 7406 0
-7385 -7406 0
-7385 -7490 0
7385 7406 7490 0
-7388 -7490 0
-7388 -7570 0
7388 7490 7570 0
-7391 -7550 0
-7391 -7490 0
7391 7550 7490 0
-7637 -7395 0
-7637 -7396 0
7637 7395 7396 0
-7397 -7529 0
-7397 -7599 0
7397 7529 7599 0
-7400 -7490 0
-7400 -7541 0
-7400 -7599 0
7400 7490 7541 7599 0
-7404 -7487 0
-7404 -7406 0
-7404 -7490 0
7404 7487 7406 7490 0
-7408 -7602 0
-7408 -7420 0
7408 7602 7420 0
-7411 -7567 0
-7411 -7413 0
7411 7567 7413 0
-7414 -7484 0
-7414 -7416 0
7414 7484 7416 0
-7417 -7418 0
-7417 -7484 0
-7417 -7420 0
7417 7418 7484 7420 0
-7421 -7507 0
-7421 -7533 0
7421 7507 7533 0
-7424 -7592 0
-7424 -7426 0
7424 7592 7426 0
-7427 -7428 0
-7427 -7490 0
7427 7428 7490 0
-7430 -7435 0
-7430 -7465 0
7430 7435 7465 0
-7433 -7567 0
-7433 -7435 0
-7433 -7436 0
7433 7567 7435 7436 0
-7708 -7438 0
-7708 -7439 0
-7708 -7541 0
7708 7438 7439 7541 0
-7441 -7442 0
-7441 -7443 0
7441 7442 7443 0
-7523 -7445 0
-7523 -7446 0
7523 7445 7446 0
-7447 -7569 0
-7447 -7449 0
7447 7569 7449 0
-7634 -7454 0
-7634 -7529 0
7634 7454 7529 0
-7453 -7454 0
-7453 -7455 0
7453 7454 7455 0
-7456 -7519 0
-7456 -7597 0
-7456 -7602 0
7456 7519 7597 7602 0
-7730 -7482 0
-7730 -7462 0
7730 7482 7462 0
-7463 -7482 0
-7463 -7465 0
7463 7482 7465 0
-7466 -7619 0
-7466 -7468 0
7466 7619 7468 0
-7524 -7593 0
-7524 -7569 0
7524 7593 7569 0
-7472 -7567 0
-7472 -7474 0
7472 7567 7474 0
-7475 -7529 0
-7475 -7477 0
7475 7529 7477 0
-7478 -7567 0
-7478 -7483 0
7478 7567 7483 0
-7623 -7482 0
-7623 -7483 0
-7623 -7484 0
7623 7482 7483 7484 0
-7485 -7486 0
-7485 -7487 0
7485 7486 7487 0
-7488 -7489 0
-7488 -7490 0
7488 7489 7490 0
-7656 -7499 0
-7656 -7493 0
7656 7499 7493 0
-7611 -7499 0
-7611 -7496 0
7611 7499 7496 0
-7497 -7519 0
-7497 -7499 0
7497 7519 7499 0
-7500 -7501 0
-7500 -7519 0
7500 7501 7519 0
-7680 -7504 0
-7680 -7505 0
7680 7504 7505 0
-7506 -7507 0
-7506 -7508 0
7506 7507 7508 0
-7509 -7519 0
-7509 -7511 0
7509 7519 7511 0
-7512 -7513 0
-7512 -7519 0
7512 7513 7519 0
-7515 -7520 0
-7515 -7517 0
7515 7520 7517 0
-7518 -7519 0
-7518 -7520 0
-7518 -7521 0
7518 7519 7520 7521 0
-7522 -7523 0
-7522 -7524 0
7522 7523 7524 0
-7706 -7529 0
-7706 -7527 0
7706 7529 7527 0
-7528 -7529 0
-7528 -7530 0
7528 7529 7530 0
-7531 -7532 0
-7531 -7533 0
7531 7532 7533 0
-7534 -7535 0
-7534 -7536 0
7534 7535 7536 0
-7537 -7549 0
-7537 -7539 0
7537 7549 7539 0
-7540 -7541 0
-7540 -7542 0
7540 7541 7542 0
-7543 -7547 0
-7543 -7576 0
7543 7547 7576 0
-7546 -7547 0
-7546 -7570 0
-7546 -7549 0
-7546 -7550 0
7546 7547 7570 7549 7550 0
-7654 -7555 0
-7654 -7553 0
7654 7555 7553 0
-7554 -7555 0
-7554 -7556 0
7554 7555 7556 0
-7649 -7558 0
-7649 -7559 0
7649 7558 7559 0
-7660 -7619 0
-7660 -7562 0
-7660 -7563 0
-7660 -7564 0
7660 7619 7562 7563 7564 0
-7565 -7571 0
-7565 -7567 0
7565 7571 7567 0
-7629 -7569 0
-7629 -7570 0
-7629 -7571 0
7629 7569 7570 7571 0
-7572 -7623 0
-7572 -7574 0
7572 7623 7574 0
-7575 -7576 0
-7575 -7577 0
7575 7576 7577 0
-7578 -7579 0
-7578 -7580 0
-7578 -7581 0
7578 7579 7580 7581 0
-7582 -7583 0
-7582 -7584 0
-7582 -7714 0
-7582 -7586 0
7582 7583 7584 7714 7586 0
-7587 -7588 0
-7587 -7589 0
7587 7588 7589 0
-7590 -7595 0
-7590 -7592 0
-7590 -7593 0
7590 7595 7592 7593 0
-7674 -7595 0
-7674 -7620 0
-7674 -7597 0
7674 7595 7620 7597 0
-7598 -7599 0
-7598 -7600 0
7598 7599 7600 0
-7633 -7602 0
-7633 -7603 0
7633 7602 7603 0
-7604 -7605 0
-7604 -7606 0
7604 7605 7606 0
-7607 -7608 0
-7607 -7714 0
-7607 -7706 0
-7607 -7611 0
7607 7608 7714 7706 7611 0
-7612 -7613 0
-7612 -7614 0
7612 7613 7614 0
-7615 -7616 0
-7615 -7670 0
7615 7616 7670 0
-7643 -7619 0
-7643 -7620 0
-7643 -7621 0
7643 7619 7620 7621 0
-7622 -7623 0
-7622 -7624 0
-7622 -7625 0
7622 7623 7624 7625 0
-7626 -7627 0
-7626 -7670 0
-7626 -7629 0
-7626 -7630 0
7626 7627 7670 7629 7630 0
-7631 -7632 0
-7631 -7633 0
-7631 -7634 0
-7631 -7714 0
7631 7632 7633 7634 7714 0
-7636 -7637 0
-7636 -7638 0
7636 7637 7638 0
-7639 -7643 0
-7639 -7641 0
7639 7643 7641 0
-7642 -7643 0
-7642 -7670 0
-7642 -7645 0
7642 7643 7670 7645 0
-7646 -7654 0
-7646 -7653 0
-7646 -7649 0
7646 7654 7653 7649 0
-7650 -7651 0
-7650 -7652 0
-7650 -7653 0
-7650 -7654 0
7650 7651 7652 7653 7654 0
-7655 -7656 0
-7655 -7657 0
-7655 -7658 0
7655 7656 7657 7658 0
-7659 -7660 0
-7659 -7661 0
-7659 -7662 0
7659 7660 7661 7662 0
-7663 -7664 0
-7663 -7665 0
-7663 -7666 0
7663 7664 7665 7666 0
-7667 -7668 0
-7667 -7669 0
-7667 -7670 0
-7667 -7671 0
7667 7668 7669 7670 7671 0
-7672 -7673 0
-7672 -7674 0
-7672 -7675 0
-7672 -7676 0
7672 7673 7674 7675 7676 0
-7677 -7678 0
-7677 -7679 0
-7677 -7680 0
-7677 -7714 0
7677 7678 7679 7680 7714 0
-7682 -7683 0
-7682 -7684 0
7682 7683 7684 0
-7686 8545 0
7686 -8545 0
-7688 8734 0
7688 -8734 0
-7690 8670 0
7690 -8670 0
-7692 8814 0
7692 -8814 0
-7694 8705 0
7694 -8705 0
-7696 8782 0
7696 -8782 0
-7698 7697 0
7698 -7697 0
-7700 7699 0
7700 -7699 0
-7702 7701 0
7702 -7701 0
-7704 7703 0
7704 -7703 0
-7706 7705 0
7706 -7705 0
-7708 7707 0
7708 -7707 0
-7710 7709 0
7710 -7709 0
-7712 7711 0
7712 -7711 0
-7714 7713 0
7714 -7713 0
-7716 7715 0
7716 -7715 0
-7718 7717 0
7718 -7717 0
-7720 7719 0
7720 -7719 0
-7722 7721 0
7722 -7721 0
-7724 7723 0
7724 -7723 0
-7726 7725 0
7726 -7725 0
-7728 7727 0
7728 -7727 0
-7730 7729 0
7730 -7729 0
-7732 7731 0
7732 -7731 0
-7734 7733 0
7734 -7733 0
-7736 7735 0
7736 -7735 0
-7738 7737 0
7738 -7737 0
-7740 7739 0
7740 -7739 0
-7742 7741 0
7742 -7741 0
8680 8791 0
-8680 -8791 0
8751 7746 0
-8751 -7746 0
7943 7946 0
-7943 -7946 0
8214 7946 0
-8214 -7946 0
8661 8719 0
-8661 -8719 0
7945 8641 0
-7945 -8641 0
8834 8641 0
-8834 -8641 0
8331 8734 0
-8331 -8734 0
8631 8670 0
-8631 -8670 0
8584 8814 0
-8584 -8814 0
8338 8501 0
-8338 -8501 0
8587 8572 0
-8587 -8572 0
8635 8705 0
-8635 -8705 0
8350 8289 0
-8350 -8289 0
8595 8664 0
-8595 -8664 0
8621 8782 0
-8621 -8782 0
8785 8324 0
-8785 -8324 0
8765 8250 0
-8765 -8250 0
8465 8472 0
-8465 -8472 0
8633 8569 0
-8633 -8569 0
8756 8543 0
-8756 -8543 0
7967 8549 0
-7967 -8549 0
8779 8335 0
-8779 -8335 0
7974 8567 0
-7974 -8567 0
8771 8570 0
-8771 -8570 0
8142 8213 0
-8142 -8213 0
8020 8576 0
-8020 -8576 0
8494 8817 0
-8494 -8817 0
8352 8748 0
-8352 -8748 0
8124 8243 0
-8124 -8243 0
8812 8588 0
-8812 -8588 0
8115 8252 0
-8115 -8252 0
8697 8650 0
-8697 -8650 0
7988 8594 0
-7988 -8594 0
8123 8261 0
-8123 -8261 0
8126 8270 0
-8126 -8270 0
8808 8600 0
-8808 -8600 0
8130 8276 0
-8130 -8276 0
8203 8606 0
-8203 -8606 0
8055 8619 0
-8055 -8619 0
8191 8302 0
-8191 -8302 0
7998 8626 0
-7998 -8626 0
8001 8632 0
-8001 -8632 0
8017 8642 0
-8017 -8642 0
8143 8923 0
-8143 -8923 0
8077 8319 0
-8077 -8319 0
8955 8326 0
-8955 -8326 0
8026 8512 0
-8026 -8512 0
8457 8849 0
-8457 -8849 0
8448 8354 0
-8448 -8354 0
8886 8478 0
-8886 -8478 0
8041 8681 0
-8041 -8681 0
8053 8687 0
-8053 -8687 0
8184 8368 0
-8184 -8368 0
8151 8690 0
-8151 -8690 0
8043 8377 0
-8043 -8377 0
8789 8458 0
-8789 -8458 0
8052 8724 0
-8052 -8724 0
8173 8389 0
-8173 -8389 0
8176 8392 0
-8176 -8392 0
8056 8727 0
-8056 -8727 0
8511 8730 0
-8511 -8730 0
8461 8733 0
-8461 -8733 0
8058 8737 0
-8058 -8737 0
8796 8395 0
-8796 -8395 0
8064 8453 0
-8064 -8453 0
8929 8750 0
-8929 -8750 0
8801 8487 0
-8801 -8487 0
8514 8743 0
-8514 -8743 0
8885 8517 0
-8885 -8517 0
8083 8773 0
-8083 -8773 0
8491 8443 0
-8491 -8443 0
8810 8746 0
-8810 -8746 0
8485 8449 0
-8485 -8449 0
8181 8752 0
-8181 -8752 0
8484 8755 0
-8484 -8755 0
8836 8758 0
-8836 -8758 0
8891 8787 0
-8891 -8787 0
8193 8790 0
-8193 -8790 0
8913 8797 0
-8913 -8797 0
8868 8481 0
-8868 -8481 0
8199 8466 0
-8199 -8466 0
8872 8469 0
-8872 -8469 0
8523 8805 0
-8523 -8805 0
8090 8819 0
-8090 -8819 0
8915 8822 0
-8915 -8822 0
8876 8830 0
-8876 -8830 0
8881 8837 0
-8881 -8837 0
8919 8841 0
-8919 -8841 0
8933 8846 0
-8933 -8846 0
8202 8851 0
-8202 -8851 0
8943 8861 0
-8943 -8861 0
8949 8865 0
-8949 -8865 0
8890 8870 0
-8890 -8870 0
8899 8874 0
-8899 -8874 0
8529 8502 0
-8529 -8502 0
8931 8882 0
-8931 -8882 0
8538 8518 0
-8538 -8518 0
8917 8897 0
-8917 -8897 0
-8610 8641 0
-8610 7943 0
8610 -8641 -7943 0
-8611 7945 0
-8611 7946 0
8611 -7945 -7946 0
-8628 8705 0
-8628 8584 0
8628 -8705 -8584 0
-8736 8791 0
-8736 8584 0
8736 -8791 -8584 0
-8643 8441 0
-8643 8641 0
-8643 8584 0
8643 -8441 -8641 -8584 0
-8820 8680 0
-8820 8657 0
8820 -8680 -8657 0
-8732 8584 0
-8732 8702 0
8732 -8584 -8702 0
-8711 8584 0
-8711 8225 0
8711 -8584 -8225 0
-8683 7967 0
-8683 8258 0
8683 -7967 -8258 0
-8689 8246 0
-8689 8279 0
8689 -8246 -8279 0
-8692 8705 0
-8692 7974 0
8692 -8705 -7974 0
-8795 8782 0
-8795 8612 0
8795 -8782 -8612 0
-8708 8584 0
-8708 8299 0
8708 -8584 -8299 0
-8768 8309 0
-8768 8291 0
8768 -8309 -8291 0
-8847 8612 0
-8847 8812 0
8847 -8612 -8812 0
-8726 7988 0
-8726 8316 0
8726 -7988 -8316 0
-8884 8923 0
-8884 8791 0
8884 -8923 -8791 0
-8774 8370 0
-8774 8319 0
8774 -8370 -8319 0
-8742 8699 0
-8742 7998 0
8742 -8699 -7998 0
-8745 8654 0
-8745 8001 0
8745 -8654 -8001 0
-8798 8545 0
-8798 8668 0
8798 -8545 -8668 0
-8898 8779 0
-8898 8543 0
-8898 8668 0
8898 -8779 -8543 -8668 0
-8799 8671 0
-8799 8579 0
8799 -8671 -8579 0
-8893 8572 0
-8893 8671 0
8893 -8572 -8671 0
-8803 8564 0
-8803 8017 0
8803 -8564 -8017 0
-8828 8693 0
-8828 8020 0
8828 -8693 -8020 0
-8794 8693 0
-8794 8678 0
8794 -8693 -8678 0
-8840 8702 0
-8840 8026 0
8840 -8702 -8026 0
-8880 8588 0
-8880 8700 0
8880 -8588 -8700 0
-8888 8700 0
-8888 8600 0
8888 -8700 -8600 0
-8873 8712 0
-8873 8678 0
8873 -8712 -8678 0
-8757 8374 0
-8757 8306 0
8757 -8374 -8306 0
-8792 8386 0
-8792 8041 0
8792 -8386 -8041 0
-8804 8043 0
-8804 8765 0
8804 -8043 -8765 0
-8842 8746 0
-8842 8739 0
8842 -8746 -8739 0
-8877 8738 0
-8877 8746 0
8877 -8738 -8746 0
-8815 8052 0
-8815 8053 0
8815 -8052 -8053 0
-8818 8055 0
-8818 8056 0
8818 -8055 -8056 0
-8821 8058 0
-8821 8645 0
8821 -8058 -8645 0
-8823 8834 0
-8823 8064 0
8823 -8834 -8064 0
-8867 8064 0
-8867 8501 0
8867 -8064 -8501 0
-8829 8929 0
-8829 8641 0
8829 -8929 -8641 0
-8831 8752 0
-8831 8508 0
-8831 8472 0
8831 -8752 -8508 -8472 0
-8856 8758 0
-8856 8639 0
8856 -8758 -8639 0
-8860 8077 0
-8860 8758 0
8860 -8077 -8758 0
-8879 8273 0
-8879 8761 0
8879 -8273 -8761 0
-8866 8083 0
-8866 8639 0
8866 -8083 -8639 0
-8853 8181 0
-8853 8420 0
8853 -8181 -8420 0
-8883 8636 0
-8883 8090 0
8883 -8636 -8090 0
8390 -8472 0
8390 -8782 0
8390 -8324 0
-8390 8472 8782 8324 0
8303 -8782 0
8303 -8546 0
-8303 8782 8546 0
8447 -8465 0
8447 -8573 0
-8447 8465 8573 0
8470 -8320 0
8470 -8785 0
-8470 8320 8785 0
8369 -8784 0
8369 -8641 0
-8369 8784 8641 0
8372 -8657 0
8372 -8629 0
-8372 8657 8629 0
8375 -8582 0
8375 -8629 0
-8375 8582 8629 0
8378 -8782 0
8378 -8115 0
-8378 8782 8115 0
8381 -8734 0
8381 -8645 0
-8381 8734 8645 0
8384 -8670 0
8384 -8648 0
-8384 8670 8648 0
8387 -8123 0
8387 -8124 0
-8387 8123 8124 0
8391 -8126 0
8391 -8784 0
-8391 8126 8784 0
8396 -8545 0
8396 -8130 0
-8396 8545 8130 0
8399 -8579 0
8399 -8662 0
-8399 8579 8662 0
8497 -8621 0
8497 -8720 0
-8497 8621 8720 0
8444 -8680 0
8444 -8734 0
8444 -8723 0
-8444 8680 8734 8723 0
8534 -8142 0
8534 -8143 0
-8534 8142 8143 0
8450 -8728 0
8450 -8701 0
-8450 8728 8701 0
8475 -8501 0
8475 -8457 0
-8475 8501 8457 0
8456 -8151 0
8456 -8621 0
-8456 8151 8621 0
8460 -8750 0
8460 -8214 0
-8460 8750 8214 0
8520 -8750 0
8520 -8501 0
-8520 8750 8501 0
8503 -8398 0
8503 -8754 0
-8503 8398 8754 0
8480 -8770 0
8480 -8291 0
-8480 8770 8291 0
8474 -8184 0
8474 -8773 0
-8474 8184 8773 0
8477 -8319 0
8477 -8778 0
-8477 8319 8778 0
8527 -8354 0
8527 -8173 0
-8527 8354 8173 0
8519 -8704 0
8519 -8176 0
-8519 8704 8176 0
8483 -8810 0
8483 -8737 0
-8483 8810 8737 0
8528 -8181 0
8528 -8603 0
-8528 8181 8603 0
8531 -8184 0
8531 -8836 0
-8531 8184 8836 0
8490 -8817 0
8490 -8802 0
-8490 8817 8802 0
8493 -8813 0
8493 -8191 0
-8493 8813 8191 0
8496 -8193 0
8496 -8716 0
-8496 8193 8716 0
8500 -8848 0
8500 -8749 0
-8500 8848 8749 0
8507 -8199 0
8507 -8780 0
-8507 8199 8780 0
8537 -8202 0
8537 -8203 0
-8537 8202 8203 0
8441 8664 0
8441 8572 0
-8441 -8664 -8572 0
8335 8574 0
8335 8719 0
-8335 -8574 -8719 0
8651 8250 0
8651 8289 0
-8651 -8250 -8289 0
8213 8214 0
8213 8680 0
-8213 -8214 -8680 0
8835 8574 0
8835 8661 0
-8835 -8574 -8661 0
8744 8670 0
8744 8543 0
-8744 -8670 -8543 0
8702 8680 0
8702 8331 0
-8702 -8680 -8331 0
8225 8578 0
8225 8331 0
-8225 -8578 -8331 0
8722 8331 0
8722 8545 0
-8722 -8331 -8545 0
8653 8631 0
8653 8233 0
-8653 -8631 -8233 0
8817 8631 0
8817 8545 0
-8817 -8631 -8545 0
8699 8584 0
8699 8782 0
-8699 -8584 -8782 0
8748 8584 0
8748 8631 0
-8748 -8584 -8631 0
8243 8587 0
8243 8250 0
-8243 -8587 -8250 0
8246 8635 0
8246 8791 0
-8246 -8635 -8791 0
8807 8250 0
8807 8350 0
-8807 -8250 -8350 0
8252 8546 0
8252 8441 0
-8252 -8546 -8441 0
8650 8595 0
8650 8587 0
-8650 -8595 -8587 0
8258 8595 0
8258 8574 0
-8258 -8595 -8574 0
8261 8595 0
8261 8350 0
-8261 -8595 -8350 0
8764 8791 0
8764 8595 0
-8764 -8791 -8595 0
8654 8657 0
8654 8814 0
-8654 -8657 -8814 0
8270 8621 0
8270 8472 0
-8270 -8621 -8472 0
8273 8777 0
8273 8472 0
-8273 -8777 -8472 0
8276 8331 0
8276 8335 0
-8276 -8331 -8335 0
8279 8641 0
8279 8335 0
-8279 -8641 -8335 0
8660 8705 0
8660 8564 0
-8660 -8705 -8564 0
8320 8765 0
8320 8350 0
-8320 -8765 -8350 0
8784 8289 0
8784 8765 0
-8784 -8289 -8765 0
8291 8834 0
8291 8785 0
8291 8570 0
8291 8472 0
-8291 -8834 -8785 -8570 -8472 0
8370 8573 0
8370 8641 0
-8370 -8573 -8641 0
8299 8651 0
8299 8702 0
-8299 -8651 -8702 0
8302 8303 0
8302 8635 0
8302 8651 0
-8302 -8303 -8635 -8651 0
8306 8582 0
8306 8653 0
-8306 -8582 -8653 0
8309 8661 0
8309 8585 0
8309 8641 0
-8309 -8661 -8585 -8641 0
8669 8588 0
8669 8814 0
-8669 -8588 -8814 0
8316 8650 0
8316 8782 0
-8316 -8650 -8782 0
8319 8320 0
8319 8834 0
8319 8651 0
-8319 -8320 -8834 -8651 0
8508 8324 0
8508 8784 0
-8508 -8324 -8784 0
8326 8612 0
8326 8657 0
-8326 -8612 -8657 0
8698 8623 0
8698 8331 0
-8698 -8623 -8331 0
8512 8621 0
8512 8623 0
8512 8335 0
-8512 -8621 -8623 -8335 0
8701 8494 0
8701 8338 0
-8701 -8494 -8338 0
8704 8494 0
8704 8734 0
-8704 -8494 -8734 0
8714 8600 0
8714 8494 0
-8714 -8600 -8494 0
8716 8494 0
8716 8555 0
-8716 -8494 -8555 0
8720 8636 0
8720 8350 0
-8720 -8636 -8350 0
8723 8352 0
8723 8657 0
-8723 -8352 -8657 0
8354 8645 0
8354 8635 0
8354 8636 0
-8354 -8645 -8635 -8636 0
8478 8615 0
8478 8631 0
8478 8648 0
-8478 -8615 -8631 -8648 0
8728 8656 0
8728 8814 0
-8728 -8656 -8814 0
8735 8494 0
8735 8656 0
-8735 -8494 -8656 0
8368 8369 0
8368 8370 0
-8368 -8369 -8370 0
8498 8372 0
8498 8543 0
-8498 -8372 -8543 0
8374 8375 0
8374 8705 0
-8374 -8375 -8705 0
8377 8378 0
8377 8635 0
-8377 -8378 -8635 0
8747 8381 0
8747 8545 0
-8747 -8381 -8545 0
8458 8384 0
8458 8615 0
-8458 -8384 -8615 0
8386 8387 0
8386 8834 0
-8386 -8387 -8834 0
8389 8390 0
8389 8391 0
-8389 -8390 -8391 0
8392 8728 0
8392 8660 0
-8392 -8728 -8660 0
8395 8396 0
8395 8668 0
-8395 -8396 -8668 0
8398 8399 0
8398 8635 0
-8398 -8399 -8635 0
8453 8584 0
8453 8680 0
8453 8693 0
-8453 -8584 -8680 -8693 0
8750 8555 0
8750 8703 0
-8750 -8555 -8703 0
8539 8782 0
8539 8703 0
8539 8765 0
-8539 -8782 -8703 -8765 0
8487 8579 0
8487 8584 0
8487 8712 0
-8487 -8579 -8584 -8712 0
8754 8715 0
8754 8587 0
8754 8573 0
-8754 -8715 -8587 -8573 0
8420 8465 0
8420 8715 0
8420 8645 0
-8420 -8465 -8715 -8645 0
8517 8697 0
8517 8895 0
8517 8658 0
-8517 -8697 -8895 -8658 0
8762 8721 0
8762 8587 0
-8762 -8721 -8587 0
8770 8721 0
8770 8595 0
8770 8574 0
-8770 -8721 -8595 -8574 0
8773 8595 0
8773 8721 0
8773 8585 0
-8773 -8595 -8721 -8585 0
8778 8680 0
8778 8441 0
8778 8721 0
-8778 -8680 -8441 -8721 0
8443 8444 0
8443 8498 0
-8443 -8444 -8498 0
8786 8447 0
8786 8448 0
-8786 -8447 -8448 0
8449 8450 0
8449 8478 0
-8449 -8450 -8478 0
8935 8453 0
8935 8750 0
-8935 -8453 -8750 0
8905 8456 0
8905 8457 0
8905 8458 0
-8905 -8456 -8457 -8458 0
8927 8460 0
8927 8461 0
-8927 -8460 -8461 0
8481 8761 0
8481 8852 0
8481 8465 0
-8481 -8761 -8852 -8465 0
8466 8769 0
8466 8641 0
-8466 -8769 -8641 0
8469 8470 0
8469 8769 0
8469 8472 0
-8469 -8470 -8769 -8472 0
8839 8474 0
8839 8475 0
-8839 -8474 -8475 0
8845 8477 0
8845 8478 0
-8845 -8477 -8478 0
8957 8480 0
8957 8481 0
-8957 -8480 -8481 0
8907 8483 0
8907 8484 0
8907 8485 0
-8907 -8483 -8484 -8485 0
8925 8487 0
8925 8827 0
-8925 -8487 -8827 0
8937 8490 0
8937 8491 0
-8937 -8490 -8491 0
8510 8493 0
8510 8494 0
-8510 -8493 -8494 0
8939 8496 0
8939 8497 0
8939 8498 0
-8939 -8496 -8497 -8498 0
8515 8500 0
8515 8501 0
-8515 -8500 -8501 0
8502 8503 0
8502 8514 0
8502 8857 0
-8502 -8503 -8514 -8857 0
8521 8507 0
8521 8508 0
-8521 -8507 -8508 0
8894 8510 0
8894 8511 0
8894 8512 0
-8894 -8510 -8511 -8512 0
8947 8514 0
8947 8515 0
8947 8854 0
8947 8517 0
-8947 -8514 -8515 -8854 -8517 0
8518 8519 0
8518 8520 0
8518 8521 0
-8518 -8519 -8520 -8521 0
8909 8523 0
8909 8793 0
8909 8878 0
-8909 -8523 -8793 -8878 0
8941 8527 0
8941 8528 0
8941 8529 0
-8941 -8527 -8528 -8529 0
8911 8531 0
8911 8887 0
-8911 -8531 -8887 0
8901 8534 0
8901 8892 0
-8901 -8534 -8892 0
8903 8537 0
8903 8538 0
8903 8539 0
-8903 -8537 -8538 -8539 0
-8578 -8791 0
-8578 -8641 0
8578 8791 8641 0
-8543 -8734 0
-8543 -8545 0
8543 8734 8545 0
-8546 -8641 0
-8546 -8814 0
8546 8641 8814 0
-8549 -8572 0
-8549 -8719 0
8549 8572 8719 0
-8657 -8782 0
-8657 -8705 0
8657 8782 8705 0
-8555 -8814 0
-8555 -8782 0
8555 8814 8782 0
-8953 -8664 0
-8953 -8677 0
8953 8664 8677 0
-8777 -8574 0
-8777 -8719 0
8777 8574 8719 0
-8564 -8782 0
-8564 -8574 0
8564 8782 8574 0
-8567 -8814 0
-8567 -8569 0
8567 8814 8569 0
-8570 -8680 0
-8570 -8572 0
8570 8680 8572 0
-8573 -8574 0
-8573 -8661 0
8573 8574 8661 0
-8576 -8814 0
-8576 -8578 0
8576 8814 8578 0
-8579 -8791 0
-8579 -8834 0
8579 8791 8834 0
-8582 -8782 0
-8582 -8584 0
8582 8782 8584 0
-8585 -8791 0
-8585 -8587 0
8585 8791 8587 0
-8588 -8782 0
-8588 -8635 0
8588 8782 8635 0
-8951 -8595 0
-8951 -8677 0
8951 8595 8677 0
-8594 -8595 0
-8594 -8635 0
8594 8595 8635 0
-8658 -8635 0
-8658 -8621 0
8658 8635 8621 0
-8600 -8621 0
-8600 -8705 0
8600 8621 8705 0
-8603 -8705 0
-8603 -8785 0
8603 8705 8785 0
-8606 -8765 0
-8606 -8705 0
8606 8765 8705 0
-8852 -8610 0
-8852 -8611 0
8852 8610 8611 0
-8612 -8744 0
-8612 -8814 0
8612 8744 8814 0
-8615 -8705 0
-8615 -8756 0
-8615 -8814 0
8615 8705 8756 8814 0
-8619 -8702 0
-8619 -8621 0
-8619 -8705 0
8619 8702 8621 8705 0
-8623 -8817 0
-8623 -8635 0
8623 8817 8635 0
-8626 -8782 0
-8626 -8628 0
8626 8782 8628 0
-8629 -8699 0
-8629 -8631 0
8629 8699 8631 0
-8632 -8633 0
-8632 -8699 0
-8632 -8635 0
8632 8633 8699 8635 0
-8636 -8722 0
-8636 -8748 0
8636 8722 8748 0
-8639 -8807 0
-8639 -8641 0
8639 8807 8641 0
-8642 -8643 0
-8642 -8705 0
8642 8643 8705 0
-8645 -8650 0
-8645 -8680 0
8645 8650 8680 0
-8648 -8782 0
-8648 -8650 0
-8648 -8651 0
8648 8782 8650 8651 0
-8923 -8653 0
-8923 -8654 0
-8923 -8756 0
8923 8653 8654 8756 0
-8656 -8657 0
-8656 -8658 0
8656 8657 8658 0
-8738 -8660 0
-8738 -8661 0
8738 8660 8661 0
-8662 -8784 0
-8662 -8664 0
8662 8784 8664 0
-8849 -8669 0
-8849 -8744 0
8849 8669 8744 0
-8668 -8669 0
-8668 -8670 0
8668 8669 8670 0
-8671 -8734 0
-8671 -8812 0
-8671 -8817 0
8671 8734 8812 8817 0
-8945 -8697 0
-8945 -8677 0
8945 8697 8677 0
-8678 -8697 0
-8678 -8680 0
8678 8697 8680 0
-8681 -8834 0
-8681 -8683 0
8681 8834 8683 0
-8739 -8808 0
-8739 -8784 0
8739 8808 8784 0
-8687 -8782 0
-8687 -8689 0
8687 8782 8689 0
-8690 -8744 0
-8690 -8692 0
8690 8744 8692 0
-8693 -8782 0
-8693 -8698 0
8693 8782 8698 0
-8838 -8697 0
-8838 -8698 0
-8838 -8699 0
8838 8697 8698 8699 0
-8700 -8701 0
-8700 -8702 0
8700 8701 8702 0
-8703 -8704 0
-8703 -8705 0
8703 8704 8705 0
-8871 -8714 0
-8871 -8708 0
8871 8714 8708 0
-8826 -8714 0
-8826 -8711 0
8826 8714 8711 0
-8712 -8734 0
-8712 -8714 0
8712 8734 8714 0
-8715 -8716 0
-8715 -8734 0
8715 8716 8734 0
-8895 -8719 0
-8895 -8720 0
8895 8719 8720 0
-8721 -8722 0
-8721 -8723 0
8721 8722 8723 0
-8724 -8734 0
-8724 -8726 0
8724 8734 8726 0
-8727 -8728 0
-8727 -8734 0
8727 8728 8734 0
-8730 -8735 0
-8730 -8732 0
8730 8735 8732 0
-8733 -8734 0
-8733 -8735 0
-8733 -8736 0
8733 8734 8735 8736 0
-8737 -8738 0
-8737 -8739 0
8737 8738 8739 0
-8921 -8744 0
-8921 -8742 0
8921 8744 8742 0
-8743 -8744 0
-8743 -8745 0
8743 8744 8745 0
-8746 -8747 0
-8746 -8748 0
8746 8747 8748 0
-8749 -8750 0
-8749 -8751 0
8749 8750 8751 0
-8752 -8764 0
-8752 -8754 0
8752 8764 8754 0
-8755 -8756 0
-8755 -8757 0
8755 8756 8757 0
-8758 -8762 0
-8758 -8791 0
8758 8762 8791 0
-8761 -8762 0
-8761 -8785 0
-8761 -8764 0
-8761 -8765 0
8761 8762 8785 8764 8765 0
-8869 -8770 0
-8869 -8768 0
8869 8770 8768 0
-8769 -8770 0
-8769 -8771 0
8769 8770 8771 0
-8864 -8773 0
-8864 -8774 0
8864 8773 8774 0
-8875 -8834 0
-8875 -8777 0
-8875 -8778 0
-8875 -8779 0
8875 8834 8777 8778 8779 0
-8780 -8786 0
-8780 -8782 0
8780 8786 8782 0
-8844 -8784 0
-8844 -8785 0
-8844 -8786 0
8844 8784 8785 8786 0
-8787 -8838 0
-8787 -8789 0
8787 8838 8789 0
-8790 -8791 0
-8790 -8792 0
8790 8791 8792 0
-8793 -8794 0
-8793 -8795 0
-8793 -8796 0
8793 8794 8795 8796 0
-8797 -8798 0
-8797 -8799 0
-8797 -8929 0
-8797 -8801 0
8797 8798 8799 8929 8801 0
-8802 -8803 0
-8802 -8804 0
8802 8803 8804 0
-8805 -8810 0
-8805 -8807 0
-8805 -8808 0
8805 8810 8807 8808 0
-8889 -8810 0
-8889 -8835 0
-8889 -8812 0
8889 8810 8835 8812 0
-8813 -8814 0
-8813 -8815 0
8813 8814 8815 0
-8848 -8817 0
-8848 -8818 0
8848 8817 8818 0
-8819 -8820 0
-8819 -8821 0
8819 8820 8821 0
-8822 -8823 0
-8822 -8929 0
-8822 -8921 0
-8822 -8826 0
8822 8823 8929 8921 8826 0
-8827 -8828 0
-8827 -8829 0
8827 8828 8829 0
-8830 -8831 0
-8830 -8885 0
8830 8831 8885 0
-8858 -8834 0
-8858 -8835 0
-8858 -8836 0
8858 8834 8835 8836 0
-8837 -8838 0
-8837 -8839 0
-8837 -8840 0
8837 8838 8839 8840 0
-8841 -8842 0
-8841 -8885 0
-8841 -8844 0
-8841 -8845 0
8841 8842 8885 8844 8845 0
-8846 -8847 0
-8846 -8848 0
-8846 -8849 0
-8846 -8929 0
8846 8847 8848 8849 8929 0
-8851 -8852 0
-8851 -8853 0
8851 8852 8853 0
-8854 -8858 0
-8854 -8856 0
8854 8858 8856 0
-8857 -8858 0
-8857 -8885 0
-8857 -8860 0
8857 8858 8885 8860 0
-8861 -8869 0
-8861 -8868 0
-8861 -8864 0
8861 8869 8868 8864 0
-8865 -8866 0
-8865 -8867 0
-8865 -8868 0
-8865 -8869 0
8865 8866 8867 8868 8869 0
-8870 -8871 0
-8870 -8872 0
-8870 -8873 0
8870 8871 8872 8873 0
-8874 -8875 0
-8874 -8876 0
-8874 -8877 0
8874 8875 8876 8877 0
-8878 -8879 0
-8878 -8880 0
-8878 -8881 0
8878 8879 8880 8881 0
-8882 -8883 0
-8882 -8884 0
-8882 -8885 0
-8882 -8886 0
8882 8883 8884 8885 8886 0
-8887 -8888 0
-8887 -8889 0
-8887 -8890 0
-8887 -8891 0
8887 8888 8889 8890 8891 0
-8892 -8893 0
-8892 -8894 0
-8892 -8895 0
-8892 -8929 0
8892 8893 8894 8895 8929 0
-8897 -8898 0
-8897 -8899 0
8897 8898 8899 0
-8901 9760 0
8901 -9760 0
-8903 9949 0
8903 -9949 0
-8905 9885 0
8905 -9885 0
-8907 10029 0
8907 -10029 0
-8909 9920 0
8909 -9920 0
-8911 9997 0
8911 -9997 0
-8913 8912 0
8913 -8912 0
-8915 8914 0
8915 -8914 0
-8917 8916 0
8917 -8916 0
-8919 8918 0
8919 -8918 0
-8921 8920 0
8921 -8920 0
-8923 8922 0
8923 -8922 0
-8925 8924 0
8925 -8924 0
-8927 8926 0
8927 -8926 0
-8929 8928 0
8929 -8928 0
-8931 8930 0
8931 -8930 0
-8933 8932 0
8933 -8932 0
-8935 8934 0
8935 -8934 0
-8937 8936 0
8937 -8936 0
-8939 8938 0
8939 -8938 0
-8941 8940 0
8941 -8940 0
-8943 8942 0
8943 -8942 0
-8945 8944 0
8945 -8944 0
-8947 8946 0
8947 -8946 0
-8949 8948 0
8949 -8948 0
-8951 8950 0
8951 -8950 0
-8953 8952 0
8953 -8952 0
-8955 8954 0
8955 -8954 0
-8957 8956 0
8957 -8956 0
9895 10006 0
-9895 -10006 0
9966 8961 0
-9966 -8961 0
9158 9161 0
-9158 -9161 0
9429 9161 0
-9429 -9161 0
9876 9934 0
-9876 -9934 0
9160 9856 0
-9160 -9856 0
10049 9856 0
-10049 -9856 0
9546 9949 0
-9546 -9949 0
9846 9885 0
-9846 -9885 0
9799 10029 0
-9799 -10029 0
9553 9716 0
-9553 -9716 0
9802 9787 0
-9802 -9787 0
9850 9920 0
-9850 -9920 0
9565 9504 0
-9565 -9504 0
9810 9879 0
-9810 -9879 0
9836 9997 0
-9836 -9997 0
10000 9539 0
-10000 -9539 0
9980 9465 0
-9980 -9465 0
9680 9687 0
-9680 -9687 0
9848 9784 0
-9848 -9784 0
9971 9758 0
-9971 -9758 0
9182 9764 0
-9182 -9764 0
9994 9550 0
-9994 -9550 0
9189 9782 0
-9189 -9782 0
9986 9785 0
-9986 -9785 0
9357 9428 0
-9357 -9428 0
9235 9791 0
-9235 -9791 0
9709 10032 0
-9709 -10032 0
9567 9963 0
-9567 -9963 0
9339 9458 0
-9339 -9458 0
10027 9803 0
-10027 -9803 0
9330 9467 0
-9330 -9467 0
9912 9865 0
-9912 -9865 0
9203 9809 0
-9203 -9809 0
9338 9476 0
-9338 -9476 0
9341 9485 0
-9341 -9485 0
10023 9815 0
-10023 -9815 0
9345 9491 0
-9345 -9491 0
9418 9821 0
-9418 -9821 0
9270 9834 0
-9270 -9834 0
9406 9517 0
-9406 -9517 0
9213 9841 0
-9213 -9841 0
9216 9847 0
-9216 -9847 0
9232 9857 0
-9232 -9857 0
9358 10138 0
-9358 -10138 0
9292 9534 0
-9292 -9534 0
10170 9541 0
-10170 -9541 0
9241 9727 0
-9241 -9727 0
9672 10064 0
-9672 -10064 0
9663 9569 0
-9663 -9569 0
10101 9693 0
-10101 -9693 0
9256 9896 0
-9256 -9896 0
9268 9902 0
-9268 -9902 0
9399 9583 0
-9399 -9583 0
9366 9905 0
-9366 -9905 0
9258 9592 0
-9258 -9592 0
10004 9673 0
-10004 -9673 0
9267 9939 0
-9267 -9939 0
9388 9604 0
-9388 -9604 0
9391 9607 0
-9391 -9607 0
9271 9942 0
-9271 -9942 0
9726 9945 0
-9726 -9945 0
9676 9948 0
-9676 -9948 0
9273 9952 0
-9273 -9952 0
10011 9610 0
-10011 -9610 0
9279 9668 0
-9279 -9668 0
10144 9965 0
-10144 -9965 0
10016 9702 0
-10016 -9702 0
9729 9958 0
-9729 -9958 0
10100 9732 0
-10100 -9732 0
9298 9988 0
-9298 -9988 0
9706 9658 0
-9706 -9658 0
10025 9961 0
-10025 -9961 0
9700 9664 0
-9700 -9664 0
9396 9967 0
-9396 -9967 0
9699 9970 0
-9699 -9970 0
10051 9973 0
-10051 -9973 0
10106 10002 0
-10106 -10002 0
9408 10005 0
-9408 -10005 0
10128 10012 0
-10128 -10012 0
10083 9696 0
-10083 -9696 0
9414 9681 0
-9414 -9681 0
10087 9684 0
-10087 -9684 0
9738 10020 0
-9738 -10020 0
9305 10034 0
-9305 -10034 0
10130 10037 0
-10130 -10037 0
10091 10045 0
-10091 -10045 0
10096 10052 0
-10096 -10052 0
10134 10056 0
-10134 -10056 0
10148 10061 0
-10148 -10061 0
9417 10066 0
-9417 -10066 0
10158 10076 0
-10158 -10076 0
10164 10080 0
-10164 -10080 0
10105 10085 0
-10105 -10085 0
10114 10089 0
-10114 -10089 0
9744 9717 0
-9744 -9717 0
10146 10097 0
-10146 -10097 0
9753 9733 0
-9753 -9733 0
10132 10112 0
-10132 -10112 0
-9825 9856 0
-9825 9158 0
9825 -9856 -9158 0
-9826 9160 0
-9826 9161 0
9826 -9160 -9161 0
-9843 9920 0
-9843 9799 0
9843 -9920 -9799 0
-9951 10006 0
-9951 9799 0
9951 -10006 -9799 0
-9858 9656 0
-9858 9856 0
-9858 9799 0
9858 -9656 -9856 -9799 0
-10035 9895 0
-10035 9872 0
10035 -9895 -9872 0
-9947 9799 0
-9947 9917 0
9947 -9799 -9917 0
-9926 9799 0
-9926 9440 0
9926 -9799 -9440 0
-9898 9182 0
-9898 9473 0
9898 -9182 -9473 0
-9904 9461 0
-9904 9494 0
9904 -9461 -9494 0
-9907 9920 0
-9907 9189 0
9907 -9920 -9189 0
-10010 9997 0
-10010 9827 0
10010 -9997 -9827 0
-9923 9799 0
-9923 9514 0
9923 -9799 -9514 0
-9983 9524 0
-9983 9506 0
9983 -9524 -9506 0
-10062 9827 0
-10062 10027 0
10062 -9827 -10027 0
-9941 9203 0
-9941 9531 0
9941 -9203 -9531 0
-10099 10138 0
-10099 10006 0
10099 -10138 -10006 0
-9989 9585 0
-9989 9534 0
9989 -9585 -9534 0
-9957 9914 0
-9957 9213 0
9957 -9914 -9213 0
-9960 9869 0
-9960 9216 0
9960 -9869 -9216 0
-10013 9760 0
-10013 9883 0
10013 -9760 -9883 0
-10113 9994 0
-10113 9758 0
-10113 9883 0
10113 -9994 -9758 -9883 0
-10014 9886 0
-10014 9794 0
10014 -9886 -9794 0
-10108 9787 0
-10108 9886 0
10108 -9787 -9886 0
-10018 9779 0
-10018 9232 0
10018 -9779 -9232 0
-10043 9908 0
-10043 9235 0
10043 -9908 -9235 0
-10009 9908 0
-10009 9893 0
10009 -9908 -9893 0
-10055 9917 0
-10055 9241 0
10055 -9917 -9241 0
-10095 9803 0
-10095 9915 0
10095 -9803 -9915 0
-10103 9915 0
-10103 9815 0
10103 -9915 -9815 0
-10088 9927 0
-10088 9893 0
10088 -9927 -9893 0
-9972 9589 0
-9972 9521 0
9972 -9589 -9521 0
-10007 9601 0
-10007 9256 0
10007 -9601 -9256 0
-10019 9258 0
-10019 9980 0
10019 -9258 -9980 0
-10057 9961 0
-10057 9954 0
10057 -9961 -9954 0
-10092 9953 0
-10092 9961 0
10092 -9953 -9961 0
-10030 9267 0
-10030 9268 0
10030 -9267 -9268 0
-10033 9270 0
-10033 9271 0
10033 -9270 -9271 0
-10036 9273 0
-10036 9860 0
10036 -9273 -9860 0
-10038 10049 0
-10038 9279 0
10038 -10049 -9279 0
-10082 9279 0
-10082 9716 0
10082 -9279 -9716 0
-10044 10144 0
-10044 9856 0
10044 -10144 -9856 0
-10046 9967 0
-10046 9723 0
-10046 9687 0
10046 -9967 -9723 -9687 0
-10071 9973 0
-10071 9854 0
10071 -9973 -9854 0
-10075 9292 0
-10075 9973 0
10075 -9292 -9973 0
-10094 9488 0
-10094 9976 0
10094 -9488 -9976 0
-10081 9298 0
-10081 9854 0
10081 -9298 -9854 0
-10068 9396 0
-10068 9635 0
10068 -9396 -9635 0
-10098 9851 0
-10098 9305 0
10098 -9851 -9305 0
9605 -9687 0
9605 -9997 0
9605 -9539 0
-9605 9687 9997 9539 0
9518 -9997 0
9518 -9761 0
-9518 9997 9761 0
9662 -9680 0
9662 -9788 0
-9662 9680 9788 0
9685 -9535 0
9685 -10000 0
-9685 9535 10000 0
9584 -9999 0
9584 -9856 0
-9584 9999 9856 0
9587 -9872 0
9587 -9844 0
-9587 9872 9844 0
9590 -9797 0
9590 -9844 0
-9590 9797 9844 0
9593 -9997 0
9593 -9330 0
-9593 9997 9330 0
9596 -9949 0
9596 -9860 0
-9596 9949 9860 0
9599 -9885 0
9599 -9863 0
-9599 9885 9863 0
9602 -9338 0
9602 -9339 0
-9602 9338 9339 0
9606 -9341 0
9606 -9999 0
-9606 9341 9999 0
9611 -9760 0
9611 -9345 0
-9611 9760 9345 0
9614 -9794 0
9614 -9877 0
-9614 9794 9877 0
9712 -9836 0
9712 -9935 0
-9712 9836 9935 0
9659 -9895 0
9659 -9949 0
9659 -9938 0
-9659 9895 9949 9938 0
9749 -9357 0
9749 -9358 0
-9749 9357 9358 0
9665 -9943 0
9665 -9916 0
-9665 9943 9916 0
9690 -9716 0
9690 -9672 0
-9690 9716 9672 0
9671 -9366 0
9671 -9836 0
-9671 9366 9836 0
9675 -9965 0
9675 -9429 0
-9675 9965 9429 0
9735 -9965 0
9735 -9716 0
-9735 9965 9716 0
9718 -9613 0
9718 -9969 0
-9718 9613 9969 0
9695 -9985 0
9695 -9506 0
-9695 9985 9506 0
9689 -9399 0
9689 -9988 0
-9689 9399 9988 0
9692 -9534 0
9692 -9993 0
-9692 9534 9993 0
9742 -9569 0
9742 -9388 0
-9742 9569 9388 0
9734 -9919 0
9734 -9391 0
-9734 9919 9391 0
9698 -10025 0
9698 -9952 0
-9698 10025 9952 0
9743 -9396 0
9743 -9818 0
-9743 9396 9818 0
9746 -9399 0
9746 -10051 0
-9746 9399 10051 0
9705 -10032 0
9705 -10017 0
-9705 10032 10017 0
9708 -10028 0
9708 -9406 0
-9708 10028 9406 0
9711 -9408 0
9711 -9931 0
-9711 9408 9931 0
9715 -10063 0
9715 -9964 0
-9715 10063 9964 0
9722 -9414 0
9722 -9995 0
-9722 9414 9995 0
9752 -9417 0
9752 -9418 0
-9752 9417 9418 0
9656 9879 0
9656 9787 0
-9656 -9879 -9787 0
9550 9789 0
9550 9934 0
-9550 -9789 -9934 0
9866 9465 0
9866 9504 0
-9866 -9465 -9504 0
9428 9429 0
9428 9895 0
-9428 -9429 -9895 0
10050 9789 0
10050 9876 0
-10050 -9789 -9876 0
9959 9885 0
9959 9758 0
-9959 -9885 -9758 0
9917 9895 0
9917 9546 0
-9917 -9895 -9546 0
9440 9793 0
9440 9546 0
-9440 -9793 -9546 0
9937 9546 0
9937 9760 0
-9937 -9546 -9760 0
9868 9846 0
9868 9448 0
-9868 -9846 -9448 0
10032 9846 0
10032 9760 0
-10032 -9846 -9760 0
9914 9799 0
9914 9997 0
-9914 -9799 -9997 0
9963 9799 0
9963 9846 0
-9963 -9799 -9846 0
9458 9802 0
9458 9465 0
-9458 -9802 -9465 0
9461 9850 0
9461 10006 0
-9461 -9850 -10006 0
10022 9465 0
10022 9565 0
-10022 -9465 -9565 0
9467 9761 0
9467 9656 0
-9467 -9761 -9656 0
9865 9810 0
9865 9802 0
-9865 -9810 -9802 0
9473 9810 0
9473 9789 0
-9473 -9810 -9789 0
9476 9810 0
9476 9565 0
-9476 -9810 -9565 0
9979 10006 0
9979 9810 0
-9979 -10006 -9810 0
9869 9872 0
9869 10029 0
-9869 -9872 -10029 0
9485 9836 0
9485 9687 0
-9485 -9836 -9687 0
9488 9992 0
9488 9687 0
-9488 -9992 -9687 0
9491 9546 0
9491 9550 0
-9491 -9546 -9550 0
9494 9856 0
9494 9550 0
-9494 -9856 -9550 0
9875 9920 0
9875 9779 0
-9875 -9920 -9779 0
9535 9980 0
9535 9565 0
-9535 -9980 -9565 0
9999 9504 0
9999 9980 0
-9999 -9504 -9980 0
9506 10049 0
9506 10000 0
9506 9785 0
9506 9687 0
-9506 -10049 -10000 -9785 -9687 0
9585 9788 0
9585 9856 0
-9585 -9788 -9856 0
9514 9866 0
9514 9917 0
-9514 -9866 -9917 0
9517 9518 0
9517 9850 0
9517 9866 0
-9517 -9518 -9850 -9866 0
9521 9797 0
9521 9868 0
-9521 -9797 -9868 0
9524 9876 0
9524 9800 0
9524 9856 0
-9524 -9876 -9800 -9856 0
9884 9803 0
9884 10029 0
-9884 -9803 -10029 0
9531 9865 0
9531 9997 0
-9531 -9865 -9997 0
9534 9535 0
9534 10049 0
9534 9866 0
-9534 -9535 -10049 -9866 0
9723 9539 0
9723 9999 0
-9723 -9539 -9999 0
9541 9827 0
9541 9872 0
-9541 -9827 -9872 0
9913 9838 0
9913 9546 0
-9913 -9838 -9546 0
9727 9836 0
9727 9838 0
9727 9550 0
-9727 -9836 -9838 -9550 0
9916 9709 0
9916 9553 0
-9916 -9709 -9553 0
9919 9709 0
9919 9949 0
-9919 -9709 -9949 0
9929 9815 0
9929 9709 0
-9929 -9815 -9709 0
9931 9709 0
9931 9770 0
-9931 -9709 -9770 0
9935 9851 0
9935 9565 0
-9935 -9851 -9565 0
9938 9567 0
9938 9872 0
-9938 -9567 -9872 0
9569 9860 0
9569 9850 0
9569 9851 0
-9569 -9860 -9850 -9851 0
9693 9830 0
9693 9846 0
9693 9863 0
-9693 -9830 -9846 -9863 0
9943 9871 0
9943 10029 0
-9943 -9871 -10029 0
9950 9709 0
9950 9871 0
-9950 -9709 -9871 0
9583 9584 0
9583 9585 0
-9583 -9584 -9585 0
9713 9587 0
9713 9758 0
-9713 -9587 -9758 0
9589 9590 0
9589 9920 0
-9589 -9590 -9920 0
9592 9593 0
9592 9850 0
-9592 -9593 -9850 0
9962 9596 0
9962 9760 0
-9962 -9596 -9760 0
9673 9599 0
9673 9830 0
-9673 -9599 -9830 0
9601 9602 0
9601 10049 0
-9601 -9602 -10049 0
9604 9605 0
9604 9606 0
-9604 -9605 -9606 0
9607 9943 0
9607 9875 0
-9607 -9943 -9875 0
9610 9611 0
9610 9883 0
-9610 -9611 -9883 0
9613 9614 0
9613 9850 0
-9613 -9614 -9850 0
9668 9799 0
9668 9895 0
9668 9908 0
-9668 -9799 -9895 -9908 0
9965 9770 0
9965 9918 0
-9965 -9770 -9918 0
9754 9997 0
9754 9918 0
9754 9980 0
-9754 -9997 -9918 -9980 0
9702 9794 0
9702 9799 0
9702 9927 0
-9702 -9794 -9799 -9927 0
9969 9930 0
9969 9802 0
9969 9788 0
-9969 -9930 -9802 -9788 0
9635 9680 0
9635 9930 0
9635 9860 0
-9635 -9680 -9930 -9860 0
9732 9912 0
9732 10110 0
9732 9873 0
-9732 -9912 -10110 -9873 0
9977 9936 0
9977 9802 0
-9977 -9936 -9802 0
9985 9936 0
9985 9810 0
9985 9789 0
-9985 -9936 -9810 -9789 0
9988 9810 0
9988 9936 0
9988 9800 0
-9988 -9810 -9936 -9800 0
9993 9895 0
9993 9656 0
9993 9936 0
-9993 -9895 -9656 -9936 0
9658 9659 0
9658 9713 0
-9658 -9659 -9713 0
10001 9662 0
10001 9663 0
-10001 -9662 -9663 0
9664 9665 0
9664 9693 0
-9664 -9665 -9693 0
10150 9668 0
10150 9965 0
-10150 -9668 -9965 0
10120 9671 0
10120 9672 0
10120 9673 0
-10120 -9671 -9672 -9673 0
10142 9675 0
10142 9676 0
-10142 -9675 -9676 0
9696 9976 0
9696 10067 0
9696 9680 0
-9696 -9976 -10067 -9680 0
9681 9984 0
9681 9856 0
-9681 -9984 -9856 0
9684 9685 0
9684 9984 0
9684 9687 0
-9684 -9685 -9984 -9687 0
10054 9689 0
10054 9690 0
-10054 -9689 -9690 0
10060 9692 0
10060 9693 0
-10060 -9692 -9693 0
10172 9695 0
10172 9696 0
-10172 -9695 -9696 0
10122 9698 0
10122 9699 0
10122 9700 0
-10122 -9698 -9699 -9700 0
10140 9702 0
10140 10042 0
-10140 -9702 -10042 0
10152 9705 0
10152 9706 0
-10152 -9705 -9706 0
9725 9708 0
9725 9709 0
-9725 -9708 -9709 0
10154 9711 0
10154 9712 0
10154 9713 0
-10154 -9711 -9712 -9713 0
9730 9715 0
9730 9716 0
-9730 -9715 -9716 0
9717 9718 0
9717 9729 0
9717 10072 0
-9717 -9718 -9729 -10072 0
9736 9722 0
9736 9723 0
-9736 -9722 -9723 0
10109 9725 0
10109 9726 0
10109 9727 0
-10109 -9725 -9726 -9727 0
10162 9729 0
10162 9730 0
10162 10069 0
10162 9732 0
-10162 -9729 -9730 -10069 -9732 0
9733 9734 0
9733 9735 0
9733 9736 0
-9733 -9734 -9735 -9736 0
10124 9738 0
10124 10008 0
10124 10093 0
-10124 -9738 -10008 -10093 0
10156 9742 0
10156 9743 0
10156 9744 0
-10156 -9742 -9743 -9744 0
10126 9746 0
10126 10102 0
-10126 -9746 -10102 0
10116 9749 0
10116 10107 0
-10116 -9749 -10107 0
10118 9752 0
10118 9753 0
10118 9754 0
-10118 -9752 -9753 -9754 0
-9793 -10006 0
-9793 -9856 0
9793 10006 9856 0
-9758 -9949 0
-9758 -9760 0
9758 9949 9760 0
-9761 -9856 0
-9761 -10029 0
9761 9856 10029 0
-9764 -9787 0
-9764 -9934 0
9764 9787 9934 0
-9872 -9997 0
-9872 -9920 0
9872 9997 9920 0
-9770 -10029 0
-9770 -9997 0
9770 10029 9997 0
-10168 -9879 0
-10168 -9892 0
10168 9879 9892 0
-9992 -9789 0
-9992 -9934 0
9992 9789 9934 0
-9779 -9997 0
-9779 -9789 0
9779 9997 9789 0
-9782 -10029 0
-9782 -9784 0
9782 10029 9784 0
-9785 -9895 0
-9785 -9787 0
9785 9895 9787 0
-9788 -9789 0
-9788 -9876 0
9788 9789 9876 0
-9791 -10029 0
-9791 -9793 0
9791 10029 9793 0
-9794 -10006 0
-9794 -10049 0
9794 10006 10049 0
-9797 -9997 0
-9797 -9799 0
9797 9997 9799 0
-9800 -10006 0
-9800 -9802 0
9800 10006 9802 0
-9803 -9997 0
-9803 -9850 0
9803 9997 9850 0
-10166 -9810 0
-10166 -9892 0
10166 9810 9892 0
-9809 -9810 0
-9809 -9850 0
9809 9810 9850 0
-9873 -9850 0
-9873 -9836 0
9873 9850 9836 0
-9815 -9836 0
-9815 -9920 0
9815 9836 9920 0
-9818 -9920 0
-9818 -10000 0
9818 9920 10000 0
-9821 -9980 0
-9821 -9920 0
9821 9980 9920 0
-10067 -9825 0
-10067 -9826 0
10067 9825 9826 0
-9827 -9959 0
-9827 -10029 0
9827 9959 10029 0
-9830 -9920 0
-9830 -9971 0
-9830 -10029 0
9830 9920 9971 10029 0
-9834 -9917 0
-9834 -9836 0
-9834 -9920 0
9834 9917 9836 9920 0
-9838 -10032 0
-9838 -9850 0
9838 10032 9850 0
-9841 -9997 0
-9841 -9843 0
9841 9997 9843 0
-9844 -9914 0
-9844 -9846 0
9844 9914 9846 0
-9847 -9848 0
-9847 -9914 0
-9847 -9850 0
9847 9848 9914 9850 0
-9851 -9937 0
-9851 -9963 0
9851 9937 9963 0
-9854 -10022 0
-9854 -9856 0
9854 10022 9856 0
-9857 -9858 0
-9857 -9920 0
9857 9858 9920 0
-9860 -9865 0
-9860 -9895 0
9860 9865 9895 0
-9863 -9997 0
-9863 -9865 0
-9863 -9866 0
9863 9997 9865 9866 0
-10138 -9868 0
-10138 -9869 0
-10138 -9971 0
10138 9868 9869 9971 0
-9871 -9872 0
-9871 -9873 0
9871 9872 9873 0
-9953 -9875 0
-9953 -9876 0
9953 9875 9876 0
-9877 -9999 0
-9877 -9879 0
9877 9999 9879 0
-10064 -9884 0
-10064 -9959 0
10064 9884 9959 0
-9883 -9884 0
-9883 -9885 0
9883 9884 9885 0
-9886 -9949 0
-9886 -10027 0
-9886 -10032 0
9886 9949 10027 10032 0
-10160 -9912 0
-10160 -9892 0
10160 9912 9892 0
-9893 -9912 0
-9893 -9895 0
9893 9912 9895 0
-9896 -10049 0
-9896 -9898 0
9896 10049 9898 0
-9954 -10023 0
-9954 -9999 0
9954 10023 9999 0
-9902 -9997 0
-9902 -9904 0
9902 9997 9904 0
-9905 -9959 0
-9905 -9907 0
9905 9959 9907 0
-9908 -9997 0
-9908 -9913 0
9908 9997 9913 0
-10053 -9912 0
-10053 -9913 0
-10053 -9914 0
10053 9912 9913 9914 0
-9915 -9916 0
-9915 -9917 0
9915 9916 9917 0
-9918 -9919 0
-9918 -9920 0
9918 9919 9920 0
-10086 -9929 0
-10086 -9923 0
10086 9929 9923 0
-10041 -9929 0
-10041 -9926 0
10041 9929 9926 0
-9927 -9949 0
-9927 -9929 0
9927 9949 9929 0
-9930 -9931 0
-9930 -9949 0
9930 9931 9949 0
-10110 -9934 0
-10110 -9935 0
10110 9934 9935 0
-9936 -9937 0
-9936 -9938 0
9936 9937 9938 0
-9939 -9949 0
-9939 -9941 0
9939 9949 9941 0
-9942 -9943 0
-9942 -9949 0
9942 9943 9949 0
-9945 -9950 0
-9945 -9947 0
9945 9950 9947 0
-9948 -9949 0
-9948 -9950 0
-9948 -9951 0
9948 9949 9950 9951 0
-9952 -9953 0
-9952 -9954 0
9952 9953 9954 0
-10136 -9959 0
-10136 -9957 0
10136 9959 9957 0
-9958 -9959 0
-9958 -9960 0
9958 9959 9960 0
-9961 -9962 0
-9961 -9963 0
9961 9962 9963 0
-9964 -9965 0
-9964 -9966 0
9964 9965 9966 0
-9967 -9979 0
-9967 -9969 0
9967 9979 9969 0
-9970 -9971 0
-9970 -9972 0
9970 9971 9972 0
-9973 -9977 0
-9973 -10006 0
9973 9977 10006 0
-9976 -9977 0
-9976 -10000 0
-9976 -9979 0
-9976 -9980 0
9976 9977 10000 9979 9980 0
-10084 -9985 0
-10084 -9983 0
10084 9985 9983 0
-9984 -9985 0
-9984 -9986 0
9984 9985 9986 0
-10079 -9988 0
-10079 -9989 0
10079 9988 9989 0
-10090 -10049 0
-10090 -9992 0
-10090 -9993 0
-10090 -9994 0
10090 10049 9992 9993 9994 0
-9995 -10001 0
-9995 -9997 0
9995 10001 9997 0
-10059 -9999 0
-10059 -10000 0
-10059 -10001 0
10059 9999 10000 10001 0
-10002 -10053 0
-10002 -10004 0
10002 10053 10004 0
-10005 -10006 0
-10005 -10007 0
10005 10006 10007 0
-10008 -10009 0
-10008 -10010 0
-10008 -10011 0
10008 10009 10010 10011 0
-10012 -10013 0
-10012 -10014 0
-10012 -10144 0
-10012 -10016 0
10012 10013 10014 10144 10016 0
-10017 -10018 0
-10017 -10019 0
10017 10018 10019 0
-10020 -10025 0
-10020 -10022 0
-10020 -10023 0
10020 10025 10022 10023 0
-10104 -10025 0
-10104 -10050 0
-10104 -10027 0
10104 10025 10050 10027 0
-10028 -10029 0
-10028 -10030 0
10028 10029 10030 0
-10063 -10032 0
-10063 -10033 0
10063 10032 10033 0
-10034 -10035 0
-10034 -10036 0
10034 10035 10036 0
-10037 -10038 0
-10037 -10144 0
-10037 -10136 0
-10037 -10041 0
10037 10038 10144 10136 10041 0
-10042 -10043 0
-10042 -10044 0
10042 10043 10044 0
-10045 -10046 0
-10045 -10100 0
10045 10046 10100 0
-10073 -10049 0
-10073 -10050 0
-10073 -10051 0
10073 10049 10050 10051 0
-10052 -10053 0
-10052 -10054 0
-10052 -10055 0
10052 10053 10054 10055 0
-10056 -10057 0
-10056 -10100 0
-10056 -10059 0
-10056 -10060 0
10056 10057 10100 10059 10060 0
-10061 -10062 0
-10061 -10063 0
-10061 -10064 0
-10061 -10144 0
10061 10062 10063 10064 10144 0
-10066 -10067 0
-10066 -10068 0
10066 10067 10068 0
-10069 -10073 0
-10069 -10071 0
10069 10073 10071 0
-10072 -10073 0
-10072 -10100 0
-10072 -10075 0
10072 10073 10100 10075 0
-10076 -10084 0
-10076 -10083 0
-10076 -10079 0
10076 10084 10083 10079 0
-10080 -10081 0
-10080 -10082 0
-10080 -10083 0
-10080 -10084 0
10080 10081 10082 10083 10084 0
-10085 -10086 0
-10085 -10087 0
-10085 -10088 0
10085 10086 10087 10088 0
-10089 -10090 0
-10089 -10091 0
-10089 -10092 0
10089 10090 10091 10092 0
-10093 -10094 0
-10093 -10095 0
-10093 -10096 0
10093 10094 10095 10096 0
-10097 -10098 0
-10097 -10099 0
-10097 -10100 0
-10097 -10101 0
10097 10098 10099 10100 10101 0
-10102 -10103 0
-10102 -10104 0
-10102 -10105 0
-10102 -10106 0
10102 10103 10104 10105 10106 0
-10107 -10108 0
-10107 -10109 0
-10107 -10110 0
-10107 -10144 0
10107 10108 10109 10110 10144 0
-10112 -10113 0
-10112 -10114 0
10112 10113 10114 0
-10116 10975 0
10116 -10975 0
-10118 11164 0
10118 -11164 0
-10120 11100 0
10120 -11100 0
-10122 11244 0
10122 -11244 0
-10124 11135 0
10124 -11135 0
-10126 11212 0
10126 -11212 0
-10128 10127 0
10128 -10127 0
-10130 10129 0
10130 -10129 0
-10132 10131 0
10132 -10131 0
-10134 10133 0
10134 -10133 0
-10136 10135 0
10136 -10135 0
-10138 10137 0
10138 -10137 0
-10140 10139 0
10140 -10139 0
-10142 10141 0
10142 -10141 0
-10144 10143 0
10144 -10143 0
-10146 10145 0
10146 -10145 0
-10148 10147 0
10148 -10147 0
-10150 10149 0
10150 -10149 0
-10152 10151 0
10152 -10151 0
-10154 10153 0
10154 -10153 0
-10156 10155 0
10156 -10155 0
-10158 10157 0
10158 -10157 0
-10160 10159 0
10160 -10159 0
-10162 10161 0
10162 -10161 0
-10164 10163 0
10164 -10163 0
-10166 10165 0
10166 -10165 0
-10168 10167 0
10168 -10167 0
-10170 10169 0
10170 -10169 0
-10172 10171 0
10172 -10171 0
11110 11221 0
-11110 -11221 0
11181 10176 0
-11181 -10176 0
10373 10376 0
-10373 -10376 0
10644 10376 0
-10644 -10376 0
11091 11149 0
-11091 -11149 0
10375 11071 0
-10375 -11071 0
11264 11071 0
-11264 -11071 0
10761 11164 0
-10761 -11164 0
11061 11100 0
-11061 -11100 0
11014 11244 0
-11014 -11244 0
10768 10931 0
-10768 -10931 0
11017 11002 0
-11017 -11002 0
11065 11135 0
-11065 -11135 0
10780 10719 0
-10780 -10719 0
11025 11094 0
-11025 -11094 0
11051 11212 0
-11051 -11212 0
11215 10754 0
-11215 -10754 0
11195 10680 0
-11195 -10680 0
10895 10902 0
-10895 -10902 0
11063 10999 0
-11063 -10999 0
11186 10973 0
-11186 -10973 0
10397 10979 0
-10397 -10979 0
11209 10765 0
-11209 -10765 0
10404 10997 0
-10404 -10997 0
11201 11000 0
-11201 -11000 0
10572 10643 0
-10572 -10643 0
10450 11006 0
-10450 -11006 0
10924 11247 0
-10924 -11247 0
10782 11178 0
-10782 -11178 0
10554 10673 0
-10554 -10673 0
11242 11018 0
-11242 -11018 0
10545 10682 0
-10545 -10682 0
11127 11080 0
-11127 -11080 0
10418 11024 0
-10418 -11024 0
10553 10691 0
-10553 -10691 0
10556 10700 0
-10556 -10700 0
11238 11030 0
-11238 -11030 0
10560 10706 0
-10560 -10706 0
10633 11036 0
-10633 -11036 0
10485 11049 0
-10485 -11049 0
10621 10732 0
-10621 -10732 0
10428 11056 0
-10428 -11056 0
10431 11062 0
-10431 -11062 0
10447 11072 0
-10447 -11072 0
10573 11353 0
-10573 -11353 0
10507 10749 0
-10507 -10749 0
11385 10756 0
-11385 -10756 0
10456 10942 0
-10456 -10942 0
10887 11279 0
-10887 -11279 0
10878 10784 0
-10878 -10784 0
11316 10908 0
-11316 -10908 0
10471 11111 0
-10471 -11111 0
10483 11117 0
-10483 -11117 0
10614 10798 0
-10614 -10798 0
10581 11120 0
-10581 -11120 0
10473 10807 0
-10473 -10807 0
11219 10888 0
-11219 -10888 0
10482 11154 0
-10482 -11154 0
10603 10819 0
-10603 -10819 0
10606 10822 0
-10606 -10822 0
10486 11157 0
-10486 -11157 0
10941 11160 0
-10941 -11160 0
10891 11163 0
-10891 -11163 0
10488 11167 0
-10488 -11167 0
11226 10825 0
-11226 -10825 0
10494 10883 0
-10494 -10883 0
11359 11180 0
-11359 -11180 0
11231 10917 0
-11231 -10917 0
10944 11173 0
-10944 -11173 0
11315 10947 0
-11315 -10947 0
10513 11203 0
-10513 -11203 0
10921 10873 0
-10921 -10873 0
11240 11176 0
-11240 -11176 0
10915 10879 0
-10915 -10879 0
10611 11182 0
-10611 -11182 0
10914 11185 0
-10914 -11185 0
11266 11188 0
-11266 -11188 0
11321 11217 0
-11321 -11217 0
10623 11220 0
-10623 -11220 0
11343 11227 0
-11343 -11227 0
11298 10911 0
-11298 -10911 0
10629 10896 0
-10629 -10896 0
11302 10899 0
-11302 -10899 0
10953 11235 0
-10953 -11235 0
10520 11249 0
-10520 -11249 0
11345 11252 0
-11345 -11252 0
11306 11260 0
-11306 -11260 0
11311 11267 0
-11311 -11267 0
11349 11271 0
-11349 -11271 0
11363 11276 0
-11363 -11276 0
10632 11281 0
-10632 -11281 0
11373 11291 0
-11373 -11291 0
11379 11295 0
-11379 -11295 0
11320 11300 0
-11320 -11300 0
11329 11304 0
-11329 -11304 0
10959 10932 0
-10959 -10932 0
11361 11312 0
-11361 -11312 0
10968 10948 0
-10968 -10948 0
11347 11327 0
-11347 -11327 0
-11040 11071 0
-11040 10373 0
11040 -11071 -10373 0
-11041 10375 0
-11041 10376 0
11041 -10375 -10376 0
-11058 11135 0
-11058 11014 0
11058 -11135 -11014 0
-11166 11221 0
-11166 11014 0
11166 -11221 -11014 0
-11073 10871 0
-11073 11071 0
-11073 11014 0
11073 -10871 -11071 -11014 0
-11250 11110 0
-11250 11087 0
11250 -11110 -11087 0
-11162 11014 0
-11162 11132 0
11162 -11014 -11132 0
-11141 11014 0
-11141 10655 0
11141 -11014 -10655 0
-11113 10397 0
-11113 10688 0
11113 -10397 -10688 0
-11119 10676 0
-11119 10709 0
11119 -10676 -10709 0
-11122 11135 0
-11122 10404 0
11122 -11135 -10404 0
-11225 11212 0
-11225 11042 0
11225 -11212 -11042 0
-11138 11014 0
-11138 10729 0
11138 -11014 -10729 0
-11198 10739 0
-11198 10721 0
11198 -10739 -10721 0
-11277 11042 0
-11277 11242 0
11277 -11042 -11242 0
-11156 10418 0
-11156 10746 0
11156 -10418 -10746 0
-11314 11353 0
-11314 11221 0
11314 -11353 -11221 0
-11204 10800 0
-11204 10749 0
11204 -10800 -10749 0
-11172 11129 0
-11172 10428 0
11172 -11129 -10428 0
-11175 11084 0
-11175 10431 0
11175 -11084 -10431 0
-11228 10975 0
-11228 11098 0
11228 -10975 -11098 0
-11328 11209 0
-11328 10973 0
-11328 11098 0
11328 -11209 -10973 -11098 0
-11229 11101 0
-11229 11009 0
11229 -11101 -11009 0
-11323 11002 0
-11323 11101 0
11323 -11002 -11101 0
-11233 10994 0
-11233 10447 0
11233 -10994 -10447 0
-11258 11123 0
-11258 10450 0
11258 -11123 -10450 0
-11224 11123 0
-11224 11108 0
11224 -11123 -11108 0
-11270 11132 0
-11270 10456 0
11270 -11132 -10456 0
-11310 11018 0
-11310 11130 0
11310 -11018 -11130 0
-11318 11130 0
-11318 11030 0
11318 -11130 -11030 0
-11303 11142 0
-11303 11108 0
11303 -11142 -11108 0
-11187 10804 0
-11187 10736 0
11187 -10804 -10736 0
-11222 10816 0
-11222 10471 0
11222 -10816 -10471 0
-11234 10473 0
-11234 11195 0
11234 -10473 -11195 0
-11272 11176 0
-11272 11169 0
11272 -11176 -11169 0
-11307 11168 0
-11307 11176 0
11307 -11168 -11176 0
-11245 10482 0
-11245 10483 0
11245 -10482 -10483 0
-11248 10485 0
-11248 10486 0
11248 -10485 -10486 0
-11251 10488 0
-11251 11075 0
11251 -10488 -11075 0
-11253 11264 0
-11253 10494 0
11253 -11264 -10494 0
-11297 10494 0
-11297 10931 0
11297 -10494 -10931 0
-11259 11359 0
-11259 11071 0
11259 -11359 -11071 0
-11261 11182 0
-11261 10938 0
-11261 10902 0
11261 -11182 -10938 -10902 0
-11286 11188 0
-11286 11069 0
11286 -11188 -11069 0
-11290 10507 0
-11290 11188 0
11290 -10507 -11188 0
-11309 10703 0
-11309 11191 0
11309 -10703 -11191 0
-11296 10513 0
-11296 11069 0
11296 -10513 -11069 0
-11283 10611 0
-11283 10850 0
11283 -10611 -10850 0
-11313 11066 0
-11313 10520 0
11313 -11066 -10520 0
10820 -10902 0
10820 -11212 0
10820 -10754 0
-10820 10902 11212 10754 0
10733 -11212 0
10733 -10976 0
-10733 11212 10976 0
10877 -10895 0
10877 -11003 0
-10877 10895 11003 0
10900 -10750 0
10900 -11215 0
-10900 10750 11215 0
10799 -11214 0
10799 -11071 0
-10799 11214 11071 0
10802 -11087 0
10802 -11059 0
-10802 11087 11059 0
10805 -11012 0
10805 -11059 0
-10805 11012 11059 0
10808 -11212 0
10808 -10545 0
-10808 11212 10545 0
10811 -11164 0
10811 -11075 0
-10811 11164 11075 0
10814 -11100 0
10814 -11078 0
-10814 11100 11078 0
10817 -10553 0
10817 -10554 0
-10817 10553 10554 0
10821 -10556 0
10821 -11214 0
-10821 10556 11214 0
10826 -10975 0
10826 -10560 0
-10826 10975 10560 0
10829 -11009 0
10829 -11092 0
-10829 11009 11092 0
10927 -11051 0
10927 -11150 0
-10927 11051 11150 0
10874 -11110 0
10874 -11164 0
10874 -11153 0
-10874 11110 11164 11153 0
10964 -10572 0
10964 -10573 0
-10964 10572 10573 0
10880 -11158 0
10880 -11131 0
-10880 11158 11131 0
10905 -10931 0
10905 -10887 0
-10905 10931 10887 0
10886 -10581 0
10886 -11051 0
-10886 10581 11051 0
10890 -11180 0
10890 -10644 0
-10890 11180 10644 0
10950 -11180 0
10950 -10931 0
-10950 11180 10931 0
10933 -10828 0
10933 -11184 0
-10933 10828 11184 0
10910 -11200 0
10910 -10721 0
-10910 11200 10721 0
10904 -10614 0
10904 -11203 0
-10904 10614 11203 0
10907 -10749 0
10907 -11208 0
-10907 10749 11208 0
10957 -10784 0
10957 -10603 0
-10957 10784 10603 0
10949 -11134 0
10949 -10606 0
-10949 11134 10606 0
10913 -11240 0
10913 -11167 0
-10913 11240 11167 0
10958 -10611 0
10958 -11033 0
-10958 10611 11033 0
10961 -10614 0
10961 -11266 0
-10961 10614 11266 0
10920 -11247 0
10920 -11232 0
-10920 11247 11232 0
10923 -11243 0
10923 -10621 0
-10923 11243 10621 0
10926 -10623 0
10926 -11146 0
-10926 10623 11146 0
10930 -11278 0
10930 -11179 0
-10930 11278 11179 0
10937 -10629 0
10937 -11210 0
-10937 10629 11210 0
10967 -10632 0
10967 -10633 0
-10967 10632 10633 0
10871 11094 0
10871 11002 0
-10871 -11094 -11002 0
10765 11004 0
10765 11149 0
-10765 -11004 -11149 0
11081 10680 0
11081 10719 0
-11081 -10680 -10719 0
10643 10644 0
10643 11110 0
-10643 -10644 -11110 0
11265 11004 0
11265 11091 0
-11265 -11004 -11091 0
11174 11100 0
11174 10973 0
-11174 -11100 -10973 0
11132 11110 0
11132 10761 0
-11132 -11110 -10761 0
10655 11008 0
10655 10761 0
-10655 -11008 -10761 0
11152 10761 0
11152 10975 0
-11152 -10761 -10975 0
11083 11061 0
11083 10663 0
-11083 -11061 -10663 0
11247 11061 0
11247 10975 0
-11247 -11061 -10975 0
11129 11014 0
11129 11212 0
-11129 -11014 -11212 0
11178 11014 0
11178 11061 0
-11178 -11014 -11061 0
10673 11017 0
10673 10680 0
-10673 -11017 -10680 0
10676 11065 0
10676 11221 0
-10676 -11065 -11221 0
11237 10680 0
11237 10780 0
-11237 -10680 -10780 0
10682 10976 0
10682 10871 0
-10682 -10976 -10871 0
11080 11025 0
11080 11017 0
-11080 -11025 -11017 0
10688 11025 0
10688 11004 0
-10688 -11025 -11004 0
10691 11025 0
10691 10780 0
-10691 -11025 -10780 0
11194 11221 0
11194 11025 0
-11194 -11221 -11025 0
11084 11087 0
11084 11244 0
-11084 -11087 -11244 0
10700 11051 0
10700 10902 0
-10700 -11051 -10902 0
10703 11207 0
10703 10902 0
-10703 -11207 -10902 0
10706 10761 0
10706 10765 0
-10706 -10761 -10765 0
10709 11071 0
10709 10765 0
-10709 -11071 -10765 0
11090 11135 0
11090 10994 0
-11090 -11135 -10994 0
10750 11195 0
10750 10780 0
-10750 -11195 -10780 0
11214 10719 0
11214 11195 0
-11214 -10719 -11195 0
10721 11264 0
10721 11215 0
10721 11000 0
10721 10902 0
-10721 -11264 -11215 -11000 -10902 0
10800 11003 0
10800 11071 0
-10800 -11003 -11071 0
10729 11081 0
10729 11132 0
-10729 -11081 -11132 0
10732 10733 0
10732 11065 0
10732 11081 0
-10732 -10733 -11065 -11081 0
10736 11012 0
10736 11083 0
-10736 -11012 -11083 0
10739 11091 0
10739 11015 0
10739 11071 0
-10739 -11091 -11015 -11071 0
11099 11018 0
11099 11244 0
-11099 -11018 -11244 0
10746 11080 0
10746 11212 0
-10746 -11080 -11212 0
10749 10750 0
10749 11264 0
10749 11081 0
-10749 -10750 -11264 -11081 0
10938 10754 0
10938 11214 0
-10938 -10754 -11214 0
10756 11042 0
10756 11087 0
-10756 -11042 -11087 0
11128 11053 0
11128 10761 0
-11128 -11053 -10761 0
10942 11051 0
10942 11053 0
10942 10765 0
-10942 -11051 -11053 -10765 0
11131 10924 0
11131 10768 0
-11131 -10924 -10768 0
11134 10924 0
11134 11164 0
-11134 -10924 -11164 0
11144 11030 0
11144 10924 0
-11144 -11030 -10924 0
11146 10924 0
11146 10985 0
-11146 -10924 -10985 0
11150 11066 0
11150 10780 0
-11150 -11066 -10780 0
11153 10782 0
11153 11087 0
-11153 -10782 -11087 0
10784 11075 0
10784 11065 0
10784 11066 0
-10784 -11075 -11065 -11066 0
10908 11045 0
10908 11061 0
10908 11078 0
-10908 -11045 -11061 -11078 0
11158 11086 0
11158 11244 0
-11158 -11086 -11244 0
11165 10924 0
11165 11086 0
-11165 -10924 -11086 0
10798 10799 0
10798 10800 0
-10798 -10799 -10800 0
10928 10802 0
10928 10973 0
-10928 -10802 -10973 0
10804 10805 0
10804 11135 0
-10804 -10805 -11135 0
10807 10808 0
10807 11065 0
-10807 -10808 -11065 0
11177 10811 0
11177 10975 0
-11177 -10811 -10975 0
10888 10814 0
10888 11045 0
-10888 -10814 -11045 0
10816 10817 0
10816 11264 0
-10816 -10817 -11264 0
10819 10820 0
10819 10821 0
-10819 -10820 -10821 0
10822 11158 0
10822 11090 0
-10822 -11158 -11090 0
10825 10826 0
10825 11098 0
-10825 -10826 -11098 0
10828 10829 0
10828 11065 0
-10828 -10829 -11065 0
10883 11014 0
10883 11110 0
10883 11123 0
-10883 -11014 -11110 -11123 0
11180 10985 0
11180 11133 0
-11180 -10985 -11133 0
10969 11212 0
10969 11133 0
10969 11195 0
-10969 -11212 -11133 -11195 0
10917 11009 0
10917 11014 0
10917 11142 0
-10917 -11009 -11014 -11142 0
11184 11145 0
11184 11017 0
11184 11003 0
-11184 -11145 -11017 -11003 0
10850 10895 0
10850 11145 0
10850 11075 0
-10850 -10895 -11145 -11075 0
10947 11127 0
10947 11325 0
10947 11088 0
-10947 -11127 -11325 -11088 0
11192 11151 0
11192 11017 0
-11192 -11151 -11017 0
11200 11151 0
11200 11025 0
11200 11004 0
-11200 -11151 -11025 -11004 0
11203 11025 0
11203 11151 0
11203 11015 0
-11203 -11025 -11151 -11015 0
11208 11110 0
11208 10871 0
11208 11151 0
-11208 -11110 -10871 -11151 0
10873 10874 0
10873 10928 0
-10873 -10874 -10928 0
11216 10877 0
11216 10878 0
-11216 -10877 -10878 0
10879 10880 0
10879 10908 0
-10879 -10880 -10908 0
11365 10883 0
11365 11180 0
-11365 -10883 -11180 0
11335 10886 0
11335 10887 0
11335 10888 0
-11335 -10886 -10887 -10888 0
11357 10890 0
11357 10891 0
-11357 -10890 -10891 0
10911 11191 0
10911 11282 0
10911 10895 0
-10911 -11191 -11282 -10895 0
10896 11199 0
10896 11071 0
-10896 -11199 -11071 0
10899 10900 0
10899 11199 0
10899 10902 0
-10899 -10900 -11199 -10902 0
11269 10904 0
11269 10905 0
-11269 -10904 -10905 0
11275 10907 0
11275 10908 0
-11275 -10907 -10908 0
11387 10910 0
11387 10911 0
-11387 -10910 -10911 0
11337 10913 0
11337 10914 0
11337 10915 0
-11337 -10913 -10914 -10915 0
11355 10917 0
11355 11257 0
-11355 -10917 -11257 0
11367 10920 0
11367 10921 0
-11367 -10920 -10921 0
10940 10923 0
10940 10924 0
-10940 -10923 -10924 0
11369 10926 0
11369 10927 0
11369 10928 0
-11369 -10926 -10927 -10928 0
10945 10930 0
10945 10931 0
-10945 -10930 -10931 0
10932 10933 0
10932 10944 0
10932 11287 0
-10932 -10933 -10944 -11287 0
10951 10937 0
10951 10938 0
-10951 -10937 -10938 0
11324 10940 0
11324 10941 0
11324 10942 0
-11324 -10940 -10941 -10942 0
11377 10944 0
11377 10945 0
11377 11284 0
11377 10947 0
-11377 -10944 -10945 -11284 -10947 0
10948 10949 0
10948 10950 0
10948 10951 0
-10948 -10949 -10950 -10951 0
11339 10953 0
11339 11223 0
11339 11308 0
-11339 -10953 -11223 -11308 0
11371 10957 0
11371 10958 0
11371 10959 0
-11371 -10957 -10958 -10959 0
11341 10961 0
11341 11317 0
-11341 -10961 -11317 0
11331 10964 0
11331 11322 0
-11331 -10964 -11322 0
11333 10967 0
11333 10968 0
11333 10969 0
-11333 -10967 -10968 -10969 0
-11008 -11221 0
-11008 -11071 0
11008 11221 11071 0
-10973 -11164 0
-10973 -10975 0
10973 11164 10975 0
-10976 -11071 0
-10976 -11244 0
10976 11071 11244 0
-10979 -11002 0
-10979 -11149 0
10979 11002 11149 0
-11087 -11212 0
-11087 -11135 0
11087 11212 11135 0
-10985 -11244 0
-10985 -11212 0
10985 11244 11212 0
-11383 -11094 0
-11383 -11107 0
11383 11094 11107 0
-11207 -11004 0
-11207 -11149 0
11207 11004 11149 0
-10994 -11212 0
-10994 -11004 0
10994 11212 11004 0
-10997 -11244 0
-10997 -10999 0
10997 11244 10999 0
-11000 -11110 0
-11000 -11002 0
11000 11110 11002 0
-11003 -11004 0
-11003 -11091 0
11003 11004 11091 0
-11006 -11244 0
-11006 -11008 0
11006 11244 11008 0
-11009 -11221 0
-11009 -11264 0
11009 11221 11264 0
-11012 -11212 0
-11012 -11014 0
11012 11212 11014 0
-11015 -11221 0
-11015 -11017 0
11015 11221 11017 0
-11018 -11212 0
-11018 -11065 0
11018 11212 11065 0
-11381 -11025 0
-11381 -11107 0
11381 11025 11107 0
-11024 -11025 0
-11024 -11065 0
11024 11025 11065 0
-11088 -11065 0
-11088 -11051 0
11088 11065 11051 0
-11030 -11051 0
-11030 -11135 0
11030 11051 11135 0
-11033 -11135 0
-11033 -11215 0
11033 11135 11215 0
-11036 -11195 0
-11036 -11135 0
11036 11195 11135 0
-11282 -11040 0
-11282 -11041 0
11282 11040 11041 0
-11042 -11174 0
-11042 -11244 0
11042 11174 11244 0
-11045 -11135 0
-11045 -11186 0
-11045 -11244 0
11045 11135 11186 11244 0
-11049 -11132 0
-11049 -11051 0
-11049 -11135 0
11049 11132 11051 11135 0
-11053 -11247 0
-11053 -11065 0
11053 11247 11065 0
-11056 -11212 0
-11056 -11058 0
11056 11212 11058 0
-11059 -11129 0
-11059 -11061 0
11059 11129 11061 0
-11062 -11063 0
-11062 -11129 0
-11062 -11065 0
11062 11063 11129 11065 0
-11066 -11152 0
-11066 -11178 0
11066 11152 11178 0
-11069 -11237 0
-11069 -11071 0
11069 11237 11071 0
-11072 -11073 0
-11072 -11135 0
11072 11073 11135 0
-11075 -11080 0
-11075 -11110 0
11075 11080 11110 0
-11078 -11212 0
-11078 -11080 0
-11078 -11081 0
11078 11212 11080 11081 0
-11353 -11083 0
-11353 -11084 0
-11353 -11186 0
11353 11083 11084 11186 0
-11086 -11087 0
-11086 -11088 0
11086 11087 11088 0
-11168 -11090 0
-11168 -11091 0
11168 11090 11091 0
-11092 -11214 0
-11092 -11094 0
11092 11214 11094 0
-11279 -11099 0
-11279 -11174 0
11279 11099 11174 0
-11098 -11099 0
-11098 -11100 0
11098 11099 11100 0
-11101 -11164 0
-11101 -11242 0
-11101 -11247 0
11101 11164 11242 11247 0
-11375 -11127 0
-11375 -11107 0
11375 11127 11107 0
-11108 -11127 0
-11108 -11110 0
11108 11127 11110 0
-11111 -11264 0
-11111 -11113 0
11111 11264 11113 0
-11169 -11238 0
-11169 -11214 0
11169 11238 11214 0
-11117 -11212 0
-11117 -11119 0
11117 11212 11119 0
-11120 -11174 0
-11120 -11122 0
11120 11174 11122 0
-11123 -11212 0
-11123 -11128 0
11123 11212 11128 0
-11268 -11127 0
-11268 -11128 0
-11268 -11129 0
11268 11127 11128 11129 0
-11130 -11131 0
-11130 -11132 0
11130 11131 11132 0
-11133 -11134 0
-11133 -11135 0
11133 11134 11135 0
-11301 -11144 0
-11301 -11138 0
11301 11144 11138 0
-11256 -11144 0
-11256 -11141 0
11256 11144 11141 0
-11142 -11164 0
-11142 -11144 0
11142 11164 11144 0
-11145 -11146 0
-11145 -11164 0
11145 11146 11164 0
-11325 -11149 0
-11325 -11150 0
11325 11149 11150 0
-11151 -11152 0
-11151 -11153 0
11151 11152 11153 0
-11154 -11164 0
-11154 -11156 0
11154 11164 11156 0
-11157 -11158 0
-11157 -11164 0
11157 11158 11164 0
-11160 -11165 0
-11160 -11162 0
11160 11165 11162 0
-11163 -11164 0
-11163 -11165 0
-11163 -11166 0
11163 11164 11165 11166 0
-11167 -11168 0
-11167 -11169 0
11167 11168 11169 0
-11351 -11174 0
-11351 -11172 0
11351 11174 11172 0
-11173 -11174 0
-11173 -11175 0
11173 11174 11175 0
-11176 -11177 0
-11176 -11178 0
11176 11177 11178 0
-11179 -11180 0
-11179 -11181 0
11179 11180 11181 0
-11182 -11194 0
-11182 -11184 0
11182 11194 11184 0
-11185 -11186 0
-11185 -11187 0
11185 11186 11187 0
-11188 -11192 0
-11188 -11221 0
11188 11192 11221 0
-11191 -11192 0
-11191 -11215 0
-11191 -11194 0
-11191 -11195 0
11191 11192 11215 11194 11195 0
-11299 -11200 0
-11299 -11198 0
11299 11200 11198 0
-11199 -11200 0
-11199 -11201 0
11199 11200 11201 0
-11294 -11203 0
-11294 -11204 0
11294 11203 11204 0
-11305 -11264 0
-11305 -11207 0
-11305 -11208 0
-11305 -11209 0
11305 11264 11207 11208 11209 0
-11210 -11216 0
-11210 -11212 0
11210 11216 11212 0
-11274 -11214 0
-11274 -11215 0
-11274 -11216 0
11274 11214 11215 11216 0
-11217 -11268 0
-11217 -11219 0
11217 11268 11219 0
-11220 -11221 0
-11220 -11222 0
11220 11221 11222 0
-11223 -11224 0
-11223 -11225 0
-11223 -11226 0
11223 11224 11225 11226 0
-11227 -11228 0
-11227 -11229 0
-11227 -11359 0
-11227 -11231 0
11227 11228 11229 11359 11231 0
-11232 -11233 0
-11232 -11234 0
11232 11233 11234 0
-11235 -11240 0
-11235 -11237 0
-11235 -11238 0
11235 11240 11237 11238 0
-11319 -11240 0
-11319 -11265 0
-11319 -11242 0
11319 11240 11265 11242 0
-11243 -11244 0
-11243 -11245 0
11243 11244 11245 0
-11278 -11247 0
-11278 -11248 0
11278 11247 11248 0
-11249 -11250 0
-11249 -11251 0
11249 11250 11251 0
-11252 -11253 0
-11252 -11359 0
-11252 -11351 0
-11252 -11256 0
11252 11253 11359 11351 11256 0
-11257 -11258 0
-11257 -11259 0
11257 11258 11259 0
-11260 -11261 0
-11260 -11315 0
11260 11261 11315 0
-11288 -11264 0
-11288 -11265 0
-11288 -11266 0
11288 11264 11265 11266 0
-11267 -11268 0
-11267 -11269 0
-11267 -11270 0
11267 11268 11269 11270 0
-11271 -11272 0
-11271 -11315 0
-11271 -11274 0
-11271 -11275 0
11271 11272 11315 11274 11275 0
-11276 -11277 0
-11276 -11278 0
-11276 -11279 0
-11276 -11359 0
11276 11277 11278 11279 11359 0
-11281 -11282 0
-11281 -11283 0
11281 11282 11283 0
-11284 -11288 0
-11284 -11286 0
11284 11288 11286 0
-11287 -11288 0
-11287 -11315 0
-11287 -11290 0
11287 11288 11315 11290 0
-11291 -11299 0
-11291 -11298 0
-11291 -11294 0
11291 11299 11298 11294 0
-11295 -11296 0
-11295 -11297 0
-11295 -11298 0
-11295 -11299 0
11295 11296 11297 11298 11299 0
-11300 -11301 0
-11300 -11302 0
-11300 -11303 0
11300 11301 11302 11303 0
-11304 -11305 0
-11304 -11306 0
-11304 -11307 0
11304 11305 11306 11307 0
-11308 -11309 0
-11308 -11310 0
-11308 -11311 0
11308 11309 11310 11311 0
-11312 -11313 0
-11312 -11314 0
-11312 -11315 0
-11312 -11316 0
11312 11313 11314 11315 11316 0
-11317 -11318 0
-11317 -11319 0
-11317 -11320 0
-11317 -11321 0
11317 11318 11319 11320 11321 0
-11322 -11323 0
-11322 -11324 0
-11322 -11325 0
-11322 -11359 0
11322 11323 11324 11325 11359 0
-11327 -11328 0
-11327 -11329 0
11327 11328 11329 0
-11331 12190 0
11331 -12190 0
-11333 12379 0
11333 -12379 0
-11335 12315 0
11335 -12315 0
-11337 12459 0
11337 -12459 0
-11339 12350 0
11339 -12350 0
-11341 12427 0
11341 -12427 0
-11343 11342 0
11343 -11342 0
-11345 11344 0
11345 -11344 0
-11347 11346 0
11347 -11346 0
-11349 11348 0
11349 -11348 0
-11351 11350 0
11351 -11350 0
-11353 11352 0
11353 -11352 0
-11355 11354 0
11355 -11354 0
-11357 11356 0
11357 -11356 0
-11359 11358 0
11359 -11358 0
-11361 11360 0
11361 -11360 0
-11363 11362 0
11363 -11362 0
-11365 11364 0
11365 -11364 0
-11367 11366 0
11367 -11366 0
-11369 11368 0
11369 -11368 0
-11371 11370 0
11371 -11370 0
-11373 11372 0
11373 -11372 0
-11375 11374 0
11375 -11374 0
-11377 11376 0
11377 -11376 0
-11379 11378 0
11379 -11378 0
-11381 11380 0
11381 -11380 0
-11383 11382 0
11383 -11382 0
-11385 11384 0
11385 -11384 0
-11387 11386 0
11387 -11386 0
12325 12436 0
-12325 -12436 0
12396 11391 0
-12396 -11391 0
11588 11591 0
-11588 -11591 0
11859 11591 0
-11859 -11591 0
12306 12364 0
-12306 -12364 0
11590 12286 0
-11590 -12286 0
12479 12286 0
-12479 -12286 0
11976 12379 0
-11976 -12379 0
12276 12315 0
-12276 -12315 0
12229 12459 0
-12229 -12459 0
11983 12146 0
-11983 -12146 0
12232 12217 0
-12232 -12217 0
12280 12350 0
-12280 -12350 0
11995 11934 0
-11995 -11934 0
12240 12309 0
-12240 -12309 0
12266 12427 0
-12266 -12427 0
12430 11969 0
-12430 -11969 0
12410 11895 0
-12410 -11895 0
12110 12117 0
-12110 -12117 0
12278 12214 0
-12278 -12214 0
12401 12188 0
-12401 -12188 0
11612 12194 0
-11612 -12194 0
12424 11980 0
-12424 -11980 0
11619 12212 0
-11619 -12212 0
12416 12215 0
-12416 -12215 0
11787 11858 0
-11787 -11858 0
11665 12221 0
-11665 -12221 0
12139 12462 0
-12139 -12462 0
11997 12393 0
-11997 -12393 0
11769 11888 0
-11769 -11888 0
12457 12233 0
-12457 -12233 0
11760 11897 0
-11760 -11897 0
12342 12295 0
-12342 -12295 0
11633 12239 0
-11633 -12239 0
11768 11906 0
-11768 -11906 0
11771 11915 0
-11771 -11915 0
12453 12245 0
-12453 -12245 0
11775 11921 0
-11775 -11921 0
11848 12251 0
-11848 -12251 0
11700 12264 0
-11700 -12264 0
11836 11947 0
-11836 -11947 0
11643 12271 0
-11643 -12271 0
11646 12277 0
-11646 -12277 0
11662 12287 0
-11662 -12287 0
11788 12568 0
-11788 -12568 0
11722 11964 0
-11722 -11964 0
12600 11971 0
-12600 -11971 0
11671 12157 0
-11671 -12157 0
12102 12494 0
-12102 -12494 0
12093 11999 0
-12093 -11999 0
12531 12123 0
-12531 -12123 0
11686 12326 0
-11686 -12326 0
11698 12332 0
-11698 -12332 0
11829 12013 0
-11829 -12013 0
11796 12335 0
-11796 -12335 0
11688 12022 0
-11688 -12022 0
12434 12103 0
-12434 -12103 0
11697 12369 0
-11697 -12369 0
11818 12034 0
-11818 -12034 0
11821 12037 0
-11821 -12037 0
11701 12372 0
-11701 -12372 0
12156 12375 0
-12156 -12375 0
12106 12378 0
-12106 -12378 0
11703 12382 0
-11703 -12382 0
12441 12040 0
-12441 -12040 0
11709 12098 0
-11709 -12098 0
12574 12395 0
-12574 -12395 0
12446 12132 0
-12446 -12132 0
12159 12388 0
-12159 -12388 0
12530 12162 0
-12530 -12162 0
11728 12418 0
-11728 -12418 0
12136 12088 0
-12136 -12088 0
12455 12391 0
-12455 -12391 0
12130 12094 0
-12130 -12094 0
11826 12397 0
-11826 -12397 0
12129 12400 0
-12129 -12400 0
12481 12403 0
-12481 -12403 0
12536 12432 0
-12536 -12432 0
11838 12435 0
-11838 -12435 0
12558 12442 0
-12558 -12442 0
12513 12126 0
-12513 -12126 0
11844 12111 0
-11844 -12111 0
12517 12114 0
-12517 -12114 0
12168 12450 0
-12168 -12450 0
11735 12464 0
-11735 -12464 0
12560 12467 0
-12560 -12467 0
12521 12475 0
-12521 -12475 0
12526 12482 0
-12526 -12482 0
12564 12486 0
-12564 -12486 0
12578 12491 0
-12578 -12491 0
11847 12496 0
-11847 -12496 0
12588 12506 0
-12588 -12506 0
12594 12510 0
-12594 -12510 0
12535 12515 0
-12535 -12515 0
12544 12519 0
-12544 -12519 0
12174 12147 0
-12174 -12147 0
12576 12527 0
-12576 -12527 0
12183 12163 0
-12183 -12163 0
12562 12542 0
-12562 -12542 0
-12255 12286 0
-12255 11588 0
12255 -12286 -11588 0
-12256 11590 0
-12256 11591 0
12256 -11590 -11591 0
-12273 12350 0
-12273 12229 0
12273 -12350 -12229 0
-12381 12436 0
-12381 12229 0
12381 -12436 -12229 0
-12288 12086 0
-12288 12286 0
-12288 12229 0
12288 -12086 -12286 -12229 0
-12465 12325 0
-12465 12302 0
12465 -12325 -12302 0
-12377 12229 0
-12377 12347 0
12377 -12229 -12347 0
-12356 12229 0
-12356 11870 0
12356 -12229 -11870 0
-12328 11612 0
-12328 11903 0
12328 -11612 -11903 0
-12334 11891 0
-12334 11924 0
12334 -11891 -11924 0
-12337 12350 0
-12337 11619 0
12337 -12350 -11619 0
-12440 12427 0
-12440 12257 0
12440 -12427 -12257 0
-12353 12229 0
-12353 11944 0
12353 -12229 -11944 0
-12413 11954 0
-12413 11936 0
12413 -11954 -11936 0
-12492 12257 0
-12492 12457 0
12492 -12257 -12457 0
-12371 11633 0
-12371 11961 0
12371 -11633 -11961 0
-12529 12568 0
-12529 12436 0
12529 -12568 -12436 0
-12419 12015 0
-12419 11964 0
12419 -12015 -11964 0
-12387 12344 0
-12387 11643 0
12387 -12344 -11643 0
-12390 12299 0
-12390 11646 0
12390 -12299 -11646 0
-12443 12190 0
-12443 12313 0
12443 -12190 -12313 0
-12543 12424 0
-12543 12188 0
-12543 12313 0
12543 -12424 -12188 -12313 0
-12444 12316 0
-12444 12224 0
12444 -12316 -12224 0
-12538 12217 0
-12538 12316 0
12538 -12217 -12316 0
-12448 12209 0
-12448 11662 0
12448 -12209 -11662 0
-12473 12338 0
-12473 11665 0
12473 -12338 -11665 0
-12439 12338 0
-12439 12323 0
12439 -12338 -12323 0
-12485 12347 0
-12485 11671 0
12485 -12347 -11671 0
-12525 12233 0
-12525 12345 0
12525 -12233 -12345 0
-12533 12345 0
-12533 12245 0
12533 -12345 -12245 0
-12518 12357 0
-12518 12323 0
12518 -12357 -12323 0
-12402 12019 0
-12402 11951 0
12402 -12019 -11951 0
-12437 12031 0
-12437 11686 0
12437 -12031 -11686 0
-12449 11688 0
-12449 12410 0
12449 -11688 -12410 0
-12487 12391 0
-12487 12384 0
12487 -12391 -12384 0
-12522 12383 0
-12522 12391 0
12522 -12383 -12391 0
-12460 11697 0
-12460 11698 0
12460 -11697 -11698 0
-12463 11700 0
-12463 11701 0
12463 -11700 -11701 0
-12466 11703 0
-12466 12290 0
12466 -11703 -12290 0
-12468 12479 0
-12468 11709 0
12468 -12479 -11709 0
-12512 11709 0
-12512 12146 0
12512 -11709 -12146 0
-12474 12574 0
-12474 12286 0
12474 -12574 -12286 0
-12476 12397 0
-12476 12153 0
-12476 12117 0
12476 -12397 -12153 -12117 0
-12501 12403 0
-12501 12284 0
12501 -12403 -12284 0
-12505 11722 0
-12505 12403 0
12505 -11722 -12403 0
-12524 11918 0
-12524 12406 0
12524 -11918 -12406 0
-12511 11728 0
-12511 12284 0
12511 -11728 -12284 0
-12498 11826 0
-12498 12065 0
12498 -11826 -12065 0
-12528 12281 0
-12528 11735 0
12528 -12281 -11735 0
12035 -12117 0
12035 -12427 0
12035 -11969 0
-12035 12117 12427 11969 0
11948 -12427 0
11948 -12191 0
-11948 12427 12191 0
12092 -12110 0
12092 -12218 0
-12092 12110 12218 0
12115 -11965 0
12115 -12430 0
-12115 11965 12430 0
12014 -12429 0
12014 -12286 0
-12014 12429 12286 0
12017 -12302 0
12017 -12274 0
-12017 12302 12274 0
12020 -12227 0
12020 -12274 0
-12020 12227 12274 0
12023 -12427 0
12023 -11760 0
-12023 12427 11760 0
12026 -12379 0
12026 -12290 0
-12026 12379 12290 0
12029 -12315 0
12029 -12293 0
-12029 12315 12293 0
12032 -11768 0
12032 -11769 0
-12032 11768 11769 0
12036 -11771 0
12036 -12429 0
-12036 11771 12429 0
12041 -12190 0
12041 -11775 0
-12041 12190 11775 0
12044 -12224 0
12044 -12307 0
-12044 12224 12307 0
12142 -12266 0
12142 -12365 0
-12142 12266 12365 0
12089 -12325 0
12089 -12379 0
12089 -12368 0
-12089 12325 12379 12368 0
12179 -11787 0
12179 -11788 0
-12179 11787 11788 0
12095 -12373 0
12095 -12346 0
-12095 12373 12346 0
12120 -12146 0
12120 -12102 0
-12120 12146 12102 0
12101 -11796 0
12101 -12266 0
-12101 11796 12266 0
12105 -12395 0
12105 -11859 0
-12105 12395 11859 0
12165 -12395 0
12165 -12146 0
-12165 12395 12146 0
12148 -12043 0
12148 -12399 0
-12148 12043 12399 0
12125 -12415 0
12125 -11936 0
-12125 12415 11936 0
12119 -11829 0
12119 -12418 0
-12119 11829 12418 0
12122 -11964 0
12122 -12423 0
-12122 11964 12423 0
12172 -11999 0
12172 -11818 0
-12172 11999 11818 0
12164 -12349 0
12164 -11821 0
-12164 12349 11821 0
12128 -12455 0
12128 -12382 0
-12128 12455 12382 0
12173 -11826 0
12173 -12248 0
-12173 11826 12248 0
12176 -11829 0
12176 -12481 0
-12176 11829 12481 0
12135 -12462 0
12135 -12447 0
-12135 12462 12447 0
12138 -12458 0
12138 -11836 0
-12138 12458 11836 0
12141 -11838 0
12141 -12361 0
-12141 11838 12361 0
12145 -12493 0
12145 -12394 0
-12145 12493 12394 0
12152 -11844 0
12152 -12425 0
-12152 11844 12425 0
12182 -11847 0
12182 -11848 0
-12182 11847 11848 0
12086 12309 0
12086 12217 0
-12086 -12309 -12217 0
11980 12219 0
11980 12364 0
-11980 -12219 -12364 0
12296 11895 0
12296 11934 0
-12296 -11895 -11934 0
11858 11859 0
11858 12325 0
-11858 -11859 -12325 0
12480 12219 0
12480 12306 0
-12480 -12219 -12306 0
12389 12315 0
12389 12188 0
-12389 -12315 -12188 0
12347 12325 0
12347 11976 0
-12347 -12325 -11976 0
11870 12223 0
11870 11976 0
-11870 -12223 -11976 0
12367 11976 0
12367 12190 0
-12367 -11976 -12190 0
12298 12276 0
12298 11878 0
-12298 -12276 -11878 0
12462 12276 0
12462 12190 0
-12462 -12276 -12190 0
12344 12229 0
12344 12427 0
-12344 -12229 -12427 0
12393 12229 0
12393 12276 0
-12393 -12229 -12276 0
11888 12232 0
11888 11895 0
-11888 -12232 -11895 0
11891 12280 0
11891 12436 0
-11891 -12280 -12436 0
12452 11895 0
12452 11995 0
-12452 -11895 -11995 0
11897 12191 0
11897 12086 0
-11897 -12191 -12086 0
12295 12240 0
12295 12232 0
-12295 -12240 -12232 0
11903 12240 0
11903 12219 0
-11903 -12240 -12219 0
11906 12240 0
11906 11995 0
-11906 -12240 -11995 0
12409 12436 0
12409 12240 0
-12409 -12436 -12240 0
12299 12302 0
12299 12459 0
-12299 -12302 -12459 0
11915 12266 0
11915 12117 0
-11915 -12266 -12117 0
11918 12422 0
11918 12117 0
-11918 -12422 -12117 0
11921 11976 0
11921 11980 0
-11921 -11976 -11980 0
11924 12286 0
11924 11980 0
-11924 -12286 -11980 0
12305 12350 0
12305 12209 0
-12305 -12350 -12209 0
11965 12410 0
11965 11995 0
-11965 -12410 -11995 0
12429 11934 0
12429 12410 0
-12429 -11934 -12410 0
11936 12479 0
11936 12430 0
11936 12215 0
11936 12117 0
-11936 -12479 -12430 -12215 -12117 0
12015 12218 0
12015 12286 0
-12015 -12218 -12286 0
11944 12296 0
11944 12347 0
-11944 -12296 -12347 0
11947 11948 0
11947 12280 0
11947 12296 0
-11947 -11948 -12280 -12296 0
11951 12227 0
11951 12298 0
-11951 -12227 -12298 0
11954 12306 0
11954 12230 0
11954 12286 0
-11954 -12306 -12230 -12286 0
12314 12233 0
12314 12459 0
-12314 -12233 -12459 0
11961 12295 0
11961 12427 0
-11961 -12295 -12427 0
11964 11965 0
11964 12479 0
11964 12296 0
-11964 -11965 -12479 -12296 0
12153 11969 0
12153 12429 0
-12153 -11969 -12429 0
11971 12257 0
11971 12302 0
-11971 -12257 -12302 0
12343 12268 0
12343 11976 0
-12343 -12268 -11976 0
12157 12266 0
12157 12268 0
12157 11980 0
-12157 -12266 -12268 -11980 0
12346 12139 0
12346 11983 0
-12346 -12139 -11983 0
12349 12139 0
12349 12379 0
-12349 -12139 -12379 0
12359 12245 0
12359 12139 0
-12359 -12245 -12139 0
12361 12139 0
12361 12200 0
-12361 -12139 -12200 0
12365 12281 0
12365 11995 0
-12365 -12281 -11995 0
12368 11997 0
12368 12302 0
-12368 -11997 -12302 0
11999 12290 0
11999 12280 0
11999 12281 0
-11999 -12290 -12280 -12281 0
12123 12260 0
12123 12276 0
12123 12293 0
-12123 -12260 -12276 -12293 0
12373 12301 0
12373 12459 0
-12373 -12301 -12459 0
12380 12139 0
12380 12301 0
-12380 -12139 -12301 0
12013 12014 0
12013 12015 0
-12013 -12014 -12015 0
12143 12017 0
12143 12188 0
-12143 -12017 -12188 0
12019 12020 0
12019 12350 0
-12019 -12020 -12350 0
12022 12023 0
12022 12280 0
-12022 -12023 -12280 0
12392 12026 0
12392 12190 0
-12392 -12026 -12190 0
12103 12029 0
12103 12260 0
-12103 -12029 -12260 0
12031 12032 0
12031 12479 0
-12031 -12032 -12479 0
12034 12035 0
12034 12036 0
-12034 -12035 -12036 0
12037 12373 0
12037 12305 0
-12037 -12373 -12305 0
12040 12041 0
12040 12313 0
-12040 -12041 -12313 0
12043 12044 0
12043 12280 0
-12043 -12044 -12280 0
12098 12229 0
12098 12325 0
12098 12338 0
-12098 -12229 -12325 -12338 0
12395 12200 0
12395 12348 0
-12395 -12200 -12348 0
12184 12427 0
12184 12348 0
12184 12410 0
-12184 -12427 -12348 -12410 0
12132 12224 0
12132 12229 0
12132 12357 0
-12132 -12224 -12229 -12357 0
12399 12360 0
12399 12232 0
12399 12218 0
-12399 -12360 -12232 -12218 0
12065 12110 0
12065 12360 0
12065 12290 0
-12065 -12110 -12360 -12290 0
12162 12342 0
12162 12540 0
12162 12303 0
-12162 -12342 -12540 -12303 0
12407 12366 0
12407 12232 0
-12407 -12366 -12232 0
12415 12366 0
12415 12240 0
12415 12219 0
-12415 -12366 -12240 -12219 0
12418 12240 0
12418 12366 0
12418 12230 0
-12418 -12240 -12366 -12230 0
12423 12325 0
12423 12086 0
12423 12366 0
-12423 -12325 -12086 -12366 0
12088 12089 0
12088 12143 0
-12088 -12089 -12143 0
12431 12092 0
12431 12093 0
-12431 -12092 -12093 0
12094 12095 0
12094 12123 0
-12094 -12095 -12123 0
12580 12098 0
12580 12395 0
-12580 -12098 -12395 0
12550 12101 0
12550 12102 0
12550 12103 0
-12550 -12101 -12102 -12103 0
12572 12105 0
12572 12106 0
-12572 -12105 -12106 0
12126 12406 0
12126 12497 0
12126 12110 0
-12126 -12406 -12497 -12110 0
12111 12414 0
12111 12286 0
-12111 -12414 -12286 0
12114 12115 0
12114 12414 0
12114 12117 0
-12114 -12115 -12414 -12117 0
12484 12119 0
12484 12120 0
-12484 -12119 -12120 0
12490 12122 0
12490 12123 0
-12490 -12122 -12123 0
12602 12125 0
12602 12126 0
-12602 -12125 -12126 0
12552 12128 0
12552 12129 0
12552 12130 0
-12552 -12128 -12129 -12130 0
12570 12132 0
12570 12472 0
-12570 -12132 -12472 0
12582 12135 0
12582 12136 0
-12582 -12135 -12136 0
12155 12138 0
12155 12139 0
-12155 -12138 -12139 0
12584 12141 0
12584 12142 0
12584 12143 0
-12584 -12141 -12142 -12143 0
12160 12145 0
12160 12146 0
-12160 -12145 -12146 0
12147 12148 0
12147 12159 0
12147 12502 0
-12147 -12148 -12159 -12502 0
12166 12152 0
12166 12153 0
-12166 -12152 -12153 0
12539 12155 0
12539 12156 0
12539 12157 0
-12539 -12155 -12156 -12157 0
12592 12159 0
12592 12160 0
12592 12499 0
12592 12162 0
-12592 -12159 -12160 -12499 -12162 0
12163 12164 0
12163 12165 0
12163 12166 0
-12163 -12164 -12165 -12166 0
12554 12168 0
12554 12438 0
12554 12523 0
-12554 -12168 -12438 -12523 0
12586 12172 0
12586 12173 0
12586 12174 0
-12586 -12172 -12173 -12174 0
12556 12176 0
12556 12532 0
-12556 -12176 -12532 0
12546 12179 0
12546 12537 0
-12546 -12179 -12537 0
12548 12182 0
12548 12183 0
12548 12184 0
-12548 -12182 -12183 -12184 0
-12223 -12436 0
-12223 -12286 0
12223 12436 12286 0
-12188 -12379 0
-12188 -12190 0
12188 12379 12190 0
-12191 -12286 0
-12191 -12459 0
12191 12286 12459 0
-12194 -12217 0
-12194 -12364 0
12194 12217 12364 0
-12302 -12427 0
-12302 -12350 0
12302 12427 12350 0
-12200 -12459 0
-12200 -12427 0
12200 12459 12427 0
-12598 -12309 0
-12598 -12322 0
12598 12309 12322 0
-12422 -12219 0
-12422 -12364 0
12422 12219 12364 0
-12209 -12427 0
-12209 -12219 0
12209 12427 12219 0
-12212 -12459 0
-12212 -12214 0
12212 12459 12214 0
-12215 -12325 0
-12215 -12217 0
12215 12325 12217 0
-12218 -12219 0
-12218 -12306 0
12218 12219 12306 0
-12221 -12459 0
-12221 -12223 0
12221 12459 12223 0
-12224 -12436 0
-12224 -12479 0
12224 12436 12479 0
-12227 -12427 0
-12227 -12229 0
12227 12427 12229 0
-12230 -12436 0
-12230 -12232 0
12230 12436 12232 0
-12233 -12427 0
-12233 -12280 0
12233 12427 12280 0
-12596 -12240 0
-12596 -12322 0
12596 12240 12322 0
-12239 -12240 0
-12239 -12280 0
12239 12240 12280 0
-12303 -12280 0
-12303 -12266 0
12303 12280 12266 0
-12245 -12266 0
-12245 -12350 0
12245 12266 12350 0
-12248 -12350 0
-12248 -12430 0
12248 12350 12430 0
-12251 -12410 0
-12251 -12350 0
12251 12410 12350 0
-12497 -12255 0
-12497 -12256 0
12497 12255 12256 0
-12257 -12389 0
-12257 -12459 0
12257 12389 12459 0
-12260 -12350 0
-12260 -12401 0
-12260 -12459 0
12260 12350 12401 12459 0
-12264 -12347 0
-12264 -12266 0
-12264 -12350 0
12264 12347 12266 12350 0
-12268 -12462 0
-12268 -12280 0
12268 12462 12280 0
-12271 -12427 0
-12271 -12273 0
12271 12427 12273 0
-12274 -12344 0
-12274 -12276 0
12274 12344 12276 0
-12277 -12278 0
-12277 -12344 0
-12277 -12280 0
12277 12278 12344 12280 0
-12281 -12367 0
-12281 -12393 0
12281 12367 12393 0
-12284 -12452 0
-12284 -12286 0
12284 12452 12286 0
-12287 -12288 0
-12287 -12350 0
12287 12288 12350 0
-12290 -12295 0
-12290 -12325 0
12290 12295 12325 0
-12293 -12427 0
-12293 -12295 0
-12293 -12296 0
12293 12427 12295 12296 0
-12568 -12298 0
-12568 -12299 0
-12568 -12401 0
12568 12298 12299 12401 0
-12301 -12302 0
-12301 -12303 0
12301 12302 12303 0
-12383 -12305 0
-12383 -12306 0
12383 12305 12306 0
-12307 -12429 0
-12307 -12309 0
12307 12429 12309 0
-12494 -12314 0
-12494 -12389 0
12494 12314 12389 0
-12313 -12314 0
-12313 -12315 0
12313 12314 12315 0
-12316 -12379 0
-12316 -12457 0
-12316 -12462 0
12316 12379 12457 12462 0
-12590 -12342 0
-12590 -12322 0
12590 12342 12322 0
-12323 -12342 0
-12323 -12325 0
12323 12342 12325 0
-12326 -12479 0
-12326 -12328 0
12326 12479 12328 0
-12384 -12453 0
-12384 -12429 0
12384 12453 12429 0
-12332 -12427 0
-12332 -12334 0
12332 12427 12334 0
-12335 -12389 0
-12335 -12337 0
12335 12389 12337 0
-12338 -12427 0
-12338 -12343 0
12338 12427 12343 0
-12483 -12342 0
-12483 -12343 0
-12483 -12344 0
12483 12342 12343 12344 0
-12345 -12346 0
-12345 -12347 0
12345 12346 12347 0
-12348 -12349 0
-12348 -12350 0
12348 12349 12350 0
-12516 -12359 0
-12516 -12353 0
12516 12359 12353 0
-12471 -12359 0
-12471 -12356 0
12471 12359 12356 0
-12357 -12379 0
-12357 -12359 0
12357 12379 12359 0
-12360 -12361 0
-12360 -12379 0
12360 12361 12379 0
-12540 -12364 0
-12540 -12365 0
12540 12364 12365 0
-12366 -12367 0
-12366 -12368 0
12366 12367 12368 0
-12369 -12379 0
-12369 -12371 0
12369 12379 12371 0
-12372 -12373 0
-12372 -12379 0
12372 12373 12379 0
-12375 -12380 0
-12375 -12377 0
12375 12380 12377 0
-12378 -12379 0
-12378 -12380 0
-12378 -12381 0
12378 12379 12380 12381 0
-12382 -12383 0
-12382 -12384 0
12382 12383 12384 0
-12566 -12389 0
-12566 -12387 0
12566 12389 12387 0
-12388 -12389 0
-12388 -12390 0
12388 12389 12390 0
-12391 -12392 0
-12391 -12393 0
12391 12392 12393 0
-12394 -12395 0
-12394 -12396 0
12394 12395 12396 0
-12397 -12409 0
-12397 -12399 0
12397 12409 12399 0
-12400 -12401 0
-12400 -12402 0
12400 12401 12402 0
-12403 -12407 0
-12403 -12436 0
12403 12407 12436 0
-12406 -12407 0
-12406 -12430 0
-12406 -12409 0
-12406 -12410 0
12406 12407 12430 12409 12410 0
-12514 -12415 0
-12514 -12413 0
12514 12415 12413 0
-12414 -12415 0
-12414 -12416 0
12414 12415 12416 0
-12509 -12418 0
-12509 -12419 0
12509 12418 12419 0
-12520 -12479 0
-12520 -12422 0
-12520 -12423 0
-12520 -12424 0
12520 12479 12422 12423 12424 0
-12425 -12431 0
-12425 -12427 0
12425 12431 12427 0
-12489 -12429 0
-12489 -12430 0
-12489 -12431 0
12489 12429 12430 12431 0
-12432 -12483 0
-12432 -12434 0
12432 12483 12434 0
-12435 -12436 0
-12435 -12437 0
12435 12436 12437 0
-12438 -12439 0
-12438 -12440 0
-12438 -12441 0
12438 12439 12440 12441 0
-12442 -12443 0
-12442 -12444 0
-12442 -12574 0
-12442 -12446 0
12442 12443 12444 12574 12446 0
-12447 -12448 0
-12447 -12449 0
12447 12448 12449 0
-12450 -12455 0
-12450 -12452 0
-12450 -12453 0
12450 12455 12452 12453 0
-12534 -12455 0
-12534 -12480 0
-12534 -12457 0
12534 12455 12480 12457 0
-12458 -12459 0
-12458 -12460 0
12458 12459 12460 0
-12493 -12462 0
-12493 -12463 0
12493 12462 12463 0
-12464 -12465 0
-12464 -12466 0
12464 12465 12466 0
-12467 -12468 0
-12467 -12574 0
-12467 -12566 0
-12467 -12471 0
12467 12468 12574 12566 12471 0
-12472 -12473 0
-12472 -12474 0
12472 12473 12474 0
-12475 -12476 0
-12475 -12530 0
12475 12476 12530 0
-12503 -12479 0
-12503 -12480 0
-12503 -12481 0
12503 12479 12480 12481 0
-12482 -12483 0
-12482 -12484 0
-12482 -12485 0
12482 12483 12484 12485 0
-12486 -12487 0
-12486 -12530 0
-12486 -12489 0
-12486 -12490 0
12486 12487 12530 12489 12490 0
-12491 -12492 0
-12491 -12493 0
-12491 -12494 0
-12491 -12574 0
12491 12492 12493 12494 12574 0
-12496 -12497 0
-12496 -12498 0
12496 12497 12498 0
-12499 -12503 0
-12499 -12501 0
12499 12503 12501 0
-12502 -12503 0
-12502 -12530 0
-12502 -12505 0
12502 12503 12530 12505 0
-12506 -12514 0
-12506 -12513 0
-12506 -12509 0
12506 12514 12513 12509 0
-12510 -12511 0
-12510 -12512 0
-12510 -12513 0
-12510 -12514 0
12510 12511 12512 12513 12514 0
-12515 -12516 0
-12515 -12517 0
-12515 -12518 0
12515 12516 12517 12518 0
-12519 -12520 0
-12519 -12521 0
-12519 -12522 0
12519 12520 12521 12522 0
-12523 -12524 0
-12523 -12525 0
-12523 -12526 0
12523 12524 12525 12526 0
-12527 -12528 0
-12527 -12529 0
-12527 -12530 0
-12527 -12531 0
12527 12528 12529 12530 12531 0
-12532 -12533 0
-12532 -12534 0
-12532 -12535 0
-12532 -12536 0
12532 12533 12534 12535 12536 0
-12537 -12538 0
-12537 -12539 0
-12537 -12540 0
-12537 -12574 0
12537 12538 12539 12540 12574 0
-12542 -12543 0
-12542 -12544 0
12542 12543 12544 0
-12546 13405 0
12546 -13405 0
-12548 13594 0
12548 -13594 0
-12550 13530 0
12550 -13530 0
-12552 13674 0
12552 -13674 0
-12554 13565 0
12554 -13565 0
-12556 13642 0
12556 -13642 0
-12558 12557 0
12558 -12557 0
-12560 12559 0
12560 -12559 0
-12562 12561 0
12562 -12561 0
-12564 12563 0
12564 -12563 0
-12566 12565 0
12566 -12565 0
-12568 12567 0
12568 -12567 0
-12570 12569 0
12570 -12569 0
-12572 12571 0
12572 -12571 0
-12574 12573 0
12574 -12573 0
-12576 12575 0
12576 -12575 0
-12578 12577 0
12578 -12577 0
-12580 12579 0
12580 -12579 0
-12582 12581 0
12582 -12581 0
-12584 12583 0
12584 -12583 0
-12586 12585 0
12586 -12585 0
-12588 12587 0
12588 -12587 0
-12590 12589 0
12590 -12589 0
-12592 12591 0
12592 -12591 0
-12594 12593 0
12594 -12593 0
-12596 12595 0
12596 -12595 0
-12598 12597 0
12598 -12597 0
-12600 12599 0
12600 -12599 0
-12602 12601 0
12602 -12601 0
13540 13651 0
-13540 -13651 0
13611 12606 0
-13611 -12606 0
12803 12806 0
-12803 -12806 0
13074 12806 0
-13074 -12806 0
13521 13579 0
-13521 -13579 0
12805 13501 0
-12805 -13501 0
13694 13501 0
-13694 -13501 0
13191 13594 0
-13191 -13594 0
13491 13530 0
-13491 -13530 0
13444 13674 0
-13444 -13674 0
13198 13361 0
-13198 -13361 0
13447 13432 0
-13447 -13432 0
13495 13565 0
-13495 -13565 0
13210 13149 0
-13210 -13149 0
13455 13524 0
-13455 -13524 0
13481 13642 0
-13481 -13642 0
13645 13184 0
-13645 -13184 0
13625 13110 0
-13625 -13110 0
13325 13332 0
-13325 -13332 0
13493 13429 0
-13493 -13429 0
13616 13403 0
-13616 -13403 0
12827 13409 0
-12827 -13409 0
13639 13195 0
-13639 -13195 0
12834 13427 0
-12834 -13427 0
13631 13430 0
-13631 -13430 0
13002 13073 0
-13002 -13073 0
12880 13436 0
-12880 -13436 0
13354 13677 0
-13354 -13677 0
13212 13608 0
-13212 -13608 0
12984 13103 0
-12984 -13103 0
13672 13448 0
-13672 -13448 0
12975 13112 0
-12975 -13112 0
13557 13510 0
-13557 -13510 0
12848 13454 0
-12848 -13454 0
12983 13121 0
-12983 -13121 0
12986 13130 0
-12986 -13130 0
13668 13460 0
-13668 -13460 0
12990 13136 0
-12990 -13136 0
13063 13466 0
-13063 -13466 0
12915 13479 0
-12915 -13479 0
13051 13162 0
-13051 -13162 0
12858 13486 0
-12858 -13486 0
12861 13492 0
-12861 -13492 0
12877 13502 0
-12877 -13502 0
13003 13783 0
-13003 -13783 0
12937 13179 0
-12937 -13179 0
13815 13186 0
-13815 -13186 0
12886 13372 0
-12886 -13372 0
13317 13709 0
-13317 -13709 0
13308 13214 0
-13308 -13214 0
13746 13338 0
-13746 -13338 0
12901 13541 0
-12901 -13541 0
12913 13547 0
-12913 -13547 0
13044 13228 0
-13044 -13228 0
13011 13550 0
-13011 -13550 0
12903 13237 0
-12903 -13237 0
13649 13318 0
-13649 -13318 0
12912 13584 0
-12912 -13584 0
13033 13249 0
-13033 -13249 0
13036 13252 0
-13036 -13252 0
12916 13587 0
-12916 -13587 0
13371 13590 0
-13371 -13590 0
13321 13593 0
-13321 -13593 0
12918 13597 0
-12918 -13597 0
13656 13255 0
-13656 -13255 0
12924 13313 0
-12924 -13313 0
13789 13610 0
-13789 -13610 0
13661 13347 0
-13661 -13347 0
13374 13603 0
-13374 -13603 0
13745 13377 0
-13745 -13377 0
12943 13633 0
-12943 -13633 0
13351 13303 0
-13351 -13303 0
13670 13606 0
-13670 -13606 0
13345 13309 0
-13345 -13309 0
13041 13612 0
-13041 -13612 0
13344 13615 0
-13344 -13615 0
13696 13618 0
-13696 -13618 0
13751 13647 0
-13751 -13647 0
13053 13650 0
-13053 -13650 0
13773 13657 0
-13773 -13657 0
13728 13341 0
-13728 -13341 0
13059 13326 0
-13059 -13326 0
13732 13329 0
-13732 -13329 0
13383 13665 0
-13383 -13665 0
12950 13679 0
-12950 -13679 0
13775 13682 0
-13775 -13682 0
13736 13690 0
-13736 -13690 0
13741 13697 0
-13741 -13697 0
13779 13701 0
-13779 -13701 0
13793 13706 0
-13793 -13706 0
13062 13711 0
-13062 -13711 0
13803 13721 0
-13803 -13721 0
13809 13725 0
-13809 -13725 0
13750 13730 0
-13750 -13730 0
13759 13734 0
-13759 -13734 0
13389 13362 0
-13389 -13362 0
13791 13742 0
-13791 -13742 0
13398 13378 0
-13398 -13378 0
13777 13757 0
-13777 -13757 0
-13470 13501 0
-13470 12803 0
13470 -13501 -12803 0
-13471 12805 0
-13471 12806 0
13471 -12805 -12806 0
-13488 13565 0
-13488 13444 0
13488 -13565 -13444 0
-13596 13651 0
-13596 13444 0
13596 -13651 -13444 0
-13503 13301 0
-13503 13501 0
-13503 13444 0
13503 -13301 -13501 -13444 0
-13680 13540 0
-13680 13517 0
13680 -13540 -13517 0
-13592 13444 0
-13592 13562 0
13592 -13444 -13562 0
-13571 13444 0
-13571 13085 0
13571 -13444 -13085 0
-13543 12827 0
-13543 13118 0
13543 -12827 -13118 0
-13549 13106 0
-13549 13139 0
13549 -13106 -13139 0
-13552 13565 0
-13552 12834 0
13552 -13565 -12834 0
-13655 13642 0
-13655 13472 0
13655 -13642 -13472 0
-13568 13444 0
-13568 13159 0
13568 -13444 -13159 0
-13628 13169 0
-13628 13151 0
13628 -13169 -13151 0
-13707 13472 0
-13707 13672 0
13707 -13472 -13672 0
-13586 12848 0
-13586 13176 0
13586 -12848 -13176 0
-13744 13783 0
-13744 13651 0
13744 -13783 -13651 0
-13634 13230 0
-13634 13179 0
13634 -13230 -13179 0
-13602 13559 0
-13602 12858 0
13602 -13559 -12858 0
-13605 13514 0
-13605 12861 0
13605 -13514 -12861 0
-13658 13405 0
-13658 13528 0
13658 -13405 -13528 0
-13758 13639 0
-13758 13403 0
-13758 13528 0
13758 -13639 -13403 -13528 0
-13659 13531 0
-13659 13439 0
13659 -13531 -13439 0
-13753 13432 0
-13753 13531 0
13753 -13432 -13531 0
-13663 13424 0
-13663 12877 0
13663 -13424 -12877 0
-13688 13553 0
-13688 12880 0
13688 -13553 -12880 0
-13654 13553 0
-13654 13538 0
13654 -13553 -13538 0
-13700 13562 0
-13700 12886 0
13700 -13562 -12886 0
-13740 13448 0
-13740 13560 0
13740 -13448 -13560 0
-13748 13560 0
-13748 13460 0
13748 -13560 -13460 0
-13733 13572 0
-13733 13538 0
13733 -13572 -13538 0
-13617 13234 0
-13617 13166 0
13617 -13234 -13166 0
-13652 13246 0
-13652 12901 0
13652 -13246 -12901 0
-13664 12903 0
-13664 13625 0
13664 -12903 -13625 0
-13702 13606 0
-13702 13599 0
13702 -13606 -13599 0
-13737 13598 0
-13737 13606 0
13737 -13598 -13606 0
-13675 12912 0
-13675 12913 0
13675 -12912 -12913 0
-13678 12915 0
-13678 12916 0
13678 -12915 -12916 0
-13681 12918 0
-13681 13505 0
13681 -12918 -13505 0
-13683 13694 0
-13683 12924 0
13683 -13694 -12924 0
-13727 12924 0
-13727 13361 0
13727 -12924 -13361 0
-13689 13789 0
-13689 13501 0
13689 -13789 -13501 0
-13691 13612 0
-13691 13368 0
-13691 13332 0
13691 -13612 -13368 -13332 0
-13716 13618 0
-13716 13499 0
13716 -13618 -13499 0
-13720 12937 0
-13720 13618 0
13720 -12937 -13618 0
-13739 13133 0
-13739 13621 0
13739 -13133 -13621 0
-13726 12943 0
-13726 13499 0
13726 -12943 -13499 0
-13713 13041 0
-13713 13280 0
13713 -13041 -13280 0
-13743 13496 0
-13743 12950 0
13743 -13496 -12950 0
13250 -13332 0
13250 -13642 0
13250 -13184 0
-13250 13332 13642 13184 0
13163 -13642 0
13163 -13406 0
-13163 13642 13406 0
13307 -13325 0
13307 -13433 0
-13307 13325 13433 0
13330 -13180 0
13330 -13645 0
-13330 13180 13645 0
13229 -13644 0
13229 -13501 0
-13229 13644 13501 0
13232 -13517 0
13232 -13489 0
-13232 13517 13489 0
13235 -13442 0
13235 -13489 0
-13235 13442 13489 0
13238 -13642 0
13238 -12975 0
-13238 13642 12975 0
13241 -13594 0
13241 -13505 0
-13241 13594 13505 0
13244 -13530 0
13244 -13508 0
-13244 13530 13508 0
13247 -12983 0
13247 -12984 0
-13247 12983 12984 0
13251 -12986 0
13251 -13644 0
-13251 12986 13644 0
13256 -13405 0
13256 -12990 0
-13256 13405 12990 0
13259 -13439 0
13259 -13522 0
-13259 13439 13522 0
13357 -13481 0
13357 -13580 0
-13357 13481 13580 0
13304 -13540 0
13304 -13594 0
13304 -13583 0
-13304 13540 13594 13583 0
13394 -13002 0
13394 -13003 0
-13394 13002 13003 0
13310 -13588 0
13310 -13561 0
-13310 13588 13561 0
13335 -13361 0
13335 -13317 0
-13335 13361 13317 0
13316 -13011 0
13316 -13481 0
-13316 13011 13481 0
13320 -13610 0
13320 -13074 0
-13320 13610 13074 0
13380 -13610 0
13380 -13361 0
-13380 13610 13361 0
13363 -13258 0
13363 -13614 0
-13363 13258 13614 0
13340 -13630 0
13340 -13151 0
-13340 13630 13151 0
13334 -13044 0
13334 -13633 0
-13334 13044 13633 0
13337 -13179 0
13337 -13638 0
-13337 13179 13638 0
13387 -13214 0
13387 -13033 0
-13387 13214 13033 0
13379 -13564 0
13379 -13036 0
-13379 13564 13036 0
13343 -13670 0
13343 -13597 0
-13343 13670 13597 0
13388 -13041 0
13388 -13463 0
-13388 13041 13463 0
13391 -13044 0
13391 -13696 0
-13391 13044 13696 0
13350 -13677 0
13350 -13662 0
-13350 13677 13662 0
13353 -13673 0
13353 -13051 0
-13353 13673 13051 0
13356 -13053 0
13356 -13576 0
-13356 13053 13576 0
13360 -13708 0
13360 -13609 0
-13360 13708 13609 0
13367 -13059 0
13367 -13640 0
-13367 13059 13640 0
13397 -13062 0
13397 -13063 0
-13397 13062 13063 0
13301 13524 0
13301 13432 0
-13301 -13524 -13432 0
13195 13434 0
13195 13579 0
-13195 -13434 -13579 0
13511 13110 0
13511 13149 0
-13511 -13110 -13149 0
13073 13074 0
13073 13540 0
-13073 -13074 -13540 0
13695 13434 0
13695 13521 0
-13695 -13434 -13521 0
13604 13530 0
13604 13403 0
-13604 -13530 -13403 0
13562 13540 0
13562 13191 0
-13562 -13540 -13191 0
13085 13438 0
13085 13191 0
-13085 -13438 -13191 0
13582 13191 0
13582 13405 0
-13582 -13191 -13405 0
13513 13491 0
13513 13093 0
-13513 -13491 -13093 0
13677 13491 0
13677 13405 0
-13677 -13491 -13405 0
13559 13444 0
13559 13642 0
-13559 -13444 -13642 0
13608 13444 0
13608 13491 0
-13608 -13444 -13491 0
13103 13447 0
13103 13110 0
-13103 -13447 -13110 0
13106 13495 0
13106 13651 0
-13106 -13495 -13651 0
13667 13110 0
13667 13210 0
-13667 -13110 -13210 0
13112 13406 0
13112 13301 0
-13112 -13406 -13301 0
13510 13455 0
13510 13447 0
-13510 -13455 -13447 0
13118 13455 0
13118 13434 0
-13118 -13455 -13434 0
13121 13455 0
13121 13210 0
-13121 -13455 -13210 0
13624 13651 0
13624 13455 0
-13624 -13651 -13455 0
13514 13517 0
13514 13674 0
-13514 -13517 -13674 0
13130 13481 0
13130 13332 0
-13130 -13481 -13332 0
13133 13637 0
13133 13332 0
-13133 -13637 -13332 0
13136 13191 0
13136 13195 0
-13136 -13191 -13195 0
13139 13501 0
13139 13195 0
-13139 -13501 -13195 0
13520 13565 0
13520 13424 0
-13520 -13565 -13424 0
13180 13625 0
13180 13210 0
-13180 -13625 -13210 0
13644 13149 0
13644 13625 0
-13644 -13149 -13625 0
13151 13694 0
13151 13645 0
13151 13430 0
13151 13332 0
-13151 -13694 -13645 -13430 -13332 0
13230 13433 0
13230 13501 0
-13230 -13433 -13501 0
13159 13511 0
13159 13562 0
-13159 -13511 -13562 0
13162 13163 0
13162 13495 0
13162 13511 0
-13162 -13163 -13495 -13511 0
13166 13442 0
13166 13513 0
-13166 -13442 -13513 0
13169 13521 0
13169 13445 0
13169 13501 0
-13169 -13521 -13445 -13501 0
13529 13448 0
13529 13674 0
-13529 -13448 -13674 0
13176 13510 0
13176 13642 0
-13176 -13510 -13642 0
13179 13180 0
13179 13694 0
13179 13511 0
-13179 -13180 -13694 -13511 0
13368 13184 0
13368 13644 0
-13368 -13184 -13644 0
13186 13472 0
13186 13517 0
-13186 -13472 -13517 0
13558 13483 0
13558 13191 0
-13558 -13483 -13191 0
13372 13481 0
13372 13483 0
13372 13195 0
-13372 -13481 -13483 -13195 0
13561 13354 0
13561 13198 0
-13561 -13354 -13198 0
13564 13354 0
13564 13594 0
-13564 -13354 -13594 0
13574 13460 0
13574 13354 0
-13574 -13460 -13354 0
13576 13354 0
13576 13415 0
-13576 -13354 -13415 0
13580 13496 0
13580 13210 0
-13580 -13496 -13210 0
13583 13212 0
13583 13517 0
-13583 -13212 -13517 0
13214 13505 0
13214 13495 0
13214 13496 0
-13214 -13505 -13495 -13496 0
13338 13475 0
13338 13491 0
13338 13508 0
-13338 -13475 -13491 -13508 0
13588 13516 0
13588 13674 0
-13588 -13516 -13674 0
13595 13354 0
13595 13516 0
-13595 -13354 -13516 0
13228 13229 0
13228 13230 0
-13228 -13229 -13230 0
13358 13232 0
13358 13403 0
-13358 -13232 -13403 0
13234 13235 0
13234 13565 0
-13234 -13235 -13565 0
13237 13238 0
13237 13495 0
-13237 -13238 -13495 0
13607 13241 0
13607 13405 0
-13607 -13241 -13405 0
13318 13244 0
13318 13475 0
-13318 -13244 -13475 0
13246 13247 0
13246 13694 0
-13246 -13247 -13694 0
13249 13250 0
13249 13251 0
-13249 -13250 -13251 0
13252 13588 0
13252 13520 0
-13252 -13588 -13520 0
13255 13256 0
13255 13528 0
-13255 -13256 -13528 0
13258 13259 0
13258 13495 0
-13258 -13259 -13495 0
13313 13444 0
13313 13540 0
13313 13553 0
-13313 -13444 -13540 -13553 0
13610 13415 0
13610 13563 0
-13610 -13415 -13563 0
13399 13642 0
13399 13563 0
13399 13625 0
-13399 -13642 -13563 -13625 0
13347 13439 0
13347 13444 0
13347 13572 0
-13347 -13439 -13444 -13572 0
13614 13575 0
13614 13447 0
13614 13433 0
-13614 -13575 -13447 -13433 0
13280 13325 0
13280 13575 0
13280 13505 0
-13280 -13325 -13575 -13505 0
13377 13557 0
13377 13755 0
13377 13518 0
-13377 -13557 -13755 -13518 0
13622 13581 0
13622 13447 0
-13622 -13581 -13447 0
13630 13581 0
13630 13455 0
13630 13434 0
-13630 -13581 -13455 -13434 0
13633 13455 0
13633 13581 0
13633 13445 0
-13633 -13455 -13581 -13445 0
13638 13540 0
13638 13301 0
13638 13581 0
-13638 -13540 -13301 -13581 0
13303 13304 0
13303 13358 0
-13303 -13304 -13358 0
13646 13307 0
13646 13308 0
-13646 -13307 -13308 0
13309 13310 0
13309 13338 0
-13309 -13310 -13338 0
13795 13313 0
13795 13610 0
-13795 -13313 -13610 0
13765 13316 0
13765 13317 0
13765 13318 0
-13765 -13316 -13317 -13318 0
13787 13320 0
13787 13321 0
-13787 -13320 -13321 0
13341 13621 0
13341 13712 0
13341 13325 0
-13341 -13621 -13712 -13325 0
13326 13629 0
13326 13501 0
-13326 -13629 -13501 0
13329 13330 0
13329 13629 0
13329 13332 0
-13329 -13330 -13629 -13332 0
13699 13334 0
13699 13335 0
-13699 -13334 -13335 0
13705 13337 0
13705 13338 0
-13705 -13337 -13338 0
13817 13340 0
13817 13341 0
-13817 -13340 -13341 0
13767 13343 0
13767 13344 0
13767 13345 0
-13767 -13343 -13344 -13345 0
13785 13347 0
13785 13687 0
-13785 -13347 -13687 0
13797 13350 0
13797 13351 0
-13797 -13350 -13351 0
13370 13353 0
13370 13354 0
-13370 -13353 -13354 0
13799 13356 0
13799 13357 0
13799 13358 0
-13799 -13356 -13357 -13358 0
13375 13360 0
13375 13361 0
-13375 -13360 -13361 0
13362 13363 0
13362 13374 0
13362 13717 0
-13362 -13363 -13374 -13717 0
13381 13367 0
13381 13368 0
-13381 -13367 -13368 0
13754 13370 0
13754 13371 0
13754 13372 0
-13754 -13370 -13371 -13372 0
13807 13374 0
13807 13375 0
13807 13714 0
13807 13377 0
-13807 -13374 -13375 -13714 -13377 0
13378 13379 0
13378 13380 0
13378 13381 0
-13378 -13379 -13380 -13381 0
13769 13383 0
13769 13653 0
13769 13738 0
-13769 -13383 -13653 -13738 0
13801 13387 0
13801 13388 0
13801 13389 0
-13801 -13387 -13388 -13389 0
13771 13391 0
13771 13747 0
-13771 -13391 -13747 0
13761 13394 0
13761 13752 0
-13761 -13394 -13752 0
13763 13397 0
13763 13398 0
13763 13399 0
-13763 -13397 -13398 -13399 0
-13438 -13651 0
-13438 -13501 0
13438 13651 13501 0
-13403 -13594 0
-13403 -13405 0
13403 13594 13405 0
-13406 -13501 0
-13406 -13674 0
13406 13501 13674 0
-13409 -13432 0
-13409 -13579 0
13409 13432 13579 0
-13517 -13642 0
-13517 -13565 0
13517 13642 13565 0
-13415 -13674 0
-13415 -13642 0
13415 13674 13642 0
-13813 -13524 0
-13813 -13537 0
13813 13524 13537 0
-13637 -13434 0
-13637 -13579 0
13637 13434 13579 0
-13424 -13642 0
-13424 -13434 0
13424 13642 13434 0
-13427 -13674 0
-13427 -13429 0
13427 13674 13429 0
-13430 -13540 0
-13430 -13432 0
13430 13540 13432 0
-13433 -13434 0
-13433 -13521 0
13433 13434 13521 0
-13436 -13674 0
-13436 -13438 0
13436 13674 13438 0
-13439 -13651 0
-13439 -13694 0
13439 13651 13694 0
-13442 -13642 0
-13442 -13444 0
13442 13642 13444 0
-13445 -13651 0
-13445 -13447 0
13445 13651 13447 0
-13448 -13642 0
-13448 -13495 0
13448 13642 13495 0
-13811 -13455 0
-13811 -13537 0
13811 13455 13537 0
-13454 -13455 0
-13454 -13495 0
13454 13455 13495 0
-13518 -13495 0
-13518 -13481 0
13518 13495 13481 0
-13460 -13481 0
-13460 -13565 0
13460 13481 13565 0
-13463 -13565 0
-13463 -13645 0
13463 13565 13645 0
-13466 -13625 0
-13466 -13565 0
13466 13625 13565 0
-13712 -13470 0
-13712 -13471 0
13712 13470 13471 0
-13472 -13604 0
-13472 -13674 0
13472 13604 13674 0
-13475 -13565 0
-13475 -13616 0
-13475 -13674 0
13475 13565 13616 13674 0
-13479 -13562 0
-13479 -13481 0
-13479 -13565 0
13479 13562 13481 13565 0
-13483 -13677 0
-13483 -13495 0
13483 13677 13495 0
-13486 -13642 0
-13486 -13488 0
13486 13642 13488 0
-13489 -13559 0
-13489 -13491 0
13489 13559 13491 0
-13492 -13493 0
-13492 -13559 0
-13492 -13495 0
13492 13493 13559 13495 0
-13496 -13582 0
-13496 -13608 0
13496 13582 13608 0
-13499 -13667 0
-13499 -13501 0
13499 13667 13501 0
-13502 -13503 0
-13502 -13565 0
13502 13503 13565 0
-13505 -13510 0
-13505 -13540 0
13505 13510 13540 0
-13508 -13642 0
-13508 -13510 0
-13508 -13511 0
13508 13642 13510 13511 0
-13783 -13513 0
-13783 -13514 0
-13783 -13616 0
13783 13513 13514 13616 0
-13516 -13517 0
-13516 -13518 0
13516 13517 13518 0
-13598 -13520 0
-13598 -13521 0
13598 13520 13521 0
-13522 -13644 0
-13522 -13524 0
13522 13644 13524 0
-13709 -13529 0
-13709 -13604 0
13709 13529 13604 0
-13528 -13529 0
-13528 -13530 0
13528 13529 13530 0
-13531 -13594 0
-13531 -13672 0
-13531 -13677 0
13531 13594 13672 13677 0
-13805 -13557 0
-13805 -13537 0
13805 13557 13537 0
-13538 -13557 0
-13538 -13540 0
13538 13557 13540 0
-13541 -13694 0
-13541 -13543 0
13541 13694 13543 0
-13599 -13668 0
-13599 -13644 0
13599 13668 13644 0
-13547 -13642 0
-13547 -13549 0
13547 13642 13549 0
-13550 -13604 0
-13550 -13552 0
13550 13604 13552 0
-13553 -13642 0
-13553 -13558 0
13553 13642 13558 0
-13698 -13557 0
-13698 -13558 0
-13698 -13559 0
13698 13557 13558 13559 0
-13560 -13561 0
-13560 -13562 0
13560 13561 13562 0
-13563 -13564 0
-13563 -13565 0
13563 13564 13565 0
-13731 -13574 0
-13731 -13568 0
13731 13574 13568 0
-13686 -13574 0
-13686 -13571 0
13686 13574 13571 0
-13572 -13594 0
-13572 -13574 0
13572 13594 13574 0
-13575 -13576 0
-13575 -13594 0
13575 13576 13594 0
-13755 -13579 0
-13755 -13580 0
13755 13579 13580 0
-13581 -13582 0
-13581 -13583 0
13581 13582 13583 0
-13584 -13594 0
-13584 -13586 0
13584 13594 13586 0
-13587 -13588 0
-13587 -13594 0
13587 13588 13594 0
-13590 -13595 0
-13590 -13592 0
13590 13595 13592 0
-13593 -13594 0
-13593 -13595 0
-13593 -13596 0
13593 13594 13595 13596 0
-13597 -13598 0
-13597 -13599 0
13597 13598 13599 0
-13781 -13604 0
-13781 -13602 0
13781 13604 13602 0
-13603 -13604 0
-13603 -13605 0
13603 13604 13605 0
-13606 -13607 0
-13606 -13608 0
13606 13607 13608 0
-13609 -13610 0
-13609 -13611 0
13609 13610 13611 0
-13612 -13624 0
-13612 -13614 0
13612 13624 13614 0
-13615 -13616 0
-13615 -13617 0
13615 13616 13617 0
-13618 -13622 0
-13618 -13651 0
13618 13622 13651 0
-13621 -13622 0
-13621 -13645 0
-13621 -13624 0
-13621 -13625 0
13621 13622 13645 13624 13625 0
-13729 -13630 0
-13729 -13628 0
13729 13630 13628 0
-13629 -13630 0
-13629 -13631 0
13629 13630 13631 0
-13724 -13633 0
-13724 -13634 0
13724 13633 13634 0
-13735 -13694 0
-13735 -13637 0
-13735 -13638 0
-13735 -13639 0
13735 13694 13637 13638 13639 0
-13640 -13646 0
-13640 -13642 0
13640 13646 13642 0
-13704 -13644 0
-13704 -13645 0
-13704 -13646 0
13704 13644 13645 13646 0
-13647 -13698 0
-13647 -13649 0
13647 13698 13649 0
-13650 -13651 0
-13650 -13652 0
13650 13651 13652 0
-13653 -13654 0
-13653 -13655 0
-13653 -13656 0
13653 13654 13655 13656 0
-13657 -13658 0
-13657 -13659 0
-13657 -13789 0
-13657 -13661 0
13657 13658 13659 13789 13661 0
-13662 -13663 0
-13662 -13664 0
13662 13663 13664 0
-13665 -13670 0
-13665 -13667 0
-13665 -13668 0
13665 13670 13667 13668 0
-13749 -13670 0
-13749 -13695 0
-13749 -13672 0
13749 13670 13695 13672 0
-13673 -13674 0
-13673 -13675 0
13673 13674 13675 0
-13708 -13677 0
-13708 -13678 0
13708 13677 13678 0
-13679 -13680 0
-13679 -13681 0
13679 13680 13681 0
-13682 -13683 0
-13682 -13789 0
-13682 -13781 0
-13682 -13686 0
13682 13683 13789 13781 13686 0
-13687 -13688 0
-13687 -13689 0
13687 13688 13689 0
-13690 -13691 0
-13690 -13745 0
13690 13691 13745 0
-13718 -13694 0
-13718 -13695 0
-13718 -13696 0
13718 13694 13695 13696 0
-13697 -13698 0
-13697 -13699 0
-13697 -13700 0
13697 13698 13699 13700 0
-13701 -13702 0
-13701 -13745 0
-13701 -13704 0
-13701 -13705 0
13701 13702 13745 13704 13705 0
-13706 -13707 0
-13706 -13708 0
-13706 -13709 0
-13706 -13789 0
13706 13707 13708 13709 13789 0
-13711 -13712 0
-13711 -13713 0
13711 13712 13713 0
-13714 -13718 0
-13714 -13716 0
13714 13718 13716 0
-13717 -13718 0
-13717 -13745 0
-13717 -13720 0
13717 13718 13745 13720 0
-13721 -13729 0
-13721 -13728 0
-13721 -13724 0
13721 13729 13728 13724 0
-13725 -13726 0
-13725 -13727 0
-13725 -13728 0
-13725 -13729 0
13725 13726 13727 13728 13729 0
-13730 -13731 0
-13730 -13732 0
-13730 -13733 0
13730 13731 13732 13733 0
-13734 -13735 0
-13734 -13736 0
-13734 -13737 0
13734 13735 13736 13737 0
-13738 -13739 0
-13738 -13740 0
-13738 -13741 0
13738 13739 13740 13741 0
-13742 -13743 0
-13742 -13744 0
-13742 -13745 0
-13742 -13746 0
13742 13743 13744 13745 13746 0
-13747 -13748 0
-13747 -13749 0
-13747 -13750 0
-13747 -13751 0
13747 13748 13749 13750 13751 0
-13752 -13753 0
-13752 -13754 0
-13752 -13755 0
-13752 -13789 0
13752 13753 13754 13755 13789 0
-13757 -13758 0
-13757 -13759 0
13757 13758 13759 0
-13761 14620 0
13761 -14620 0
-13763 14809 0
13763 -14809 0
-13765 14745 0
13765 -14745 0
-13767 14889 0
13767 -14889 0
-13769 14780 0
13769 -14780 0
-13771 14857 0
13771 -14857 0
-13773 13772 0
13773 -13772 0
-13775 13774 0
13775 -13774 0
-13777 13776 0
13777 -13776 0
-13779 13778 0
13779 -13778 0
-13781 13780 0
13781 -13780 0
-13783 13782 0
13783 -13782 0
-13785 13784 0
13785 -13784 0
-13787 13786 0
13787 -13786 0
-13789 13788 0
13789 -13788 0
-13791 13790 0
13791 -13790 0
-13793 13792 0
13793 -13792 0
-13795 13794 0
13795 -13794 0
-13797 13796 0
13797 -13796 0
-13799 13798 0
13799 -13798 0
-13801 13800 0
13801 -13800 0
-13803 13802 0
13803 -13802 0
-13805 13804 0
13805 -13804 0
-13807 13806 0
13807 -13806 0
-13809 13808 0
13809 -13808 0
-13811 13810 0
13811 -13810 0
-13813 13812 0
13813 -13812 0
-13815 13814 0
13815 -13814 0
-13817 13816 0
13817 -13816 0
14755 14866 0
-14755 -14866 0
14826 13821 0
-14826 -13821 0
14018 14021 0
-14018 -14021 0
14289 14021 0
-14289 -14021 0
14736 14794 0
-14736 -14794 0
14020 14716 0
-14020 -14716 0
14909 14716 0
-14909 -14716 0
14406 14809 0
-14406 -14809 0
14706 14745 0
-14706 -14745 0
14659 14889 0
-14659 -14889 0
14413 14576 0
-14413 -14576 0
14662 14647 0
-14662 -14647 0
14710 14780 0
-14710 -14780 0
14425 14364 0
-14425 -14364 0
14670 14739 0
-14670 -14739 0
14696 14857 0
-14696 -14857 0
14860 14399 0
-14860 -14399 0
14840 14325 0
-14840 -14325 0
14540 14547 0
-14540 -14547 0
14708 14644 0
-14708 -14644 0
14831 14618 0
-14831 -14618 0
14042 14624 0
-14042 -14624 0
14854 14410 0
-14854 -14410 0
14049 14642 0
-14049 -14642 0
14846 14645 0
-14846 -14645 0
14217 14288 0
-14217 -14288 0
14095 14651 0
-14095 -14651 0
14569 14892 0
-14569 -14892 0
14427 14823 0
-14427 -14823 0
14199 14318 0
-14199 -14318 0
14887 14663 0
-14887 -14663 0
14190 14327 0
-14190 -14327 0
14772 14725 0
-14772 -14725 0
14063 14669 0
-14063 -14669 0
14198 14336 0
-14198 -14336 0
14201 14345 0
-14201 -14345 0
14883 14675 0
-14883 -14675 0
14205 14351 0
-14205 -14351 0
14278 14681 0
-14278 -14681 0
14130 14694 0
-14130 -14694 0
14266 14377 0
-14266 -14377 0
14073 14701 0
-14073 -14701 0
14076 14707 0
-14076 -14707 0
14092 14717 0
-14092 -14717 0
14218 14998 0
-14218 -14998 0
14152 14394 0
-14152 -14394 0
15030 14401 0
-15030 -14401 0
14101 14587 0
-14101 -14587 0
14532 14924 0
-14532 -14924 0
14523 14429 0
-14523 -14429 0
14961 14553 0
-14961 -14553 0
14116 14756 0
-14116 -14756 0
14128 14762 0
-14128 -14762 0
14259 14443 0
-14259 -14443 0
14226 14765 0
-14226 -14765 0
14118 14452 0
-14118 -14452 0
14864 14533 0
-14864 -14533 0
14127 14799 0
-14127 -14799 0
14248 14464 0
-14248 -14464 0
14251 14467 0
-14251 -14467 0
14131 14802 0
-14131 -14802 0
14586 14805 0
-14586 -14805 0
14536 14808 0
-14536 -14808 0
14133 14812 0
-14133 -14812 0
14871 14470 0
-14871 -14470 0
14139 14528 0
-14139 -14528 0
15004 14825 0
-15004 -14825 0
14876 14562 0
-14876 -14562 0
14589 14818 0
-14589 -14818 0
14960 14592 0
-14960 -14592 0
14158 14848 0
-14158 -14848 0
14566 14518 0
-14566 -14518 0
14885 14821 0
-14885 -14821 0
14560 14524 0
-14560 -14524 0
14256 14827 0
-14256 -14827 0
14559 14830 0
-14559 -14830 0
14911 14833 0
-14911 -14833 0
14966 14862 0
-14966 -14862 0
14268 14865 0
-14268 -14865 0
14988 14872 0
-14988 -14872 0
14943 14556 0
-14943 -14556 0
14274 14541 0
-14274 -14541 0
14947 14544 0
-14947 -14544 0
14598 14880 0
-14598 -14880 0
14165 14894 0
-14165 -14894 0
14990 14897 0
-14990 -14897 0
14951 14905 0
-14951 -14905 0
14956 14912 0
-14956 -14912 0
14994 14916 0
-14994 -14916 0
15008 14921 0
-15008 -14921 0
14277 14926 0
-14277 -14926 0
15018 14936 0
-15018 -14936 0
15024 14940 0
-15024 -14940 0
14965 14945 0
-14965 -14945 0
14974 14949 0
-14974 -14949 0
14604 14577 0
-14604 -14577 0
15006 14957 0
-15006 -14957 0
14613 14593 0
-14613 -14593 0
14992 14972 0
-14992 -14972 0
-14685 14716 0
-14685 14018 0
14685 -14716 -14018 0
-14686 14020 0
-14686 14021 0
14686 -14020 -14021 0
-14703 14780 0
-14703 14659 0
14703 -14780 -14659 0
-14811 14866 0
-14811 14659 0
14811 -14866 -14659 0
-14718 14516 0
-14718 14716 0
-14718 14659 0
14718 -14516 -14716 -14659 0
-14895 14755 0
-14895 14732 0
14895 -14755 -14732 0
-14807 14659 0
-14807 14777 0
14807 -14659 -14777 0
-14786 14659 0
-14786 14300 0
14786 -14659 -14300 0
-14758 14042 0
-14758 14333 0
14758 -14042 -14333 0
-14764 14321 0
-14764 14354 0
14764 -14321 -14354 0
-14767 14780 0
-14767 14049 0
14767 -14780 -14049 0
-14870 14857 0
-14870 14687 0
14870 -14857 -14687 0
-14783 14659 0
-14783 14374 0
14783 -14659 -14374 0
-14843 14384 0
-14843 14366 0
14843 -14384 -14366 0
-14922 14687 0
-14922 14887 0
14922 -14687 -14887 0
-14801 14063 0
-14801 14391 0
14801 -14063 -14391 0
-14959 14998 0
-14959 14866 0
14959 -14998 -14866 0
-14849 14445 0
-14849 14394 0
14849 -14445 -14394 0
-14817 14774 0
-14817 14073 0
14817 -14774 -14073 0
-14820 14729 0
-14820 14076 0
14820 -14729 -14076 0
-14873 14620 0
-14873 14743 0
14873 -14620 -14743 0
-14973 14854 0
-14973 14618 0
-14973 14743 0
14973 -14854 -14618 -14743 0
-14874 14746 0
-14874 14654 0
14874 -14746 -14654 0
-14968 14647 0
-14968 14746 0
14968 -14647 -14746 0
-14878 14639 0
-14878 14092 0
14878 -14639 -14092 0
-14903 14768 0
-14903 14095 0
14903 -14768 -14095 0
-14869 14768 0
-14869 14753 0
14869 -14768 -14753 0
-14915 14777 0
-14915 14101 0
14915 -14777 -14101 0
-14955 14663 0
-14955 14775 0
14955 -14663 -14775 0
-14963 14775 0
-14963 14675 0
14963 -14775 -14675 0
-14948 14787 0
-14948 14753 0
14948 -14787 -14753 0
-14832 14449 0
-14832 14381 0
14832 -14449 -14381 0
-14867 14461 0
-14867 14116 0
14867 -14461 -14116 0
-14879 14118 0
-14879 14840 0
14879 -14118 -14840 0
-14917 14821 0
-14917 14814 0
14917 -14821 -14814 0
-14952 14813 0
-14952 14821 0
14952 -14813 -14821 0
-14890 14127 0
-14890 14128 0
14890 -14127 -14128 0
-14893 14130 0
-14893 14131 0
14893 -14130 -14131 0
-14896 14133 0
-14896 14720 0
14896 -14133 -14720 0
-14898 14909 0
-14898 14139 0
14898 -14909 -14139 0
-14942 14139 0
-14942 14576 0
14942 -14139 -14576 0
-14904 15004 0
-14904 14716 0
14904 -15004 -14716 0
-14906 14827 0
-14906 14583 0
-14906 14547 0
14906 -14827 -14583 -14547 0
-14931 14833 0
-14931 14714 0
14931 -14833 -14714 0
-14935 14152 0
-14935 14833 0
14935 -14152 -14833 0
-14954 14348 0
-14954 14836 0
14954 -14348 -14836 0
-14941 14158 0
-14941 14714 0
14941 -14158 -14714 0
-14928 14256 0
-14928 14495 0
14928 -14256 -14495 0
-14958 14711 0
-14958 14165 0
14958 -14711 -14165 0
14465 -14547 0
14465 -14857 0
14465 -14399 0
-14465 14547 14857 14399 0
14378 -14857 0
14378 -14621 0
-14378 14857 14621 0
14522 -14540 0
14522 -14648 0
-14522 14540 14648 0
14545 -14395 0
14545 -14860 0
-14545 14395 14860 0
14444 -14859 0
14444 -14716 0
-14444 14859 14716 0
14447 -14732 0
14447 -14704 0
-14447 14732 14704 0
14450 -14657 0
14450 -14704 0
-14450 14657 14704 0
14453 -14857 0
14453 -14190 0
-14453 14857 14190 0
14456 -14809 0
14456 -14720 0
-14456 14809 14720 0
14459 -14745 0
14459 -14723 0
-14459 14745 14723 0
14462 -14198 0
14462 -14199 0
-14462 14198 14199 0
14466 -14201 0
14466 -14859 0
-14466 14201 14859 0
14471 -14620 0
14471 -14205 0
-14471 14620 14205 0
14474 -14654 0
14474 -14737 0
-14474 14654 14737 0
14572 -14696 0
14572 -14795 0
-14572 14696 14795 0
14519 -14755 0
14519 -14809 0
14519 -14798 0
-14519 14755 14809 14798 0
14609 -14217 0
14609 -14218 0
-14609 14217 14218 0
14525 -14803 0
14525 -14776 0
-14525 14803 14776 0
14550 -14576 0
14550 -14532 0
-14550 14576 14532 0
14531 -14226 0
14531 -14696 0
-14531 14226 14696 0
14535 -14825 0
14535 -14289 0
-14535 14825 14289 0
14595 -14825 0
14595 -14576 0
-14595 14825 14576 0
14578 -14473 0
14578 -14829 0
-14578 14473 14829 0
14555 -14845 0
14555 -14366 0
-14555 14845 14366 0
14549 -14259 0
14549 -14848 0
-14549 14259 14848 0
14552 -14394 0
14552 -14853 0
-14552 14394 14853 0
14602 -14429 0
14602 -14248 0
-14602 14429 14248 0
14594 -14779 0
14594 -14251 0
-14594 14779 14251 0
14558 -14885 0
14558 -14812 0
-14558 14885 14812 0
14603 -14256 0
14603 -14678 0
-14603 14256 14678 0
14606 -14259 0
14606 -14911 0
-14606 14259 14911 0
14565 -14892 0
14565 -14877 0
-14565 14892 14877 0
14568 -14888 0
14568 -14266 0
-14568 14888 14266 0
14571 -14268 0
14571 -14791 0
-14571 14268 14791 0
14575 -14923 0
14575 -14824 0
-14575 14923 14824 0
14582 -14274 0
14582 -14855 0
-14582 14274 14855 0
14612 -14277 0
14612 -14278 0
-14612 14277 14278 0
14516 14739 0
14516 14647 0
-14516 -14739 -14647 0
14410 14649 0
14410 14794 0
-14410 -14649 -14794 0
14726 14325 0
14726 14364 0
-14726 -14325 -14364 0
14288 14289 0
14288 14755 0
-14288 -14289 -14755 0
14910 14649 0
14910 14736 0
-14910 -14649 -14736 0
14819 14745 0
14819 14618 0
-14819 -14745 -14618 0
14777 14755 0
14777 14406 0
-14777 -14755 -14406 0
14300 14653 0
14300 14406 0
-14300 -14653 -14406 0
14797 14406 0
14797 14620 0
-14797 -14406 -14620 0
14728 14706 0
14728 14308 0
-14728 -14706 -14308 0
14892 14706 0
14892 14620 0
-14892 -14706 -14620 0
14774 14659 0
14774 14857 0
-14774 -14659 -14857 0
14823 14659 0
14823 14706 0
-14823 -14659 -14706 0
14318 14662 0
14318 14325 0
-14318 -14662 -14325 0
14321 14710 0
14321 14866 0
-14321 -14710 -14866 0
14882 14325 0
14882 14425 0
-14882 -14325 -14425 0
14327 14621 0
14327 14516 0
-14327 -14621 -14516 0
14725 14670 0
14725 14662 0
-14725 -14670 -14662 0
14333 14670 0
14333 14649 0
-14333 -14670 -14649 0
14336 14670 0
14336 14425 0
-14336 -14670 -14425 0
14839 14866 0
14839 14670 0
-14839 -14866 -14670 0
14729 14732 0
14729 14889 0
-14729 -14732 -14889 0
14345 14696 0
14345 14547 0
-14345 -14696 -14547 0
14348 14852 0
14348 14547 0
-14348 -14852 -14547 0
14351 14406 0
14351 14410 0
-14351 -14406 -14410 0
14354 14716 0
14354 14410 0
-14354 -14716 -14410 0
14735 14780 0
14735 14639 0
-14735 -14780 -14639 0
14395 14840 0
14395 14425 0
-14395 -14840 -14425 0
14859 14364 0
14859 14840 0
-14859 -14364 -14840 0
14366 14909 0
14366 14860 0
14366 14645 0
14366 14547 0
-14366 -14909 -14860 -14645 -14547 0
14445 14648 0
14445 14716 0
-14445 -14648 -14716 0
14374 14726 0
14374 14777 0
-14374 -14726 -14777 0
14377 14378 0
14377 14710 0
14377 14726 0
-14377 -14378 -14710 -14726 0
14381 14657 0
14381 14728 0
-14381 -14657 -14728 0
14384 14736 0
14384 14660 0
14384 14716 0
-14384 -14736 -14660 -14716 0
14744 14663 0
14744 14889 0
-14744 -14663 -14889 0
14391 14725 0
14391 14857 0
-14391 -14725 -14857 0
14394 14395 0
14394 14909 0
14394 14726 0
-14394 -14395 -14909 -14726 0
14583 14399 0
14583 14859 0
-14583 -14399 -14859 0
14401 14687 0
14401 14732 0
-14401 -14687 -14732 0
14773 14698 0
14773 14406 0
-14773 -14698 -14406 0
14587 14696 0
14587 14698 0
14587 14410 0
-14587 -14696 -14698 -14410 0
14776 14569 0
14776 14413 0
-14776 -14569 -14413 0
14779 14569 0
14779 14809 0
-14779 -14569 -14809 0
14789 14675 0
14789 14569 0
-14789 -14675 -14569 0
14791 14569 0
14791 14630 0
-14791 -14569 -14630 0
14795 14711 0
14795 14425 0
-14795 -14711 -14425 0
14798 14427 0
14798 14732 0
-14798 -14427 -14732 0
14429 14720 0
14429 14710 0
14429 14711 0
-14429 -14720 -14710 -14711 0
14553 14690 0
14553 14706 0
14553 14723 0
-14553 -14690 -14706 -14723 0
14803 14731 0
14803 14889 0
-14803 -14731 -14889 0
14810 14569 0
14810 14731 0
-14810 -14569 -14731 0
14443 14444 0
14443 14445 0
-14443 -14444 -14445 0
14573 14447 0
14573 14618 0
-14573 -14447 -14618 0
14449 14450 0
14449 14780 0
-14449 -14450 -14780 0
14452 14453 0
14452 14710 0
-14452 -14453 -14710 0
14822 14456 0
14822 14620 0
-14822 -14456 -14620 0
14533 14459 0
14533 14690 0
-14533 -14459 -14690 0
14461 14462 0
14461 14909 0
-14461 -14462 -14909 0
14464 14465 0
14464 14466 0
-14464 -14465 -14466 0
14467 14803 0
14467 14735 0
-14467 -14803 -14735 0
14470 14471 0
14470 14743 0
-14470 -14471 -14743 0
14473 14474 0
14473 14710 0
-14473 -14474 -14710 0
14528 14659 0
14528 14755 0
14528 14768 0
-14528 -14659 -14755 -14768 0
14825 14630 0
14825 14778 0
-14825 -14630 -14778 0
14614 14857 0
14614 14778 0
14614 14840 0
-14614 -14857 -14778 -14840 0
14562 14654 0
14562 14659 0
14562 14787 0
-14562 -14654 -14659 -14787 0
14829 14790 0
14829 14662 0
14829 14648 0
-14829 -14790 -14662 -14648 0
14495 14540 0
14495 14790 0
14495 14720 0
-14495 -14540 -14790 -14720 0
14592 14772 0
14592 14970 0
14592 14733 0
-14592 -14772 -14970 -14733 0
14837 14796 0
14837 14662 0
-14837 -14796 -14662 0
14845 14796 0
14845 14670 0
14845 14649 0
-14845 -14796 -14670 -14649 0
14848 14670 0
14848 14796 0
14848 14660 0
-14848 -14670 -14796 -14660 0
14853 14755 0
14853 14516 0
14853 14796 0
-14853 -14755 -14516 -14796 0
14518 14519 0
14518 14573 0
-14518 -14519 -14573 0
14861 14522 0
14861 14523 0
-14861 -14522 -14523 0
14524 14525 0
14524 14553 0
-14524 -14525 -14553 0
15010 14528 0
15010 14825 0
-15010 -14528 -14825 0
14980 14531 0
14980 14532 0
14980 14533 0
-14980 -14531 -14532 -14533 0
15002 14535 0
15002 14536 0
-15002 -14535 -14536 0
14556 14836 0
14556 14927 0
14556 14540 0
-14556 -14836 -14927 -14540 0
14541 14844 0
14541 14716 0
-14541 -14844 -14716 0
14544 14545 0
14544 14844 0
14544 14547 0
-14544 -14545 -14844 -14547 0
14914 14549 0
14914 14550 0
-14914 -14549 -14550 0
14920 14552 0
14920 14553 0
-14920 -14552 -14553 0
15032 14555 0
15032 14556 0
-15032 -14555 -14556 0
14982 14558 0
14982 14559 0
14982 14560 0
-14982 -14558 -14559 -14560 0
15000 14562 0
15000 14902 0
-15000 -14562 -14902 0
15012 14565 0
15012 14566 0
-15012 -14565 -14566 0
14585 14568 0
14585 14569 0
-14585 -14568 -14569 0
15014 14571 0
15014 14572 0
15014 14573 0
-15014 -14571 -14572 -14573 0
14590 14575 0
14590 14576 0
-14590 -14575 -14576 0
14577 14578 0
14577 14589 0
14577 14932 0
-14577 -14578 -14589 -14932 0
14596 14582 0
14596 14583 0
-14596 -14582 -14583 0
14969 14585 0
14969 14586 0
14969 14587 0
-14969 -14585 -14586 -14587 0
15022 14589 0
15022 14590 0
15022 14929 0
15022 14592 0
-15022 -14589 -14590 -14929 -14592 0
14593 14594 0
14593 14595 0
14593 14596 0
-14593 -14594 -14595 -14596 0
14984 14598 0
14984 14868 0
14984 14953 0
-14984 -14598 -14868 -14953 0
15016 14602 0
15016 14603 0
15016 14604 0
-15016 -14602 -14603 -14604 0
14986 14606 0
14986 14962 0
-14986 -14606 -14962 0
14976 14609 0
14976 14967 0
-14976 -14609 -14967 0
14978 14612 0
14978 14613 0
14978 14614 0
-14978 -14612 -14613 -14614 0
-14653 -14866 0
-14653 -14716 0
14653 14866 14716 0
-14618 -14809 0
-14618 -14620 0
14618 14809 14620 0
-14621 -14716 0
-14621 -14889 0
14621 14716 14889 0
-14624 -14647 0
-14624 -14794 0
14624 14647 14794 0
-14732 -14857 0
-14732 -14780 0
14732 14857 14780 0
-14630 -14889 0
-14630 -14857 0
14630 14889 14857 0
-15028 -14739 0
-15028 -14752 0
15028 14739 14752 0
-14852 -14649 0
-14852 -14794 0
14852 14649 14794 0
-14639 -14857 0
-14639 -14649 0
14639 14857 14649 0
-14642 -14889 0
-14642 -14644 0
14642 14889 14644 0
-14645 -14755 0
-14645 -14647 0
14645 14755 14647 0
-14648 -14649 0
-14648 -14736 0
14648 14649 14736 0
-14651 -14889 0
-14651 -14653 0
14651 14889 14653 0
-14654 -14866 0
-14654 -14909 0
14654 14866 14909 0
-14657 -14857 0
-14657 -14659 0
14657 14857 14659 0
-14660 -14866 0
-14660 -14662 0
14660 14866 14662 0
-14663 -14857 0
-14663 -14710 0
14663 14857 14710 0
-15026 -14670 0
-15026 -14752 0
15026 14670 14752 0
-14669 -14670 0
-14669 -14710 0
14669 14670 14710 0
-14733 -14710 0
-14733 -14696 0
14733 14710 14696 0
-14675 -14696 0
-14675 -14780 0
14675 14696 14780 0
-14678 -14780 0
-14678 -14860 0
14678 14780 14860 0
-14681 -14840 0
-14681 -14780 0
14681 14840 14780 0
-14927 -14685 0
-14927 -14686 0
14927 14685 14686 0
-14687 -14819 0
-14687 -14889 0
14687 14819 14889 0
-14690 -14780 0
-14690 -14831 0
-14690 -14889 0
14690 14780 14831 14889 0
-14694 -14777 0
-14694 -14696 0
-14694 -14780 0
14694 14777 14696 14780 0
-14698 -14892 0
-14698 -14710 0
14698 14892 14710 0
-14701 -14857 0
-14701 -14703 0
14701 14857 14703 0
-14704 -14774 0
-14704 -14706 0
14704 14774 14706 0
-14707 -14708 0
-14707 -14774 0
-14707 -14710 0
14707 14708 14774 14710 0
-14711 -14797 0
-14711 -14823 0
14711 14797 14823 0
-14714 -14882 0
-14714 -14716 0
14714 14882 14716 0
-14717 -14718 0
-14717 -14780 0
14717 14718 14780 0
-14720 -14725 0
-14720 -14755 0
14720 14725 14755 0
-14723 -14857 0
-14723 -14725 0
-14723 -14726 0
14723 14857 14725 14726 0
-14998 -14728 0
-14998 -14729 0
-14998 -14831 0
14998 14728 14729 14831 0
-14731 -14732 0
-14731 -14733 0
14731 14732 14733 0
-14813 -14735 0
-14813 -14736 0
14813 14735 14736 0
-14737 -14859 0
-14737 -14739 0
14737 14859 14739 0
-14924 -14744 0
-14924 -14819 0
14924 14744 14819 0
-14743 -14744 0
-14743 -14745 0
14743 14744 14745 0
-14746 -14809 0
-14746 -14887 0
-14746 -14892 0
14746 14809 14887 14892 0
-15020 -14772 0
-15020 -14752 0
15020 14772 14752 0
-14753 -14772 0
-14753 -14755 0
14753 14772 14755 0
-14756 -14909 0
-14756 -14758 0
14756 14909 14758 0
-14814 -14883 0
-14814 -14859 0
14814 14883 14859 0
-14762 -14857 0
-14762 -14764 0
14762 14857 14764 0
-14765 -14819 0
-14765 -14767 0
14765 14819 14767 0
-14768 -14857 0
-14768 -14773 0
14768 14857 14773 0
-14913 -14772 0
-14913 -14773 0
-14913 -14774 0
14913 14772 14773 14774 0
-14775 -14776 0
-14775 -14777 0
14775 14776 14777 0
-14778 -14779 0
-14778 -14780 0
14778 14779 14780 0
-14946 -14789 0
-14946 -14783 0
14946 14789 14783 0
-14901 -14789 0
-14901 -14786 0
14901 14789 14786 0
-14787 -14809 0
-14787 -14789 0
14787 14809 14789 0
-14790 -14791 0
-14790 -14809 0
14790 14791 14809 0
-14970 -14794 0
-14970 -14795 0
14970 14794 14795 0
-14796 -14797 0
-14796 -14798 0
14796 14797 14798 0
-14799 -14809 0
-14799 -14801 0
14799 14809 14801 0
-14802 -14803 0
-14802 -14809 0
14802 14803 14809 0
-14805 -14810 0
-14805 -14807 0
14805 14810 14807 0
-14808 -14809 0
-14808 -14810 0
-14808 -14811 0
14808 14809 14810 14811 0
-14812 -14813 0
-14812 -14814 0
14812 14813 14814 0
-14996 -14819 0
-14996 -14817 0
14996 14819 14817 0
-14818 -14819 0
-14818 -14820 0
14818 14819 14820 0
-14821 -14822 0
-14821 -14823 0
14821 14822 14823 0
-14824 -14825 0
-14824 -14826 0
14824 14825 14826 0
-14827 -14839 0
-14827 -14829 0
14827 14839 14829 0
-14830 -14831 0
-14830 -14832 0
14830 14831 14832 0
-14833 -14837 0
-14833 -14866 0
14833 14837 14866 0
-14836 -14837 0
-14836 -14860 0
-14836 -14839 0
-14836 -14840 0
14836 14837 14860 14839 14840 0
-14944 -14845 0
-14944 -14843 0
14944 14845 14843 0
-14844 -14845 0
-14844 -14846 0
14844 14845 14846 0
-14939 -14848 0
-14939 -14849 0
14939 14848 14849 0
-14950 -14909 0
-14950 -14852 0
-14950 -14853 0
-14950 -14854 0
14950 14909 14852 14853 14854 0
-14855 -14861 0
-14855 -14857 0
14855 14861 14857 0
-14919 -14859 0
-14919 -14860 0
-14919 -14861 0
14919 14859 14860 14861 0
-14862 -14913 0
-14862 -14864 0
14862 14913 14864 0
-14865 -14866 0
-14865 -14867 0
14865 14866 14867 0
-14868 -14869 0
-14868 -14870 0
-14868 -14871 0
14868 14869 14870 14871 0
-14872 -14873 0
-14872 -14874 0
-14872 -15004 0
-14872 -14876 0
14872 14873 14874 15004 14876 0
-14877 -14878 0
-14877 -14879 0
14877 14878 14879 0
-14880 -14885 0
-14880 -14882 0
-14880 -14883 0
14880 14885 14882 14883 0
-14964 -14885 0
-14964 -14910 0
-14964 -14887 0
14964 14885 14910 14887 0
-14888 -14889 0
-14888 -14890 0
14888 14889 14890 0
-14923 -14892 0
-14923 -14893 0
14923 14892 14893 0
-14894 -14895 0
-14894 -14896 0
14894 14895 14896 0
-14897 -14898 0
-14897 -15004 0
-14897 -14996 0
-14897 -14901 0
14897 14898 15004 14996 14901 0
-14902 -14903 0
-14902 -14904 0
14902 14903 14904 0
-14905 -14906 0
-14905 -14960 0
14905 14906 14960 0
-14933 -14909 0
-14933 -14910 0
-14933 -14911 0
14933 14909 14910 14911 0
-14912 -14913 0
-14912 -14914 0
-14912 -14915 0
14912 14913 14914 14915 0
-14916 -14917 0
-14916 -14960 0
-14916 -14919 0
-14916 -14920 0
14916 14917 14960 14919 14920 0
-14921 -14922 0
-14921 -14923 0
-14921 -14924 0
-14921 -15004 0
14921 14922 14923 14924 15004 0
-14926 -14927 0
-14926 -14928 0
14926 14927 14928 0
-14929 -14933 0
-14929 -14931 0
14929 14933 14931 0
-14932 -14933 0
-14932 -14960 0
-14932 -14935 0
14932 14933 14960 14935 0
-14936 -14944 0
-14936 -14943 0
-14936 -14939 0
14936 14944 14943 14939 0
-14940 -14941 0
-14940 -14942 0
-14940 -14943 0
-14940 -14944 0
14940 14941 14942 14943 14944 0
-14945 -14946 0
-14945 -14947 0
-14945 -14948 0
14945 14946 14947 14948 0
-14949 -14950 0
-14949 -14951 0
-14949 -14952 0
14949 14950 14951 14952 0
-14953 -14954 0
-14953 -14955 0
-14953 -14956 0
14953 14954 14955 14956 0
-14957 -14958 0
-14957 -14959 0
-14957 -14960 0
-14957 -14961 0
14957 14958 14959 14960 14961 0
-14962 -14963 0
-14962 -14964 0
-14962 -14965 0
-14962 -14966 0
14962 14963 14964 14965 14966 0
-14967 -14968 0
-14967 -14969 0
-14967 -14970 0
-14967 -15004 0
14967 14968 14969 14970 15004 0
-14972 -14973 0
-14972 -14974 0
14972 14973 14974 0
-14976 15835 0
14976 -15835 0
-14978 16024 0
14978 -16024 0
-14980 15960 0
14980 -15960 0
-14982 16104 0
14982 -16104 0
-14984 15995 0
14984 -15995 0
-14986 16072 0
14986 -16072 0
-14988 14987 0
14988 -14987 0
-14990 14989 0
14990 -14989 0
-14992 14991 0
14992 -14991 0
-14994 14993 0
14994 -14993 0
-14996 14995 0
14996 -14995 0
-14998 14997 0
14998 -14997 0
-15000 14999 0
15000 -14999 0
-15002 15001 0
15002 -15001 0
-15004 15003 0
15004 -15003 0
-15006 15005 0
15006 -15005 0
-15008 15007 0
15008 -15007 0
-15010 15009 0
15010 -15009 0
-15012 15011 0
15012 -15011 0
-15014 15013 0
15014 -15013 0
-15016 15015 0
15016 -15015 0
-15018 15017 0
15018 -15017 0
-15020 15019 0
15020 -15019 0
-15022 15021 0
15022 -15021 0
-15024 15023 0
15024 -15023 0
-15026 15025 0
15026 -15025 0
-15028 15027 0
15028 -15027 0
-15030 15029 0
15030 -15029 0
-15032 15031 0
15032 -15031 0
15970 16081 0
-15970 -16081 0
16041 15036 0
-16041 -15036 0
15233 15236 0
-15233 -15236 0
15504 15236 0
-15504 -15236 0
15951 16009 0
-15951 -16009 0
15235 15931 0
-15235 -15931 0
16124 15931 0
-16124 -15931 0
15621 16024 0
-15621 -16024 0
15921 15960 0
-15921 -15960 0
15874 16104 0
-15874 -16104 0
15628 15791 0
-15628 -15791 0
15877 15862 0
-15877 -15862 0
15925 15995 0
-15925 -15995 0
15640 15579 0
-15640 -15579 0
15885 15954 0
-15885 -15954 0
15911 16072 0
-15911 -16072 0
16075 15614 0
-16075 -15614 0
16055 15540 0
-16055 -15540 0
15755 15762 0
-15755 -15762 0
15923 15859 0
-15923 -15859 0
16046 15833 0
-16046 -15833 0
15257 15839 0
-15257 -15839 0
16069 15625 0
-16069 -15625 0
15264 15857 0
-15264 -15857 0
16061 15860 0
-16061 -15860 0
15432 15503 0
-15432 -15503 0
15310 15866 0
-15310 -15866 0
15784 16107 0
-15784 -16107 0
15642 16038 0
-15642 -16038 0
15414 15533 0
-15414 -15533 0
16102 15878 0
-16102 -15878 0
15405 15542 0
-15405 -15542 0
15987 15940 0
-15987 -15940 0
15278 15884 0
-15278 -15884 0
15413 15551 0
-15413 -15551 0
15416 15560 0
-15416 -15560 0
16098 15890 0
-16098 -15890 0
15420 15566 0
-15420 -15566 0
15493 15896 0
-15493 -15896 0
15345 15909 0
-15345 -15909 0
15481 15592 0
-15481 -15592 0
15288 15916 0
-15288 -15916 0
15291 15922 0
-15291 -15922 0
15307 15932 0
-15307 -15932 0
15433 16213 0
-15433 -16213 0
15367 15609 0
-15367 -15609 0
16245 15616 0
-16245 -15616 0
15316 15802 0
-15316 -15802 0
15747 16139 0
-15747 -16139 0
15738 15644 0
-15738 -15644 0
16176 15768 0
-16176 -15768 0
15331 15971 0
-15331 -15971 0
15343 15977 0
-15343 -15977 0
15474 15658 0
-15474 -15658 0
15441 15980 0
-15441 -15980 0
15333 15667 0
-15333 -15667 0
16079 15748 0
-16079 -15748 0
15342 16014 0
-15342 -16014 0
15463 15679 0
-15463 -15679 0
15466 15682 0
-15466 -15682 0
15346 16017 0
-15346 -16017 0
15801 16020 0
-15801 -16020 0
15751 16023 0
-15751 -16023 0
15348 16027 0
-15348 -16027 0
16086 15685 0
-16086 -15685 0
15354 15743 0
-15354 -15743 0
16219 16040 0
-16219 -16040 0
16091 15777 0
-16091 -15777 0
15804 16033 0
-15804 -16033 0
16175 15807 0
-16175 -15807 0
15373 16063 0
-15373 -16063 0
15781 15733 0
-15781 -15733 0
16100 16036 0
-16100 -16036 0
15775 15739 0
-15775 -15739 0
15471 16042 0
-15471 -16042 0
15774 16045 0
-15774 -16045 0
16126 16048 0
-16126 -16048 0
16181 16077 0
-16181 -16077 0
15483 16080 0
-15483 -16080 0
16203 16087 0
-16203 -16087 0
16158 15771 0
-16158 -15771 0
15489 15756 0
-15489 -15756 0
16162 15759 0
-16162 -15759 0
15813 16095 0
-15813 -16095 0
15380 16109 0
-15380 -16109 0
16205 16112 0
-16205 -16112 0
16166 16120 0
-16166 -16120 0
16171 16127 0
-16171 -16127 0
16209 16131 0
-16209 -16131 0
16223 16136 0
-16223 -16136 0
15492 16141 0
-15492 -16141 0
16233 16151 0
-16233 -16151 0
16239 16155 0
-16239 -16155 0
16180 16160 0
-16180 -16160 0
16189 16164 0
-16189 -16164 0
15819 15792 0
-15819 -15792 0
16221 16172 0
-16221 -16172 0
15828 15808 0
-15828 -15808 0
16207 16187 0
-16207 -16187 0
-15900 15931 0
-15900 15233 0
15900 -15931 -15233 0
-15901 15235 0
-15901 15236 0
15901 -15235 -15236 0
-15918 15995 0
-15918 15874 0
15918 -15995 -15874 0
-16026 16081 0
-16026 15874 0
16026 -16081 -15874 0
-15933 15731 0
-15933 15931 0
-15933 15874 0
15933 -15731 -15931 -15874 0
-16110 15970 0
-16110 15947 0
16110 -15970 -15947 0
-16022 15874 0
-16022 15992 0
16022 -15874 -15992 0
-16001 15874 0
-16001 15515 0
16001 -15874 -15515 0
-15973 15257 0
-15973 15548 0
15973 -15257 -15548 0
-15979 15536 0
-15979 15569 0
15979 -15536 -15569 0
-15982 15995 0
-15982 15264 0
15982 -15995 -15264 0
-16085 16072 0
-16085 15902 0
16085 -16072 -15902 0
-15998 15874 0
-15998 15589 0
15998 -15874 -15589 0
-16058 15599 0
-16058 15581 0
16058 -15599 -15581 0
-16137 15902 0
-16137 16102 0
16137 -15902 -16102 0
-16016 15278 0
-16016 15606 0
16016 -15278 -15606 0
-16174 16213 0
-16174 16081 0
16174 -16213 -16081 0
-16064 15660 0
-16064 15609 0
16064 -15660 -15609 0
-16032 15989 0
-16032 15288 0
16032 -15989 -15288 0
-16035 15944 0
-16035 15291 0
16035 -15944 -15291 0
-16088 15835 0
-16088 15958 0
16088 -15835 -15958 0
-16188 16069 0
-16188 15833 0
-16188 15958 0
16188 -16069 -15833 -15958 0
-16089 15961 0
-16089 15869 0
16089 -15961 -15869 0
-16183 15862 0
-16183 15961 0
16183 -15862 -15961 0
-16093 15854 0
-16093 15307 0
16093 -15854 -15307 0
-16118 15983 0
-16118 15310 0
16118 -15983 -15310 0
-16084 15983 0
-16084 15968 0
16084 -15983 -15968 0
-16130 15992 0
-16130 15316 0
16130 -15992 -15316 0
-16170 15878 0
-16170 15990 0
16170 -15878 -15990 0
-16178 15990 0
-16178 15890 0
16178 -15990 -15890 0
-16163 16002 0
-16163 15968 0
16163 -16002 -15968 0
-16047 15664 0
-16047 15596 0
16047 -15664 -15596 0
-16082 15676 0
-16082 15331 0
16082 -15676 -15331 0
-16094 15333 0
-16094 16055 0
16094 -15333 -16055 0
-16132 16036 0
-16132 16029 0
16132 -16036 -16029 0
-16167 16028 0
-16167 16036 0
16167 -16028 -16036 0
-16105 15342 0
-16105 15343 0
16105 -15342 -15343 0
-16108 15345 0
-16108 15346 0
16108 -15345 -15346 0
-16111 15348 0
-16111 15935 0
16111 -15348 -15935 0
-16113 16124 0
-16113 15354 0
16113 -16124 -15354 0
-16157 15354 0
-16157 15791 0
16157 -15354 -15791 0
-16119 16219 0
-16119 15931 0
16119 -16219 -15931 0
-16121 16042 0
-16121 15798 0
-16121 15762 0
16121 -16042 -15798 -15762 0
-16146 16048 0
-16146 15929 0
16146 -16048 -15929 0
-16150 15367 0
-16150 16048 0
16150 -15367 -16048 0
-16169 15563 0
-16169 16051 0
16169 -15563 -16051 0
-16156 15373 0
-16156 15929 0
16156 -15373 -15929 0
-16143 15471 0
-16143 15710 0
16143 -15471 -15710 0
-16173 15926 0
-16173 15380 0
16173 -15926 -15380 0
15680 -15762 0
15680 -16072 0
15680 -15614 0
-15680 15762 16072 15614 0
15593 -16072 0
15593 -15836 0
-15593 16072 15836 0
15737 -15755 0
15737 -15863 0
-15737 15755 15863 0
15760 -15610 0
15760 -16075 0
-15760 15610 16075 0
15659 -16074 0
15659 -15931 0
-15659 16074 15931 0
15662 -15947 0
15662 -15919 0
-15662 15947 15919 0
15665 -15872 0
15665 -15919 0
-15665 15872 15919 0
15668 -16072 0
15668 -15405 0
-15668 16072 15405 0
15671 -16024 0
15671 -15935 0
-15671 16024 15935 0
15674 -15960 0
15674 -15938 0
-15674 15960 15938 0
15677 -15413 0
15677 -15414 0
-15677 15413 15414 0
15681 -15416 0
15681 -16074 0
-15681 15416 16074 0
15686 -15835 0
15686 -15420 0
-15686 15835 15420 0
15689 -15869 0
15689 -15952 0
-15689 15869 15952 0
15787 -15911 0
15787 -16010 0
-15787 15911 16010 0
15734 -15970 0
15734 -16024 0
15734 -16013 0
-15734 15970 16024 16013 0
15824 -15432 0
15824 -15433 0
-15824 15432 15433 0
15740 -16018 0
15740 -15991 0
-15740 16018 15991 0
15765 -15791 0
15765 -15747 0
-15765 15791 15747 0
15746 -15441 0
15746 -15911 0
-15746 15441 15911 0
15750 -16040 0
15750 -15504 0
-15750 16040 15504 0
15810 -16040 0
15810 -15791 0
-15810 16040 15791 0
15793 -15688 0
15793 -16044 0
-15793 15688 16044 0
15770 -16060 0
15770 -15581 0
-15770 16060 15581 0
15764 -15474 0
15764 -16063 0
-15764 15474 16063 0
15767 -15609 0
15767 -16068 0
-15767 15609 16068 0
15817 -15644 0
15817 -15463 0
-15817 15644 15463 0
15809 -15994 0
15809 -15466 0
-15809 15994 15466 0
15773 -16100 0
15773 -16027 0
-15773 16100 16027 0
15818 -15471 0
15818 -15893 0
-15818 15471 15893 0
15821 -15474 0
15821 -16126 0
-15821 15474 16126 0
15780 -16107 0
15780 -16092 0
-15780 16107 16092 0
15783 -16103 0
15783 -15481 0
-15783 16103 15481 0
15786 -15483 0
15786 -16006 0
-15786 15483 16006 0
15790 -16138 0
15790 -16039 0
-15790 16138 16039 0
15797 -15489 0
15797 -16070 0
-15797 15489 16070 0
15827 -15492 0
15827 -15493 0
-15827 15492 15493 0
15731 15954 0
15731 15862 0
-15731 -15954 -15862 0
15625 15864 0
15625 16009 0
-15625 -15864 -16009 0
15941 15540 0
15941 15579 0
-15941 -15540 -15579 0
15503 15504 0
15503 15970 0
-15503 -15504 -15970 0
16125 15864 0
16125 15951 0
-16125 -15864 -15951 0
16034 15960 0
16034 15833 0
-16034 -15960 -15833 0
15992 15970 0
15992 15621 0
-15992 -15970 -15621 0
15515 15868 0
15515 15621 0
-15515 -15868 -15621 0
16012 15621 0
16012 15835 0
-16012 -15621 -15835 0
15943 15921 0
15943 15523 0
-15943 -15921 -15523 0
16107 15921 0
16107 15835 0
-16107 -15921 -15835 0
15989 15874 0
15989 16072 0
-15989 -15874 -16072 0
16038 15874 0
16038 15921 0
-16038 -15874 -15921 0
15533 15877 0
15533 15540 0
-15533 -15877 -15540 0
15536 15925 0
15536 16081 0
-15536 -15925 -16081 0
16097 15540 0
16097 15640 0
-16097 -15540 -15640 0
15542 15836 0
15542 15731 0
-15542 -15836 -15731 0
15940 15885 0
15940 15877 0
-15940 -15885 -15877 0
15548 15885 0
15548 15864 0
-15548 -15885 -15864 0
15551 15885 0
15551 15640 0
-15551 -15885 -15640 0
16054 16081 0
16054 15885 0
-16054 -16081 -15885 0
15944 15947 0
15944 16104 0
-15944 -15947 -16104 0
15560 15911 0
15560 15762 0
-15560 -15911 -15762 0
15563 16067 0
15563 15762 0
-15563 -16067 -15762 0
15566 15621 0
15566 15625 0
-15566 -15621 -15625 0
15569 15931 0
15569 15625 0
-15569 -15931 -15625 0
15950 15995 0
15950 15854 0
-15950 -15995 -15854 0
15610 16055 0
15610 15640 0
-15610 -16055 -15640 0
16074 15579 0
16074 16055 0
-16074 -15579 -16055 0
15581 16124 0
15581 16075 0
15581 15860 0
15581 15762 0
-15581 -16124 -16075 -15860 -15762 0
15660 15863 0
15660 15931 0
-15660 -15863 -15931 0
15589 15941 0
15589 15992 0
-15589 -15941 -15992 0
15592 15593 0
15592 15925 0
15592 15941 0
-15592 -15593 -15925 -15941 0
15596 15872 0
15596 15943 0
-15596 -15872 -15943 0
15599 15951 0
15599 15875 0
15599 15931 0
-15599 -15951 -15875 -15931 0
15959 15878 0
15959 16104 0
-15959 -15878 -16104 0
15606 15940 0
15606 16072 0
-15606 -15940 -16072 0
15609 15610 0
15609 16124 0
15609 15941 0
-15609 -15610 -16124 -15941 0
15798 15614 0
15798 16074 0
-15798 -15614 -16074 0
15616 15902 0
15616 15947 0
-15616 -15902 -15947 0
15988 15913 0
15988 15621 0
-15988 -15913 -15621 0
15802 15911 0
15802 15913 0
15802 15625 0
-15802 -15911 -15913 -15625 0
15991 15784 0
15991 15628 0
-15991 -15784 -15628 0
15994 15784 0
15994 16024 0
-15994 -15784 -16024 0
16004 15890 0
16004 15784 0
-16004 -15890 -15784 0
16006 15784 0
16006 15845 0
-16006 -15784 -15845 0
16010 15926 0
16010 15640 0
-16010 -15926 -15640 0
16013 15642 0
16013 15947 0
-16013 -15642 -15947 0
15644 15935 0
15644 15925 0
15644 15926 0
-15644 -15935 -15925 -15926 0
15768 15905 0
15768 15921 0
15768 15938 0
-15768 -15905 -15921 -15938 0
16018 15946 0
16018 16104 0
-16018 -15946 -16104 0
16025 15784 0
16025 15946 0
-16025 -15784 -15946 0
15658 15659 0
15658 15660 0
-15658 -15659 -15660 0
15788 15662 0
15788 15833 0
-15788 -15662 -15833 0
15664 15665 0
15664 15995 0
-15664 -15665 -15995 0
15667 15668 0
15667 15925 0
-15667 -15668 -15925 0
16037 15671 0
16037 15835 0
-16037 -15671 -15835 0
15748 15674 0
15748 15905 0
-15748 -15674 -15905 0
15676 15677 0
15676 16124 0
-15676 -15677 -16124 0
15679 15680 0
15679 15681 0
-15679 -15680 -15681 0
15682 16018 0
15682 15950 0
-15682 -16018 -15950 0
15685 15686 0
15685 15958 0
-15685 -15686 -15958 0
15688 15689 0
15688 15925 0
-15688 -15689 -15925 0
15743 15874 0
15743 15970 0
15743 15983 0
-15743 -15874 -15970 -15983 0
16040 15845 0
16040 15993 0
-16040 -15845 -15993 0
15829 16072 0
15829 15993 0
15829 16055 0
-15829 -16072 -15993 -16055 0
15777 15869 0
15777 15874 0
15777 16002 0
-15777 -15869 -15874 -16002 0
16044 16005 0
16044 15877 0
16044 15863 0
-16044 -16005 -15877 -15863 0
15710 15755 0
15710 16005 0
15710 15935 0
-15710 -15755 -16005 -15935 0
15807 15987 0
15807 16185 0
15807 15948 0
-15807 -15987 -16185 -15948 0
16052 16011 0
16052 15877 0
-16052 -16011 -15877 0
16060 16011 0
16060 15885 0
16060 15864 0
-16060 -16011 -15885 -15864 0
16063 15885 0
16063 16011 0
16063 15875 0
-16063 -15885 -16011 -15875 0
16068 15970 0
16068 15731 0
16068 16011 0
-16068 -15970 -15731 -16011 0
15733 15734 0
15733 15788 0
-15733 -15734 -15788 0
16076 15737 0
16076 15738 0
-16076 -15737 -15738 0
15739 15740 0
15739 15768 0
-15739 -15740 -15768 0
16225 15743 0
16225 16040 0
-16225 -15743 -16040 0
16195 15746 0
16195 15747 0
16195 15748 0
-16195 -15746 -15747 -15748 0
16217 15750 0
16217 15751 0
-16217 -15750 -15751 0
15771 16051 0
15771 16142 0
15771 15755 0
-15771 -16051 -16142 -15755 0
15756 16059 0
15756 15931 0
-15756 -16059 -15931 0
15759 15760 0
15759 16059 0
15759 15762 0
-15759 -15760 -16059 -15762 0
16129 15764 0
16129 15765 0
-16129 -15764 -15765 0
16135 15767 0
16135 15768 0
-16135 -15767 -15768 0
16247 15770 0
16247 15771 0
-16247 -15770 -15771 0
16197 15773 0
16197 15774 0
16197 15775 0
-16197 -15773 -15774 -15775 0
16215 15777 0
16215 16117 0
-16215 -15777 -16117 0
16227 15780 0
16227 15781 0
-16227 -15780 -15781 0
15800 15783 0
15800 15784 0
-15800 -15783 -15784 0
16229 15786 0
16229 15787 0
16229 15788 0
-16229 -15786 -15787 -15788 0
15805 15790 0
15805 15791 0
-15805 -15790 -15791 0
15792 15793 0
15792 15804 0
15792 16147 0
-15792 -15793 -15804 -16147 0
15811 15797 0
15811 15798 0
-15811 -15797 -15798 0
16184 15800 0
16184 15801 0
16184 15802 0
-16184 -15800 -15801 -15802 0
16237 15804 0
16237 15805 0
16237 16144 0
16237 15807 0
-16237 -15804 -15805 -16144 -15807 0
15808 15809 0
15808 15810 0
15808 15811 0
-15808 -15809 -15810 -15811 0
16199 15813 0
16199 16083 0
16199 16168 0
-16199 -15813 -16083 -16168 0
16231 15817 0
16231 15818 0
16231 15819 0
-16231 -15817 -15818 -15819 0
16201 15821 0
16201 16177 0
-16201 -15821 -16177 0
16191 15824 0
16191 16182 0
-16191 -15824 -16182 0
16193 15827 0
16193 15828 0
16193 15829 0
-16193 -15827 -15828 -15829 0
-15868 -16081 0
-15868 -15931 0
15868 16081 15931 0
-15833 -16024 0
-15833 -15835 0
15833 16024 15835 0
-15836 -15931 0
-15836 -16104 0
15836 15931 16104 0
-15839 -15862 0
-15839 -16009 0
15839 15862 16009 0
-15947 -16072 0
-15947 -15995 0
15947 16072 15995 0
-15845 -16104 0
-15845 -16072 0
15845 16104 16072 0
-16243 -15954 0
-16243 -15967 0
16243 15954 15967 0
-16067 -15864 0
-16067 -16009 0
16067 15864 16009 0
-15854 -16072 0
-15854 -15864 0
15854 16072 15864 0
-15857 -16104 0
-15857 -15859 0
15857 16104 15859 0
-15860 -15970 0
-15860 -15862 0
15860 15970 15862 0
-15863 -15864 0
-15863 -15951 0
15863 15864 15951 0
-15866 -16104 0
-15866 -15868 0
15866 16104 15868 0
-15869 -16081 0
-15869 -16124 0
15869 16081 16124 0
-15872 -16072 0
-15872 -15874 0
15872 16072 15874 0
-15875 -16081 0
-15875 -15877 0
15875 16081 15877 0
-15878 -16072 0
-15878 -15925 0
15878 16072 15925 0
-16241 -15885 0
-16241 -15967 0
16241 15885 15967 0
-15884 -15885 0
-15884 -15925 0
15884 15885 15925 0
-15948 -15925 0
-15948 -15911 0
15948 15925 15911 0
-15890 -15911 0
-15890 -15995 0
15890 15911 15995 0
-15893 -15995 0
-15893 -16075 0
15893 15995 16075 0
-15896 -16055 0
-15896 -15995 0
15896 16055 15995 0
-16142 -15900 0
-16142 -15901 0
16142 15900 15901 0
-15902 -16034 0
-15902 -16104 0
15902 16034 16104 0
-15905 -15995 0
-15905 -16046 0
-15905 -16104 0
15905 15995 16046 16104 0
-15909 -15992 0
-15909 -15911 0
-15909 -15995 0
15909 15992 15911 15995 0
-15913 -16107 0
-15913 -15925 0
15913 16107 15925 0
-15916 -16072 0
-15916 -15918 0
15916 16072 15918 0
-15919 -15989 0
-15919 -15921 0
15919 15989 15921 0
-15922 -15923 0
-15922 -15989 0
-15922 -15925 0
15922 15923 15989 15925 0
-15926 -16012 0
-15926 -16038 0
15926 16012 16038 0
-15929 -16097 0
-15929 -15931 0
15929 16097 15931 0
-15932 -15933 0
-15932 -15995 0
15932 15933 15995 0
-15935 -15940 0
-15935 -15970 0
15935 15940 15970 0
-15938 -16072 0
-15938 -15940 0
-15938 -15941 0
15938 16072 15940 15941 0
-16213 -15943 0
-16213 -15944 0
-16213 -16046 0
16213 15943 15944 16046 0
-15946 -15947 0
-15946 -15948 0
15946 15947 15948 0
-16028 -15950 0
-16028 -15951 0
16028 15950 15951 0
-15952 -16074 0
-15952 -15954 0
15952 16074 15954 0
-16139 -15959 0
-16139 -16034 0
16139 15959 16034 0
-15958 -15959 0
-15958 -15960 0
15958 15959 15960 0
-15961 -16024 0
-15961 -16102 0
-15961 -16107 0
15961 16024 16102 16107 0
-16235 -15987 0
-16235 -15967 0
16235 15987 15967 0
-15968 -15987 0
-15968 -15970 0
15968 15987 15970 0
-15971 -16124 0
-15971 -15973 0
15971 16124 15973 0
-16029 -16098 0
-16029 -16074 0
16029 16098 16074 0
-15977 -16072 0
-15977 -15979 0
15977 16072 15979 0
-15980 -16034 0
-15980 -15982 0
15980 16034 15982 0
-15983 -16072 0
-15983 -15988 0
15983 16072 15988 0
-16128 -15987 0
-16128 -15988 0
-16128 -15989 0
16128 15987 15988 15989 0
-15990 -15991 0
-15990 -15992 0
15990 15991 15992 0
-15993 -15994 0
-15993 -15995 0
15993 15994 15995 0
-16161 -16004 0
-16161 -15998 0
16161 16004 15998 0
-16116 -16004 0
-16116 -16001 0
16116 16004 16001 0
-16002 -16024 0
-16002 -16004 0
16002 16024 16004 0
-16005 -16006 0
-16005 -16024 0
16005 16006 16024 0
-16185 -16009 0
-16185 -16010 0
16185 16009 16010 0
-16011 -16012 0
-16011 -16013 0
16011 16012 16013 0
-16014 -16024 0
-16014 -16016 0
16014 16024 16016 0
-16017 -16018 0
-16017 -16024 0
16017 16018 16024 0
-16020 -16025 0
-16020 -16022 0
16020 16025 16022 0
-16023 -16024 0
-16023 -16025 0
-16023 -16026 0
16023 16024 16025 16026 0
-16027 -16028 0
-16027 -16029 0
16027 16028 16029 0
-16211 -16034 0
-16211 -16032 0
16211 16034 16032 0
-16033 -16034 0
-16033 -16035 0
16033 16034 16035 0
-16036 -16037 0
-16036 -16038 0
16036 16037 16038 0
-16039 -16040 0
-16039 -16041 0
16039 16040 16041 0
-16042 -16054 0
-16042 -16044 0
16042 16054 16044 0
-16045 -16046 0
-16045 -16047 0
16045 16046 16047 0
-16048 -16052 0
-16048 -16081 0
16048 16052 16081 0
-16051 -16052 0
-16051 -16075 0
-16051 -16054 0
-16051 -16055 0
16051 16052 16075 16054 16055 0
-16159 -16060 0
-16159 -16058 0
16159 16060 16058 0
-16059 -16060 0
-16059 -16061 0
16059 16060 16061 0
-16154 -16063 0
-16154 -16064 0
16154 16063 16064 0
-16165 -16124 0
-16165 -16067 0
-16165 -16068 0
-16165 -16069 0
16165 16124 16067 16068 16069 0
-16070 -16076 0
-16070 -16072 0
16070 16076 16072 0
-16134 -16074 0
-16134 -16075 0
-16134 -16076 0
16134 16074 16075 16076 0
-16077 -16128 0
-16077 -16079 0
16077 16128 16079 0
-16080 -16081 0
-16080 -16082 0
16080 16081 16082 0
-16083 -16084 0
-16083 -16085 0
-16083 -16086 0
16083 16084 16085 16086 0
-16087 -16088 0
-16087 -16089 0
-16087 -16219 0
-16087 -16091 0
16087 16088 16089 16219 16091 0
-16092 -16093 0
-16092 -16094 0
16092 16093 16094 0
-16095 -16100 0
-16095 -16097 0
-16095 -16098 0
16095 16100 16097 16098 0
-16179 -16100 0
-16179 -16125 0
-16179 -16102 0
16179 16100 16125 16102 0
-16103 -16104 0
-16103 -16105 0
16103 16104 16105 0
-16138 -16107 0
-16138 -16108 0
16138 16107 16108 0
-16109 -16110 0
-16109 -16111 0
16109 16110 16111 0
-16112 -16113 0
-16112 -16219 0
-16112 -16211 0
-16112 -16116 0
16112 16113 16219 16211 16116 0
-16117 -16118 0
-16117 -16119 0
16117 16118 16119 0
-16120 -16121 0
-16120 -16175 0
16120 16121 16175 0
-16148 -16124 0
-16148 -16125 0
-16148 -16126 0
16148 16124 16125 16126 0
-16127 -16128 0
-16127 -16129 0
-16127 -16130 0
16127 16128 16129 16130 0
-16131 -16132 0
-16131 -16175 0
-16131 -16134 0
-16131 -16135 0
16131 16132 16175 16134 16135 0
-16136 -16137 0
-16136 -16138 0
-16136 -16139 0
-16136 -16219 0
16136 16137 16138 16139 16219 0
-16141 -16142 0
-16141 -16143 0
16141 16142 16143 0
-16144 -16148 0
-16144 -16146 0
16144 16148 16146 0
-16147 -16148 0
-16147 -16175 0
-16147 -16150 0
16147 16148 16175 16150 0
-16151 -16159 0
-16151 -16158 0
-16151 -16154 0
16151 16159 16158 16154 0
-16155 -16156 0
-16155 -16157 0
-16155 -16158 0
-16155 -16159 0
16155 16156 16157 16158 16159 0
-16160 -16161 0
-16160 -16162 0
-16160 -16163 0
16160 16161 16162 16163 0
-16164 -16165 0
-16164 -16166 0
-16164 -16167 0
16164 16165 16166 16167 0
-16168 -16169 0
-16168 -16170 0
-16168 -16171 0
16168 16169 16170 16171 0
-16172 -16173 0
-16172 -16174 0
-16172 -16175 0
-16172 -16176 0
16172 16173 16174 16175 16176 0
-16177 -16178 0
-16177 -16179 0
-16177 -16180 0
-16177 -16181 0
16177 16178 16179 16180 16181 0
-16182 -16183 0
-16182 -16184 0
-16182 -16185 0
-16182 -16219 0
16182 16183 16184 16185 16219 0
-16187 -16188 0
-16187 -16189 0
16187 16188 16189 0
-16191 17050 0
16191 -17050 0
-16193 17239 0
16193 -17239 0
-16195 17175 0
16195 -17175 0
-16197 17319 0
16197 -17319 0
-16199 17210 0
16199 -17210 0
-16201 17287 0
16201 -17287 0
-16203 16202 0
16203 -16202 0
-16205 16204 0
16205 -16204 0
-16207 16206 0
16207 -16206 0
-16209 16208 0
16209 -16208 0
-16211 16210 0
16211 -16210 0
-16213 16212 0
16213 -16212 0
-16215 16214 0
16215 -16214 0
-16217 16216 0
16217 -16216 0
-16219 16218 0
16219 -16218 0
-16221 16220 0
16221 -16220 0
-16223 16222 0
16223 -16222 0
-16225 16224 0
16225 -16224 0
-16227 16226 0
16227 -16226 0
-16229 16228 0
16229 -16228 0
-16231 16230 0
16231 -16230 0
-16233 16232 0
16233 -16232 0
-16235 16234 0
16235 -16234 0
-16237 16236 0
16237 -16236 0
-16239 16238 0
16239 -16238 0
-16241 16240 0
16241 -16240 0
-16243 16242 0
16243 -16242 0
-16245 16244 0
16245 -16244 0
-16247 16246 0
16247 -16246 0
17185 17296 0
-17185 -17296 0
17256 16251 0
-17256 -16251 0
16448 16451 0
-16448 -16451 0
16719 16451 0
-16719 -16451 0
17166 17224 0
-17166 -17224 0
16450 17146 0
-16450 -17146 0
17339 17146 0
-17339 -17146 0
16836 17239 0
-16836 -17239 0
17136 17175 0
-17136 -17175 0
17089 17319 0
-17089 -17319 0
16843 17006 0
-16843 -17006 0
17092 17077 0
-17092 -17077 0
17140 17210 0
-17140 -17210 0
16855 16794 0
-16855 -16794 0
17100 17169 0
-17100 -17169 0
17126 17287 0
-17126 -17287 0
17290 16829 0
-17290 -16829 0
17270 16755 0
-17270 -16755 0
16970 16977 0
-16970 -16977 0
17138 17074 0
-17138 -17074 0
17261 17048 0
-17261 -17048 0
16472 17054 0
-16472 -17054 0
17284 16840 0
-17284 -16840 0
16479 17072 0
-16479 -17072 0
17276 17075 0
-17276 -17075 0
16647 16718 0
-16647 -16718 0
16525 17081 0
-16525 -17081 0
16999 17322 0
-16999 -17322 0
16857 17253 0
-16857 -17253 0
16629 16748 0
-16629 -16748 0
17317 17093 0
-17317 -17093 0
16620 16757 0
-16620 -16757 0
17202 17155 0
-17202 -17155 0
16493 17099 0
-16493 -17099 0
16628 16766 0
-16628 -16766 0
16631 16775 0
-16631 -16775 0
17313 17105 0
-17313 -17105 0
16635 16781 0
-16635 -16781 0
16708 17111 0
-16708 -17111 0
16560 17124 0
-16560 -17124 0
16696 16807 0
-16696 -16807 0
16503 17131 0
-16503 -17131 0
16506 17137 0
-16506 -17137 0
16522 17147 0
-16522 -17147 0
16648 17428 0
-16648 -17428 0
16582 16824 0
-16582 -16824 0
17460 16831 0
-17460 -16831 0
16531 17017 0
-16531 -17017 0
16962 17354 0
-16962 -17354 0
16953 16859 0
-16953 -16859 0
17391 16983 0
-17391 -16983 0
16546 17186 0
-16546 -17186 0
16558 17192 0
-16558 -17192 0
16689 16873 0
-16689 -16873 0
16656 17195 0
-16656 -17195 0
16548 16882 0
-16548 -16882 0
17294 16963 0
-17294 -16963 0
16557 17229 0
-16557 -17229 0
16678 16894 0
-16678 -16894 0
16681 16897 0
-16681 -16897 0
16561 17232 0
-16561 -17232 0
17016 17235 0
-17016 -17235 0
16966 17238 0
-16966 -17238 0
16563 17242 0
-16563 -17242 0
17301 16900 0
-17301 -16900 0
16569 16958 0
-16569 -16958 0
17434 17255 0
-17434 -17255 0
17306 16992 0
-17306 -16992 0
17019 17248 0
-17019 -17248 0
17390 17022 0
-17390 -17022 0
16588 17278 0
-16588 -17278 0
16996 16948 0
-16996 -16948 0
17315 17251 0
-17315 -17251 0
16990 16954 0
-16990 -16954 0
16686 17257 0
-16686 -17257 0
16989 17260 0
-16989 -17260 0
17341 17263 0
-17341 -17263 0
17396 17292 0
-17396 -17292 0
16698 17295 0
-16698 -17295 0
17418 17302 0
-17418 -17302 0
17373 16986 0
-17373 -16986 0
16704 16971 0
-16704 -16971 0
17377 16974 0
-17377 -16974 0
17028 17310 0
-17028 -17310 0
16595 17324 0
-16595 -17324 0
17420 17327 0
-17420 -17327 0
17381 17335 0
-17381 -17335 0
17386 17342 0
-17386 -17342 0
17424 17346 0
-17424 -17346 0
17438 17351 0
-17438 -17351 0
16707 17356 0
-16707 -17356 0
17448 17366 0
-17448 -17366 0
17454 17370 0
-17454 -17370 0
17395 17375 0
-17395 -17375 0
17404 17379 0
-17404 -17379 0
17034 17007 0
-17034 -17007 0
17436 17387 0
-17436 -17387 0
17043 17023 0
-17043 -17023 0
17422 17402 0
-17422 -17402 0
-17115 17146 0
-17115 16448 0
17115 -17146 -16448 0
-17116 16450 0
-17116 16451 0
17116 -16450 -16451 0
-17133 17210 0
-17133 17089 0
17133 -17210 -17089 0
-17241 17296 0
-17241 17089 0
17241 -17296 -17089 0
-17148 16946 0
-17148 17146 0
-17148 17089 0
17148 -16946 -17146 -17089 0
-17325 17185 0
-17325 17162 0
17325 -17185 -17162 0
-17237 17089 0
-17237 17207 0
17237 -17089 -17207 0
-17216 17089 0
-17216 16730 0
17216 -17089 -16730 0
-17188 16472 0
-17188 16763 0
17188 -16472 -16763 0
-17194 16751 0
-17194 16784 0
17194 -16751 -16784 0
-17197 17210 0
-17197 16479 0
17197 -17210 -16479 0
-17300 17287 0
-17300 17117 0
17300 -17287 -17117 0
-17213 17089 0
-17213 16804 0
17213 -17089 -16804 0
-17273 16814 0
-17273 16796 0
17273 -16814 -16796 0
-17352 17117 0
-17352 17317 0
17352 -17117 -17317 0
-17231 16493 0
-17231 16821 0
17231 -16493 -16821 0
-17389 17428 0
-17389 17296 0
17389 -17428 -17296 0
-17279 16875 0
-17279 16824 0
17279 -16875 -16824 0
-17247 17204 0
-17247 16503 0
17247 -17204 -16503 0
-17250 17159 0
-17250 16506 0
17250 -17159 -16506 0
-17303 17050 0
-17303 17173 0
17303 -17050 -17173 0
-17403 17284 0
-17403 17048 0
-17403 17173 0
17403 -17284 -17048 -17173 0
-17304 17176 0
-17304 17084 0
17304 -17176 -17084 0
-17398 17077 0
-17398 17176 0
17398 -17077 -17176 0
-17308 17069 0
-17308 16522 0
17308 -17069 -16522 0
-17333 17198 0
-17333 16525 0
17333 -17198 -16525 0
-17299 17198 0
-17299 17183 0
17299 -17198 -17183 0
-17345 17207 0
-17345 16531 0
17345 -17207 -16531 0
-17385 17093 0
-17385 17205 0
17385 -17093 -17205 0
-17393 17205 0
-17393 17105 0
17393 -17205 -17105 0
-17378 17217 0
-17378 17183 0
17378 -17217 -17183 0
-17262 16879 0
-17262 16811 0
17262 -16879 -16811 0
-17297 16891 0
-17297 16546 0
17297 -16891 -16546 0
-17309 16548 0
-17309 17270 0
17309 -16548 -17270 0
-17347 17251 0
-17347 17244 0
17347 -17251 -17244 0
-17382 17243 0
-17382 17251 0
17382 -17243 -17251 0
-17320 16557 0
-17320 16558 0
17320 -16557 -16558 0
-17323 16560 0
-17323 16561 0
17323 -16560 -16561 0
-17326 16563 0
-17326 17150 0
17326 -16563 -17150 0
-17328 17339 0
-17328 16569 0
17328 -17339 -16569 0
-17372 16569 0
-17372 17006 0
17372 -16569 -17006 0
-17334 17434 0
-17334 17146 0
17334 -17434 -17146 0
-17336 17257 0
-17336 17013 0
-17336 16977 0
17336 -17257 -17013 -16977 0
-17361 17263 0
-17361 17144 0
17361 -17263 -17144 0
-17365 16582 0
-17365 17263 0
17365 -16582 -17263 0
-17384 16778 0
-17384 17266 0
17384 -16778 -17266 0
-17371 16588 0
-17371 17144 0
17371 -16588 -17144 0
-17358 16686 0
-17358 16925 0
17358 -16686 -16925 0
-17388 17141 0
-17388 16595 0
17388 -17141 -16595 0
16895 -16977 0
16895 -17287 0
16895 -16829 0
-16895 16977 17287 16829 0
16808 -17287 0
16808 -17051 0
-16808 17287 17051 0
16952 -16970 0
16952 -17078 0
-16952 16970 17078 0
16975 -16825 0
16975 -17290 0
-16975 16825 17290 0
16874 -17289 0
16874 -17146 0
-16874 17289 17146 0
16877 -17162 0
16877 -17134 0
-16877 17162 17134 0
16880 -17087 0
16880 -17134 0
-16880 17087 17134 0
16883 -17287 0
16883 -16620 0
-16883 17287 16620 0
16886 -17239 0
16886 -17150 0
-16886 17239 17150 0
16889 -17175 0
16889 -17153 0
-16889 17175 17153 0
16892 -16628 0
16892 -16629 0
-16892 16628 16629 0
16896 -16631 0
16896 -17289 0
-16896 16631 17289 0
16901 -17050 0
16901 -16635 0
-16901 17050 16635 0
16904 -17084 0
16904 -17167 0
-16904 17084 17167 0
17002 -17126 0
17002 -17225 0
-17002 17126 17225 0
16949 -17185 0
16949 -17239 0
16949 -17228 0
-16949 17185 17239 17228 0
17039 -16647 0
17039 -16648 0
-17039 16647 16648 0
16955 -17233 0
16955 -17206 0
-16955 17233 17206 0
16980 -17006 0
16980 -16962 0
-16980 17006 16962 0
16961 -16656 0
16961 -17126 0
-16961 16656 17126 0
16965 -17255 0
16965 -16719 0
-16965 17255 16719 0
17025 -17255 0
17025 -17006 0
-17025 17255 17006 0
17008 -16903 0
17008 -17259 0
-17008 16903 17259 0
16985 -17275 0
16985 -16796 0
-16985 17275 16796 0
16979 -16689 0
16979 -17278 0
-16979 16689 17278 0
16982 -16824 0
16982 -17283 0
-16982 16824 17283 0
17032 -16859 0
17032 -16678 0
-17032 16859 16678 0
17024 -17209 0
17024 -16681 0
-17024 17209 16681 0
16988 -17315 0
16988 -17242 0
-16988 17315 17242 0
17033 -16686 0
17033 -17108 0
-17033 16686 17108 0
17036 -16689 0
17036 -17341 0
-17036 16689 17341 0
16995 -17322 0
16995 -17307 0
-16995 17322 17307 0
16998 -17318 0
16998 -16696 0
-16998 17318 16696 0
17001 -16698 0
17001 -17221 0
-17001 16698 17221 0
17005 -17353 0
17005 -17254 0
-17005 17353 17254 0
17012 -16704 0
17012 -17285 0
-17012 16704 17285 0
17042 -16707 0
17042 -16708 0
-17042 16707 16708 0
16946 17169 0
16946 17077 0
-16946 -17169 -17077 0
16840 17079 0
16840 17224 0
-16840 -17079 -17224 0
17156 16755 0
17156 16794 0
-17156 -16755 -16794 0
16718 16719 0
16718 17185 0
-16718 -16719 -17185 0
17340 17079 0
17340 17166 0
-17340 -17079 -17166 0
17249 17175 0
17249 17048 0
-17249 -17175 -17048 0
17207 17185 0
17207 16836 0
-17207 -17185 -16836 0
16730 17083 0
16730 16836 0
-16730 -17083 -16836 0
17227 16836 0
17227 17050 0
-17227 -16836 -17050 0
17158 17136 0
17158 16738 0
-17158 -17136 -16738 0
17322 17136 0
17322 17050 0
-17322 -17136 -17050 0
17204 17089 0
17204 17287 0
-17204 -17089 -17287 0
17253 17089 0
17253 17136 0
-17253 -17089 -17136 0
16748 17092 0
16748 16755 0
-16748 -17092 -16755 0
16751 17140 0
16751 17296 0
-16751 -17140 -17296 0
17312 16755 0
17312 16855 0
-17312 -16755 -16855 0
16757 17051 0
16757 16946 0
-16757 -17051 -16946 0
17155 17100 0
17155 17092 0
-17155 -17100 -17092 0
16763 17100 0
16763 17079 0
-16763 -17100 -17079 0
16766 17100 0
16766 16855 0
-16766 -17100 -16855 0
17269 17296 0
17269 17100 0
-17269 -17296 -17100 0
17159 17162 0
17159 17319 0
-17159 -17162 -17319 0
16775 17126 0
16775 16977 0
-16775 -17126 -16977 0
16778 17282 0
16778 16977 0
-16778 -17282 -16977 0
16781 16836 0
16781 16840 0
-16781 -16836 -16840 0
16784 17146 0
16784 16840 0
-16784 -17146 -16840 0
17165 17210 0
17165 17069 0
-17165 -17210 -17069 0
16825 17270 0
16825 16855 0
-16825 -17270 -16855 0
17289 16794 0
17289 17270 0
-17289 -16794 -17270 0
16796 17339 0
16796 17290 0
16796 17075 0
16796 16977 0
-16796 -17339 -17290 -17075 -16977 0
16875 17078 0
16875 17146 0
-16875 -17078 -17146 0
16804 17156 0
16804 17207 0
-16804 -17156 -17207 0
16807 16808 0
16807 17140 0
16807 17156 0
-16807 -16808 -17140 -17156 0
16811 17087 0
16811 17158 0
-16811 -17087 -17158 0
16814 17166 0
16814 17090 0
16814 17146 0
-16814 -17166 -17090 -17146 0
17174 17093 0
17174 17319 0
-17174 -17093 -17319 0
16821 17155 0
16821 17287 0
-16821 -17155 -17287 0
16824 16825 0
16824 17339 0
16824 17156 0
-16824 -16825 -17339 -17156 0
17013 16829 0
17013 17289 0
-17013 -16829 -17289 0
16831 17117 0
16831 17162 0
-16831 -17117 -17162 0
17203 17128 0
17203 16836 0
-17203 -17128 -16836 0
17017 17126 0
17017 17128 0
17017 16840 0
-17017 -17126 -17128 -16840 0
17206 16999 0
17206 16843 0
-17206 -16999 -16843 0
17209 16999 0
17209 17239 0
-17209 -16999 -17239 0
17219 17105 0
17219 16999 0
-17219 -17105 -16999 0
17221 16999 0
17221 17060 0
-17221 -16999 -17060 0
17225 17141 0
17225 16855 0
-17225 -17141 -16855 0
17228 16857 0
17228 17162 0
-17228 -16857 -17162 0
16859 17150 0
16859 17140 0
16859 17141 0
-16859 -17150 -17140 -17141 0
16983 17120 0
16983 17136 0
16983 17153 0
-16983 -17120 -17136 -17153 0
17233 17161 0
17233 17319 0
-17233 -17161 -17319 0
17240 16999 0
17240 17161 0
-17240 -16999 -17161 0
16873 16874 0
16873 16875 0
-16873 -16874 -16875 0
17003 16877 0
17003 17048 0
-17003 -16877 -17048 0
16879 16880 0
16879 17210 0
-16879 -16880 -17210 0
16882 16883 0
16882 17140 0
-16882 -16883 -17140 0
17252 16886 0
17252 17050 0
-17252 -16886 -17050 0
16963 16889 0
16963 17120 0
-16963 -16889 -17120 0
16891 16892 0
16891 17339 0
-16891 -16892 -17339 0
16894 16895 0
16894 16896 0
-16894 -16895 -16896 0
16897 17233 0
16897 17165 0
-16897 -17233 -17165 0
16900 16901 0
16900 17173 0
-16900 -16901 -17173 0
16903 16904 0
16903 17140 0
-16903 -16904 -17140 0
16958 17089 0
16958 17185 0
16958 17198 0
-16958 -17089 -17185 -17198 0
17255 17060 0
17255 17208 0
-17255 -17060 -17208 0
17044 17287 0
17044 17208 0
17044 17270 0
-17044 -17287 -17208 -17270 0
16992 17084 0
16992 17089 0
16992 17217 0
-16992 -17084 -17089 -17217 0
17259 17220 0
17259 17092 0
17259 17078 0
-17259 -17220 -17092 -17078 0
16925 16970 0
16925 17220 0
16925 17150 0
-16925 -16970 -17220 -17150 0
17022 17202 0
17022 17400 0
17022 17163 0
-17022 -17202 -17400 -17163 0
17267 17226 0
17267 17092 0
-17267 -17226 -17092 0
17275 17226 0
17275 17100 0
17275 17079 0
-17275 -17226 -17100 -17079 0
17278 17100 0
17278 17226 0
17278 17090 0
-17278 -17100 -17226 -17090 0
17283 17185 0
17283 16946 0
17283 17226 0
-17283 -17185 -16946 -17226 0
16948 16949 0
16948 17003 0
-16948 -16949 -17003 0
17291 16952 0
17291 16953 0
-17291 -16952 -16953 0
16954 16955 0
16954 16983 0
-16954 -16955 -16983 0
17440 16958 0
17440 17255 0
-17440 -16958 -17255 0
17410 16961 0
17410 16962 0
17410 16963 0
-17410 -16961 -16962 -16963 0
17432 16965 0
17432 16966 0
-17432 -16965 -16966 0
16986 17266 0
16986 17357 0
16986 16970 0
-16986 -17266 -17357 -16970 0
16971 17274 0
16971 17146 0
-16971 -17274 -17146 0
16974 16975 0
16974 17274 0
16974 16977 0
-16974 -16975 -17274 -16977 0
17344 16979 0
17344 16980 0
-17344 -16979 -16980 0
17350 16982 0
17350 16983 0
-17350 -16982 -16983 0
17462 16985 0
17462 16986 0
-17462 -16985 -16986 0
17412 16988 0
17412 16989 0
17412 16990 0
-17412 -16988 -16989 -16990 0
17430 16992 0
17430 17332 0
-17430 -16992 -17332 0
17442 16995 0
17442 16996 0
-17442 -16995 -16996 0
17015 16998 0
17015 16999 0
-17015 -16998 -16999 0
17444 17001 0
17444 17002 0
17444 17003 0
-17444 -17001 -17002 -17003 0
17020 17005 0
17020 17006 0
-17020 -17005 -17006 0
17007 17008 0
17007 17019 0
17007 17362 0
-17007 -17008 -17019 -17362 0
17026 17012 0
17026 17013 0
-17026 -17012 -17013 0
17399 17015 0
17399 17016 0
17399 17017 0
-17399 -17015 -17016 -17017 0
17452 17019 0
17452 17020 0
17452 17359 0
17452 17022 0
-17452 -17019 -17020 -17359 -17022 0
17023 17024 0
17023 17025 0
17023 17026 0
-17023 -17024 -17025 -17026 0
17414 17028 0
17414 17298 0
17414 17383 0
-17414 -17028 -17298 -17383 0
17446 17032 0
17446 17033 0
17446 17034 0
-17446 -17032 -17033 -17034 0
17416 17036 0
17416 17392 0
-17416 -17036 -17392 0
17406 17039 0
17406 17397 0
-17406 -17039 -17397 0
17408 17042 0
17408 17043 0
17408 17044 0
-17408 -17042 -17043 -17044 0
-17083 -17296 0
-17083 -17146 0
17083 17296 17146 0
-17048 -17239 0
-17048 -17050 0
17048 17239 17050 0
-17051 -17146 0
-17051 -17319 0
17051 17146 17319 0
-17054 -17077 0
-17054 -17224 0
17054 17077 17224 0
-17162 -17287 0
-17162 -17210 0
17162 17287 17210 0
-17060 -17319 0
-17060 -17287 0
17060 17319 17287 0
-17458 -17169 0
-17458 -17182 0
17458 17169 17182 0
-17282 -17079 0
-17282 -17224 0
17282 17079 17224 0
-17069 -17287 0
-17069 -17079 0
17069 17287 17079 0
-17072 -17319 0
-17072 -17074 0
17072 17319 17074 0
-17075 -17185 0
-17075 -17077 0
17075 17185 17077 0
-17078 -17079 0
-17078 -17166 0
17078 17079 17166 0
-17081 -17319 0
-17081 -17083 0
17081 17319 17083 0
-17084 -17296 0
-17084 -17339 0
17084 17296 17339 0
-17087 -17287 0
-17087 -17089 0
17087 17287 17089 0
-17090 -17296 0
-17090 -17092 0
17090 17296 17092 0
-17093 -17287 0
-17093 -17140 0
17093 17287 17140 0
-17456 -17100 0
-17456 -17182 0
17456 17100 17182 0
-17099 -17100 0
-17099 -17140 0
17099 17100 17140 0
-17163 -17140 0
-17163 -17126 0
17163 17140 17126 0
-17105 -17126 0
-17105 -17210 0
17105 17126 17210 0
-17108 -17210 0
-17108 -17290 0
17108 17210 17290 0
-17111 -17270 0
-17111 -17210 0
17111 17270 17210 0
-17357 -17115 0
-17357 -17116 0
17357 17115 17116 0
-17117 -17249 0
-17117 -17319 0
17117 17249 17319 0
-17120 -17210 0
-17120 -17261 0
-17120 -17319 0
17120 17210 17261 17319 0
-17124 -17207 0
-17124 -17126 0
-17124 -17210 0
17124 17207 17126 17210 0
-17128 -17322 0
-17128 -17140 0
17128 17322 17140 0
-17131 -17287 0
-17131 -17133 0
17131 17287 17133 0
-17134 -17204 0
-17134 -17136 0
17134 17204 17136 0
-17137 -17138 0
-17137 -17204 0
-17137 -17140 0
17137 17138 17204 17140 0
-17141 -17227 0
-17141 -17253 0
17141 17227 17253 0
-17144 -17312 0
-17144 -17146 0
17144 17312 17146 0
-17147 -17148 0
-17147 -17210 0
17147 17148 17210 0
-17150 -17155 0
-17150 -17185 0
17150 17155 17185 0
-17153 -17287 0
-17153 -17155 0
-17153 -17156 0
17153 17287 17155 17156 0
-17428 -17158 0
-17428 -17159 0
-17428 -17261 0
17428 17158 17159 17261 0
-17161 -17162 0
-17161 -17163 0
17161 17162 17163 0
-17243 -17165 0
-17243 -17166 0
17243 17165 17166 0
-17167 -17289 0
-17167 -17169 0
17167 17289 17169 0
-17354 -17174 0
-17354 -17249 0
17354 17174 17249 0
-17173 -17174 0
-17173 -17175 0
17173 17174 17175 0
-17176 -17239 0
-17176 -17317 0
-17176 -17322 0
17176 17239 17317 17322 0
-17450 -17202 0
-17450 -17182 0
17450 17202 17182 0
-17183 -17202 0
-17183 -17185 0
17183 17202 17185 0
-17186 -17339 0
-17186 -17188 0
17186 17339 17188 0
-17244 -17313 0
-17244 -17289 0
17244 17313 17289 0
-17192 -17287 0
-17192 -17194 0
17192 17287 17194 0
-17195 -17249 0
-17195 -17197 0
17195 17249 17197 0
-17198 -17287 0
-17198 -17203 0
17198 17287 17203 0
-17343 -17202 0
-17343 -17203 0
-17343 -17204 0
17343 17202 17203 17204 0
-17205 -17206 0
-17205 -17207 0
17205 17206 17207 0
-17208 -17209 0
-17208 -17210 0
17208 17209 17210 0
-17376 -17219 0
-17376 -17213 0
17376 17219 17213 0
-17331 -17219 0
-17331 -17216 0
17331 17219 17216 0
-17217 -17239 0
-17217 -17219 0
17217 17239 17219 0
-17220 -17221 0
-17220 -17239 0
17220 17221 17239 0
-17400 -17224 0
-17400 -17225 0
17400 17224 17225 0
-17226 -17227 0
-17226 -17228 0
17226 17227 17228 0
-17229 -17239 0
-17229 -17231 0
17229 17239 17231 0
-17232 -17233 0
-17232 -17239 0
17232 17233 17239 0
-17235 -17240 0
-17235 -17237 0
17235 17240 17237 0
-17238 -17239 0
-17238 -17240 0
-17238 -17241 0
17238 17239 17240 17241 0
-17242 -17243 0
-17242 -17244 0
17242 17243 17244 0
-17426 -17249 0
-17426 -17247 0
17426 17249 17247 0
-17248 -17249 0
-17248 -17250 0
17248 17249 17250 0
-17251 -17252 0
-17251 -17253 0
17251 17252 17253 0
-17254 -17255 0
-17254 -17256 0
17254 17255 17256 0
-17257 -17269 0
-17257 -17259 0
17257 17269 17259 0
-17260 -17261 0
-17260 -17262 0
17260 17261 17262 0
-17263 -17267 0
-17263 -17296 0
17263 17267 17296 0
-17266 -17267 0
-17266 -17290 0
-17266 -17269 0
-17266 -17270 0
17266 17267 17290 17269 17270 0
-17374 -17275 0
-17374 -17273 0
17374 17275 17273 0
-17274 -17275 0
-17274 -17276 0
17274 17275 17276 0
-17369 -17278 0
-17369 -17279 0
17369 17278 17279 0
-17380 -17339 0
-17380 -17282 0
-17380 -17283 0
-17380 -17284 0
17380 17339 17282 17283 17284 0
-17285 -17291 0
-17285 -17287 0
17285 17291 17287 0
-17349 -17289 0
-17349 -17290 0
-17349 -17291 0
17349 17289 17290 17291 0
-17292 -17343 0
-17292 -17294 0
17292 17343 17294 0
-17295 -17296 0
-17295 -17297 0
17295 17296 17297 0
-17298 -17299 0
-17298 -17300 0
-17298 -17301 0
17298 17299 17300 17301 0
-17302 -17303 0
-17302 -17304 0
-17302 -17434 0
-17302 -17306 0
17302 17303 17304 17434 17306 0
-17307 -17308 0
-17307 -17309 0
17307 17308 17309 0
-17310 -17315 0
-17310 -17312 0
-17310 -17313 0
17310 17315 17312 17313 0
-17394 -17315 0
-17394 -17340 0
-17394 -17317 0
17394 17315 17340 17317 0
-17318 -17319 0
-17318 -17320 0
17318 17319 17320 0
-17353 -17322 0
-17353 -17323 0
17353 17322 17323 0
-17324 -17325 0
-17324 -17326 0
17324 17325 17326 0
-17327 -17328 0
-17327 -17434 0
-17327 -17426 0
-17327 -17331 0
17327 17328 17434 17426 17331 0
-17332 -17333 0
-17332 -17334 0
17332 17333 17334 0
-17335 -17336 0
-17335 -17390 0
17335 17336 17390 0
-17363 -17339 0
-17363 -17340 0
-17363 -17341 0
17363 17339 17340 17341 0
-17342 -17343 0
-17342 -17344 0
-17342 -17345 0
17342 17343 17344 17345 0
-17346 -17347 0
-17346 -17390 0
-17346 -17349 0
-17346 -17350 0
17346 17347 17390 17349 17350 0
-17351 -17352 0
-17351 -17353 0
-17351 -17354 0
-17351 -17434 0
17351 17352 17353 17354 17434 0
-17356 -17357 0
-17356 -17358 0
17356 17357 17358 0
-17359 -17363 0
-17359 -17361 0
17359 17363 17361 0
-17362 -17363 0
-17362 -17390 0
-17362 -17365 0
17362 17363 17390 17365 0
-17366 -17374 0
-17366 -17373 0
-17366 -17369 0
17366 17374 17373 17369 0
-17370 -17371 0
-17370 -17372 0
-17370 -17373 0
-17370 -17374 0
17370 17371 17372 17373 17374 0
-17375 -17376 0
-17375 -17377 0
-17375 -17378 0
17375 17376 17377 17378 0
-17379 -17380 0
-17379 -17381 0
-17379 -17382 0
17379 17380 17381 17382 0
-17383 -17384 0
-17383 -17385 0
-17383 -17386 0
17383 17384 17385 17386 0
-17387 -17388 0
-17387 -17389 0
-17387 -17390 0
-17387 -17391 0
17387 17388 17389 17390 17391 0
-17392 -17393 0
-17392 -17394 0
-17392 -17395 0
-17392 -17396 0
17392 17393 17394 17395 17396 0
-17397 -17398 0
-17397 -17399 0
-17397 -17400 0
-17397 -17434 0
17397 17398 17399 17400 17434 0
-17402 -17403 0
-17402 -17404 0
17402 17403 17404 0
-17406 18265 0
17406 -18265 0
-17408 18454 0
17408 -18454 0
-17410 18390 0
17410 -18390 0
-17412 18534 0
17412 -18534 0
-17414 18425 0
17414 -18425 0
-17416 18502 0
17416 -18502 0
-17418 17417 0
17418 -17417 0
-17420 17419 0
17420 -17419 0
-17422 17421 0
17422 -17421 0
-17424 17423 0
17424 -17423 0
-17426 17425 0
17426 -17425 0
-17428 17427 0
17428 -17427 0
-17430 17429 0
17430 -17429 0
-17432 17431 0
17432 -17431 0
-17434 17433 0
17434 -17433 0
-17436 17435 0
17436 -17435 0
-17438 17437 0
17438 -17437 0
-17440 17439 0
17440 -17439 0
-17442 17441 0
17442 -17441 0
-17444 17443 0
17444 -17443 0
-17446 17445 0
17446 -17445 0
-17448 17447 0
17448 -17447 0
-17450 17449 0
17450 -17449 0
-17452 17451 0
17452 -17451 0
-17454 17453 0
17454 -17453 0
-17456 17455 0
17456 -17455 0
-17458 17457 0
17458 -17457 0
-17460 17459 0
17460 -17459 0
-17462 17461 0
17462 -17461 0
18400 18511 0
-18400 -18511 0
18471 17466 0
-18471 -17466 0
17663 17666 0
-17663 -17666 0
17934 17666 0
-17934 -17666 0
18381 18439 0
-18381 -18439 0
17665 18361 0
-17665 -18361 0
18554 18361 0
-18554 -18361 0
18051 18454 0
-18051 -18454 0
18351 18390 0
-18351 -18390 0
18304 18534 0
-18304 -18534 0
18058 18221 0
-18058 -18221 0
18307 18292 0
-18307 -18292 0
18355 18425 0
-18355 -18425 0
18070 18009 0
-18070 -18009 0
18315 18384 0
-18315 -18384 0
18341 18502 0
-18341 -18502 0
18505 18044 0
-18505 -18044 0
18485 17970 0
-18485 -17970 0
18185 18192 0
-18185 -18192 0
18353 18289 0
-18353 -18289 0
18476 18263 0
-18476 -18263 0
17687 18269 0
-17687 -18269 0
18499 18055 0
-18499 -18055 0
17694 18287 0
-17694 -18287 0
18491 18290 0
-18491 -18290 0
17862 17933 0
-17862 -17933 0
17740 18296 0
-17740 -18296 0
18214 18537 0
-18214 -18537 0
18072 18468 0
-18072 -18468 0
17844 17963 0
-17844 -17963 0
18532 18308 0
-18532 -18308 0
17835 17972 0
-17835 -17972 0
18417 18370 0
-18417 -18370 0
17708 18314 0
-17708 -18314 0
17843 17981 0
-17843 -17981 0
17846 17990 0
-17846 -17990 0
18528 18320 0
-18528 -18320 0
17850 17996 0
-17850 -17996 0
17923 18326 0
-17923 -18326 0
17775 18339 0
-17775 -18339 0
17911 18022 0
-17911 -18022 0
17718 18346 0
-17718 -18346 0
17721 18352 0
-17721 -18352 0
17737 18362 0
-17737 -18362 0
17863 18643 0
-17863 -18643 0
17797 18039 0
-17797 -18039 0
18675 18046 0
-18675 -18046 0
17746 18232 0
-17746 -18232 0
18177 18569 0
-18177 -18569 0
18168 18074 0
-18168 -18074 0
18606 18198 0
-18606 -18198 0
17761 18401 0
-17761 -18401 0
17773 18407 0
-17773 -18407 0
17904 18088 0
-17904 -18088 0
17871 18410 0
-17871 -18410 0
17763 18097 0
-17763 -18097 0
18509 18178 0
-18509 -18178 0
17772 18444 0
-17772 -18444 0
17893 18109 0
-17893 -18109 0
17896 18112 0
-17896 -18112 0
17776 18447 0
-17776 -18447 0
18231 18450 0
-18231 -18450 0
18181 18453 0
-18181 -18453 0
17778 18457 0
-17778 -18457 0
18516 18115 0
-18516 -18115 0
17784 18173 0
-17784 -18173 0
18649 18470 0
-18649 -18470 0
18521 18207 0
-18521 -18207 0
18234 18463 0
-18234 -18463 0
18605 18237 0
-18605 -18237 0
17803 18493 0
-17803 -18493 0
18211 18163 0
-18211 -18163 0
18530 18466 0
-18530 -18466 0
18205 18169 0
-18205 -18169 0
17901 18472 0
-17901 -18472 0
18204 18475 0
-18204 -18475 0
18556 18478 0
-18556 -18478 0
18611 18507 0
-18611 -18507 0
17913 18510 0
-17913 -18510 0
18633 18517 0
-18633 -18517 0
18588 18201 0
-18588 -18201 0
17919 18186 0
-17919 -18186 0
18592 18189 0
-18592 -18189 0
18243 18525 0
-18243 -18525 0
17810 18539 0
-17810 -18539 0
18635 18542 0
-18635 -18542 0
18596 18550 0
-18596 -18550 0
18601 18557 0
-18601 -18557 0
18639 18561 0
-18639 -18561 0
18653 18566 0
-18653 -18566 0
17922 18571 0
-17922 -18571 0
18663 18581 0
-18663 -18581 0
18669 18585 0
-18669 -18585 0
18610 18590 0
-18610 -18590 0
18619 18594 0
-18619 -18594 0
18249 18222 0
-18249 -18222 0
18651 18602 0
-18651 -18602 0
18258 18238 0
-18258 -18238 0
18637 18617 0
-18637 -18617 0
-18330 18361 0
-18330 17663 0
18330 -18361 -17663 0
-18331 17665 0
-18331 17666 0
18331 -17665 -17666 0
-18348 18425 0
-18348 18304 0
18348 -18425 -18304 0
-18456 18511 0
-18456 18304 0
18456 -18511 -18304 0
-18363 18161 0
-18363 18361 0
-18363 18304 0
18363 -18161 -18361 -18304 0
-18540 18400 0
-18540 18377 0
18540 -18400 -18377 0
-18452 18304 0
-18452 18422 0
18452 -18304 -18422 0
-18431 18304 0
-18431 17945 0
18431 -18304 -17945 0
-18403 17687 0
-18403 17978 0
18403 -17687 -17978 0
-18409 17966 0
-18409 17999 0
18409 -17966 -17999 0
-18412 18425 0
-18412 17694 0
18412 -18425 -17694 0
-18515 18502 0
-18515 18332 0
18515 -18502 -18332 0
-18428 18304 0
-18428 18019 0
18428 -18304 -18019 0
-18488 18029 0
-18488 18011 0
18488 -18029 -18011 0
-18567 18332 0
-18567 18532 0
18567 -18332 -18532 0
-18446 17708 0
-18446 18036 0
18446 -17708 -18036 0
-18604 18643 0
-18604 18511 0
18604 -18643 -18511 0
-18494 18090 0
-18494 18039 0
18494 -18090 -18039 0
-18462 18419 0
-18462 17718 0
18462 -18419 -17718 0
-18465 18374 0
-18465 17721 0
18465 -18374 -17721 0
-18518 18265 0
-18518 18388 0
18518 -18265 -18388 0
-18618 18499 0
-18618 18263 0
-18618 18388 0
18618 -18499 -18263 -18388 0
-18519 18391 0
-18519 18299 0
18519 -18391 -18299 0
-18613 18292 0
-18613 18391 0
18613 -18292 -18391 0
-18523 18284 0
-18523 17737 0
18523 -18284 -17737 0
-18548 18413 0
-18548 17740 0
18548 -18413 -17740 0
-18514 18413 0
-18514 18398 0
18514 -18413 -18398 0
-18560 18422 0
-18560 17746 0
18560 -18422 -17746 0
-18600 18308 0
-18600 18420 0
18600 -18308 -18420 0
-18608 18420 0
-18608 18320 0
18608 -18420 -18320 0
-18593 18432 0
-18593 18398 0
18593 -18432 -18398 0
-18477 18094 0
-18477 18026 0
18477 -18094 -18026 0
-18512 18106 0
-18512 17761 0
18512 -18106 -17761 0
-18524 17763 0
-18524 18485 0
18524 -17763 -18485 0
-18562 18466 0
-18562 18459 0
18562 -18466 -18459 0
-18597 18458 0
-18597 18466 0
18597 -18458 -18466 0
-18535 17772 0
-18535 17773 0
18535 -17772 -17773 0
-18538 17775 0
-18538 17776 0
18538 -17775 -17776 0
-18541 17778 0
-18541 18365 0
18541 -17778 -18365 0
-18543 18554 0
-18543 17784 0
18543 -18554 -17784 0
-18587 17784 0
-18587 18221 0
18587 -17784 -18221 0
-18549 18649 0
-18549 18361 0
18549 -18649 -18361 0
-18551 18472 0
-18551 18228 0
-18551 18192 0
18551 -18472 -18228 -18192 0
-18576 18478 0
-18576 18359 0
18576 -18478 -18359 0
-18580 17797 0
-18580 18478 0
18580 -17797 -18478 0
-18599 17993 0
-18599 18481 0
18599 -17993 -18481 0
-18586 17803 0
-18586 18359 0
18586 -17803 -18359 0
-18573 17901 0
-18573 18140 0
18573 -17901 -18140 0
-18603 18356 0
-18603 17810 0
18603 -18356 -17810 0
18110 -18192 0
18110 -18502 0
18110 -18044 0
-18110 18192 18502 18044 0
18023 -18502 0
18023 -18266 0
-18023 18502 18266 0
18167 -18185 0
18167 -18293 0
-18167 18185 18293 0
18190 -18040 0
18190 -18505 0
-18190 18040 18505 0
18089 -18504 0
18089 -18361 0
-18089 18504 18361 0
18092 -18377 0
18092 -18349 0
-18092 18377 18349 0
18095 -18302 0
18095 -18349 0
-18095 18302 18349 0
18098 -18502 0
18098 -17835 0
-18098 18502 17835 0
18101 -18454 0
18101 -18365 0
-18101 18454 18365 0
18104 -18390 0
18104 -18368 0
-18104 18390 18368 0
18107 -17843 0
18107 -17844 0
-18107 17843 17844 0
18111 -17846 0
18111 -18504 0
-18111 17846 18504 0
18116 -18265 0
18116 -17850 0
-18116 18265 17850 0
18119 -18299 0
18119 -18382 0
-18119 18299 18382 0
18217 -18341 0
18217 -18440 0
-18217 18341 18440 0
18164 -18400 0
18164 -18454 0
18164 -18443 0
-18164 18400 18454 18443 0
18254 -17862 0
18254 -17863 0
-18254 17862 17863 0
18170 -18448 0
18170 -18421 0
-18170 18448 18421 0
18195 -18221 0
18195 -18177 0
-18195 18221 18177 0
18176 -17871 0
18176 -18341 0
-18176 17871 18341 0
18180 -18470 0
18180 -17934 0
-18180 18470 17934 0
18240 -18470 0
18240 -18221 0
-18240 18470 18221 0
18223 -18118 0
18223 -18474 0
-18223 18118 18474 0
18200 -18490 0
18200 -18011 0
-18200 18490 18011 0
18194 -17904 0
18194 -18493 0
-18194 17904 18493 0
18197 -18039 0
18197 -18498 0
-18197 18039 18498 0
18247 -18074 0
18247 -17893 0
-18247 18074 17893 0
18239 -18424 0
18239 -17896 0
-18239 18424 17896 0
18203 -18530 0
18203 -18457 0
-18203 18530 18457 0
18248 -17901 0
18248 -18323 0
-18248 17901 18323 0
18251 -17904 0
18251 -18556 0
-18251 17904 18556 0
18210 -18537 0
18210 -18522 0
-18210 18537 18522 0
18213 -18533 0
18213 -17911 0
-18213 18533 17911 0
18216 -17913 0
18216 -18436 0
-18216 17913 18436 0
18220 -18568 0
18220 -18469 0
-18220 18568 18469 0
18227 -17919 0
18227 -18500 0
-18227 17919 18500 0
18257 -17922 0
18257 -17923 0
-18257 17922 17923 0
18161 18384 0
18161 18292 0
-18161 -18384 -18292 0
18055 18294 0
18055 18439 0
-18055 -18294 -18439 0
18371 17970 0
18371 18009 0
-18371 -17970 -18009 0
17933 17934 0
17933 18400 0
-17933 -17934 -18400 0
18555 18294 0
18555 18381 0
-18555 -18294 -18381 0
18464 18390 0
18464 18263 0
-18464 -18390 -18263 0
18422 18400 0
18422 18051 0
-18422 -18400 -18051 0
17945 18298 0
17945 18051 0
-17945 -18298 -18051 0
18442 18051 0
18442 18265 0
-18442 -18051 -18265 0
18373 18351 0
18373 17953 0
-18373 -18351 -17953 0
18537 18351 0
18537 18265 0
-18537 -18351 -18265 0
18419 18304 0
18419 18502 0
-18419 -18304 -18502 0
18468 18304 0
18468 18351 0
-18468 -18304 -18351 0
17963 18307 0
17963 17970 0
-17963 -18307 -17970 0
17966 18355 0
17966 18511 0
-17966 -18355 -18511 0
18527 17970 0
18527 18070 0
-18527 -17970 -18070 0
17972 18266 0
17972 18161 0
-17972 -18266 -18161 0
18370 18315 0
18370 18307 0
-18370 -18315 -18307 0
17978 18315 0
17978 18294 0
-17978 -18315 -18294 0
17981 18315 0
17981 18070 0
-17981 -18315 -18070 0
18484 18511 0
18484 18315 0
-18484 -18511 -18315 0
18374 18377 0
18374 18534 0
-18374 -18377 -18534 0
17990 18341 0
17990 18192 0
-17990 -18341 -18192 0
17993 18497 0
17993 18192 0
-17993 -18497 -18192 0
17996 18051 0
17996 18055 0
-17996 -18051 -18055 0
17999 18361 0
17999 18055 0
-17999 -18361 -18055 0
18380 18425 0
18380 18284 0
-18380 -18425 -18284 0
18040 18485 0
18040 18070 0
-18040 -18485 -18070 0
18504 18009 0
18504 18485 0
-18504 -18009 -18485 0
18011 18554 0
18011 18505 0
18011 18290 0
18011 18192 0
-18011 -18554 -18505 -18290 -18192 0
18090 18293 0
18090 18361 0
-18090 -18293 -18361 0
18019 18371 0
18019 18422 0
-18019 -18371 -18422 0
18022 18023 0
18022 18355 0
18022 18371 0
-18022 -18023 -18355 -18371 0
18026 18302 0
18026 18373 0
-18026 -18302 -18373 0
18029 18381 0
18029 18305 0
18029 18361 0
-18029 -18381 -18305 -18361 0
18389 18308 0
18389 18534 0
-18389 -18308 -18534 0
18036 18370 0
18036 18502 0
-18036 -18370 -18502 0
18039 18040 0
18039 18554 0
18039 18371 0
-18039 -18040 -18554 -18371 0
18228 18044 0
18228 18504 0
-18228 -18044 -18504 0
18046 18332 0
18046 18377 0
-18046 -18332 -18377 0
18418 18343 0
18418 18051 0
-18418 -18343 -18051 0
18232 18341 0
18232 18343 0
18232 18055 0
-18232 -18341 -18343 -18055 0
18421 18214 0
18421 18058 0
-18421 -18214 -18058 0
18424 18214 0
18424 18454 0
-18424 -18214 -18454 0
18434 18320 0
18434 18214 0
-18434 -18320 -18214 0
18436 18214 0
18436 18275 0
-18436 -18214 -18275 0
18440 18356 0
18440 18070 0
-18440 -18356 -18070 0
18443 18072 0
18443 18377 0
-18443 -18072 -18377 0
18074 18365 0
18074 18355 0
18074 18356 0
-18074 -18365 -18355 -18356 0
18198 18335 0
18198 18351 0
18198 18368 0
-18198 -18335 -18351 -18368 0
18448 18376 0
18448 18534 0
-18448 -18376 -18534 0
18455 18214 0
18455 18376 0
-18455 -18214 -18376 0
18088 18089 0
18088 18090 0
-18088 -18089 -18090 0
18218 18092 0
18218 18263 0
-18218 -18092 -18263 0
18094 18095 0
18094 18425 0
-18094 -18095 -18425 0
18097 18098 0
18097 18355 0
-18097 -18098 -18355 0
18467 18101 0
18467 18265 0
-18467 -18101 -18265 0
18178 18104 0
18178 18335 0
-18178 -18104 -18335 0
18106 18107 0
18106 18554 0
-18106 -18107 -18554 0
18109 18110 0
18109 18111 0
-18109 -18110 -18111 0
18112 18448 0
18112 18380 0
-18112 -18448 -18380 0
18115 18116 0
18115 18388 0
-18115 -18116 -18388 0
18118 18119 0
18118 18355 0
-18118 -18119 -18355 0
18173 18304 0
18173 18400 0
18173 18413 0
-18173 -18304 -18400 -18413 0
18470 18275 0
18470 18423 0
-18470 -18275 -18423 0
18259 18502 0
18259 18423 0
18259 18485 0
-18259 -18502 -18423 -18485 0
18207 18299 0
18207 18304 0
18207 18432 0
-18207 -18299 -18304 -18432 0
18474 18435 0
18474 18307 0
18474 18293 0
-18474 -18435 -18307 -18293 0
18140 18185 0
18140 18435 0
18140 18365 0
-18140 -18185 -18435 -18365 0
18237 18417 0
18237 18615 0
18237 18378 0
-18237 -18417 -18615 -18378 0
18482 18441 0
18482 18307 0
-18482 -18441 -18307 0
18490 18441 0
18490 18315 0
18490 18294 0
-18490 -18441 -18315 -18294 0
18493 18315 0
18493 18441 0
18493 18305 0
-18493 -18315 -18441 -18305 0
18498 18400 0
18498 18161 0
18498 18441 0
-18498 -18400 -18161 -18441 0
18163 18164 0
18163 18218 0
-18163 -18164 -18218 0
18506 18167 0
18506 18168 0
-18506 -18167 -18168 0
18169 18170 0
18169 18198 0
-18169 -18170 -18198 0
18655 18173 0
18655 18470 0
-18655 -18173 -18470 0
18625 18176 0
18625 18177 0
18625 18178 0
-18625 -18176 -18177 -18178 0
18647 18180 0
18647 18181 0
-18647 -18180 -18181 0
18201 18481 0
18201 18572 0
18201 18185 0
-18201 -18481 -18572 -18185 0
18186 18489 0
18186 18361 0
-18186 -18489 -18361 0
18189 18190 0
18189 18489 0
18189 18192 0
-18189 -18190 -18489 -18192 0
18559 18194 0
18559 18195 0
-18559 -18194 -18195 0
18565 18197 0
18565 18198 0
-18565 -18197 -18198 0
18677 18200 0
18677 18201 0
-18677 -18200 -18201 0
18627 18203 0
18627 18204 0
18627 18205 0
-18627 -18203 -18204 -18205 0
18645 18207 0
18645 18547 0
-18645 -18207 -18547 0
18657 18210 0
18657 18211 0
-18657 -18210 -18211 0
18230 18213 0
18230 18214 0
-18230 -18213 -18214 0
18659 18216 0
18659 18217 0
18659 18218 0
-18659 -18216 -18217 -18218 0
18235 18220 0
18235 18221 0
-18235 -18220 -18221 0
18222 18223 0
18222 18234 0
18222 18577 0
-18222 -18223 -18234 -18577 0
18241 18227 0
18241 18228 0
-18241 -18227 -18228 0
18614 18230 0
18614 18231 0
18614 18232 0
-18614 -18230 -18231 -18232 0
18667 18234 0
18667 18235 0
18667 18574 0
18667 18237 0
-18667 -18234 -18235 -18574 -18237 0
18238 18239 0
18238 18240 0
18238 18241 0
-18238 -18239 -18240 -18241 0
18629 18243 0
18629 18513 0
18629 18598 0
-18629 -18243 -18513 -18598 0
18661 18247 0
18661 18248 0
18661 18249 0
-18661 -18247 -18248 -18249 0
18631 18251 0
18631 18607 0
-18631 -18251 -18607 0
18621 18254 0
18621 18612 0
-18621 -18254 -18612 0
18623 18257 0
18623 18258 0
18623 18259 0
-18623 -18257 -18258 -18259 0
-18298 -18511 0
-18298 -18361 0
18298 18511 18361 0
-18263 -18454 0
-18263 -18265 0
18263 18454 18265 0
-18266 -18361 0
-18266 -18534 0
18266 18361 18534 0
-18269 -18292 0
-18269 -18439 0
18269 18292 18439 0
-18377 -18502 0
-18377 -18425 0
18377 18502 18425 0
-18275 -18534 0
-18275 -18502 0
18275 18534 18502 0
-18673 -18384 0
-18673 -18397 0
18673 18384 18397 0
-18497 -18294 0
-18497 -18439 0
18497 18294 18439 0
-18284 -18502 0
-18284 -18294 0
18284 18502 18294 0
-18287 -18534 0
-18287 -18289 0
18287 18534 18289 0
-18290 -18400 0
-18290 -18292 0
18290 18400 18292 0
-18293 -18294 0
-18293 -18381 0
18293 18294 18381 0
-18296 -18534 0
-18296 -18298 0
18296 18534 18298 0
-18299 -18511 0
-18299 -18554 0
18299 18511 18554 0
-18302 -18502 0
-18302 -18304 0
18302 18502 18304 0
-18305 -18511 0
-18305 -18307 0
18305 18511 18307 0
-18308 -18502 0
-18308 -18355 0
18308 18502 18355 0
-18671 -18315 0
-18671 -18397 0
18671 18315 18397 0
-18314 -18315 0
-18314 -18355 0
18314 18315 18355 0
-18378 -18355 0
-18378 -18341 0
18378 18355 18341 0
-18320 -18341 0
-18320 -18425 0
18320 18341 18425 0
-18323 -18425 0
-18323 -18505 0
18323 18425 18505 0
-18326 -18485 0
-18326 -18425 0
18326 18485 18425 0
-18572 -18330 0
-18572 -18331 0
18572 18330 18331 0
-18332 -18464 0
-18332 -18534 0
18332 18464 18534 0
-18335 -18425 0
-18335 -18476 0
-18335 -18534 0
18335 18425 18476 18534 0
-18339 -18422 0
-18339 -18341 0
-18339 -18425 0
18339 18422 18341 18425 0
-18343 -18537 0
-18343 -18355 0
18343 18537 18355 0
-18346 -18502 0
-18346 -18348 0
18346 18502 18348 0
-18349 -18419 0
-18349 -18351 0
18349 18419 18351 0
-18352 -18353 0
-18352 -18419 0
-18352 -18355 0
18352 18353 18419 18355 0
-18356 -18442 0
-18356 -18468 0
18356 18442 18468 0
-18359 -18527 0
-18359 -18361 0
18359 18527 18361 0
-18362 -18363 0
-18362 -18425 0
18362 18363 18425 0
-18365 -18370 0
-18365 -18400 0
18365 18370 18400 0
-18368 -18502 0
-18368 -18370 0
-18368 -18371 0
18368 18502 18370 18371 0
-18643 -18373 0
-18643 -18374 0
-18643 -18476 0
18643 18373 18374 18476 0
-18376 -18377 0
-18376 -18378 0
18376 18377 18378 0
-18458 -18380 0
-18458 -18381 0
18458 18380 18381 0
-18382 -18504 0
-18382 -18384 0
18382 18504 18384 0
-18569 -18389 0
-18569 -18464 0
18569 18389 18464 0
-18388 -18389 0
-18388 -18390 0
18388 18389 18390 0
-18391 -18454 0
-18391 -18532 0
-18391 -18537 0
18391 18454 18532 18537 0
-18665 -18417 0
-18665 -18397 0
18665 18417 18397 0
-18398 -18417 0
-18398 -18400 0
18398 18417 18400 0
-18401 -18554 0
-18401 -18403 0
18401 18554 18403 0
-18459 -18528 0
-18459 -18504 0
18459 18528 18504 0
-18407 -18502 0
-18407 -18409 0
18407 18502 18409 0
-18410 -18464 0
-18410 -18412 0
18410 18464 18412 0
-18413 -18502 0
-18413 -18418 0
18413 18502 18418 0
-18558 -18417 0
-18558 -18418 0
-18558 -18419 0
18558 18417 18418 18419 0
-18420 -18421 0
-18420 -18422 0
18420 18421 18422 0
-18423 -18424 0
-18423 -18425 0
18423 18424 18425 0
-18591 -18434 0
-18591 -18428 0
18591 18434 18428 0
-18546 -18434 0
-18546 -18431 0
18546 18434 18431 0
-18432 -18454 0
-18432 -18434 0
18432 18454 18434 0
-18435 -18436 0
-18435 -18454 0
18435 18436 18454 0
-18615 -18439 0
-18615 -18440 0
18615 18439 18440 0
-18441 -18442 0
-18441 -18443 0
18441 18442 18443 0
-18444 -18454 0
-18444 -18446 0
18444 18454 18446 0
-18447 -18448 0
-18447 -18454 0
18447 18448 18454 0
-18450 -18455 0
-18450 -18452 0
18450 18455 18452 0
-18453 -18454 0
-18453 -18455 0
-18453 -18456 0
18453 18454 18455 18456 0
-18457 -18458 0
-18457 -18459 0
18457 18458 18459 0
-18641 -18464 0
-18641 -18462 0
18641 18464 18462 0
-18463 -18464 0
-18463 -18465 0
18463 18464 18465 0
-18466 -18467 0
-18466 -18468 0
18466 18467 18468 0
-18469 -18470 0
-18469 -18471 0
18469 18470 18471 0
-18472 -18484 0
-18472 -18474 0
18472 18484 18474 0
-18475 -18476 0
-18475 -18477 0
18475 18476 18477 0
-18478 -18482 0
-18478 -18511 0
18478 18482 18511 0
-18481 -18482 0
-18481 -18505 0
-18481 -18484 0
-18481 -18485 0
18481 18482 18505 18484 18485 0
-18589 -18490 0
-18589 -18488 0
18589 18490 18488 0
-18489 -18490 0
-18489 -18491 0
18489 18490 18491 0
-18584 -18493 0
-18584 -18494 0
18584 18493 18494 0
-18595 -18554 0
-18595 -18497 0
-18595 -18498 0
-18595 -18499 0
18595 18554 18497 18498 18499 0
-18500 -18506 0
-18500 -18502 0
18500 18506 18502 0
-18564 -18504 0
-18564 -18505 0
-18564 -18506 0
18564 18504 18505 18506 0
-18507 -18558 0
-18507 -18509 0
18507 18558 18509 0
-18510 -18511 0
-18510 -18512 0
18510 18511 18512 0
-18513 -18514 0
-18513 -18515 0
-18513 -18516 0
18513 18514 18515 18516 0
-18517 -18518 0
-18517 -18519 0
-18517 -18649 0
-18517 -18521 0
18517 18518 18519 18649 18521 0
-18522 -18523 0
-18522 -18524 0
18522 18523 18524 0
-18525 -18530 0
-18525 -18527 0
-18525 -18528 0
18525 18530 18527 18528 0
-18609 -18530 0
-18609 -18555 0
-18609 -18532 0
18609 18530 18555 18532 0
-18533 -18534 0
-18533 -18535 0
18533 18534 18535 0
-18568 -18537 0
-18568 -18538 0
18568 18537 18538 0
-18539 -18540 0
-18539 -18541 0
18539 18540 18541 0
-18542 -18543 0
-18542 -18649 0
-18542 -18641 0
-18542 -18546 0
18542 18543 18649 18641 18546 0
-18547 -18548 0
-18547 -18549 0
18547 18548 18549 0
-18550 -18551 0
-18550 -18605 0
18550 18551 18605 0
-18578 -18554 0
-18578 -18555 0
-18578 -18556 0
18578 18554 18555 18556 0
-18557 -18558 0
-18557 -18559 0
-18557 -18560 0
18557 18558 18559 18560 0
-18561 -18562 0
-18561 -18605 0
-18561 -18564 0
-18561 -18565 0
18561 18562 18605 18564 18565 0
-18566 -18567 0
-18566 -18568 0
-18566 -18569 0
-18566 -18649 0
18566 18567 18568 18569 18649 0
-18571 -18572 0
-18571 -18573 0
18571 18572 18573 0
-18574 -18578 0
-18574 -18576 0
18574 18578 18576 0
-18577 -18578 0
-18577 -18605 0
-18577 -18580 0
18577 18578 18605 18580 0
-18581 -18589 0
-18581 -18588 0
-18581 -18584 0
18581 18589 18588 18584 0
-18585 -18586 0
-18585 -18587 0
-18585 -18588 0
-18585 -18589 0
18585 18586 18587 18588 18589 0
-18590 -18591 0
-18590 -18592 0
-18590 -18593 0
18590 18591 18592 18593 0
-18594 -18595 0
-18594 -18596 0
-18594 -18597 0
18594 18595 18596 18597 0
-18598 -18599 0
-18598 -18600 0
-18598 -18601 0
18598 18599 18600 18601 0
-18602 -18603 0
-18602 -18604 0
-18602 -18605 0
-18602 -18606 0
18602 18603 18604 18605 18606 0
-18607 -18608 0
-18607 -18609 0
-18607 -18610 0
-18607 -18611 0
18607 18608 18609 18610 18611 0
-18612 -18613 0
-18612 -18614 0
-18612 -18615 0
-18612 -18649 0
18612 18613 18614 18615 18649 0
-18617 -18618 0
-18617 -18619 0
18617 18618 18619 0
-18621 19480 0
18621 -19480 0
-18623 19669 0
18623 -19669 0
-18625 19605 0
18625 -19605 0
-18627 19749 0
18627 -19749 0
-18629 19640 0
18629 -19640 0
-18631 19717 0
18631 -19717 0
-18633 18632 0
18633 -18632 0
-18635 18634 0
18635 -18634 0
-18637 18636 0
18637 -18636 0
-18639 18638 0
18639 -18638 0
-18641 18640 0
18641 -18640 0
-18643 18642 0
18643 -18642 0
-18645 18644 0
18645 -18644 0
-18647 18646 0
18647 -18646 0
-18649 18648 0
18649 -18648 0
-18651 18650 0
18651 -18650 0
-18653 18652 0
18653 -18652 0
-18655 18654 0
18655 -18654 0
-18657 18656 0
18657 -18656 0
-18659 18658 0
18659 -18658 0
-18661 18660 0
18661 -18660 0
-18663 18662 0
18663 -18662 0
-18665 18664 0
18665 -18664 0
-18667 18666 0
18667 -18666 0
-18669 18668 0
18669 -18668 0
-18671 18670 0
18671 -18670 0
-18673 18672 0
18673 -18672 0
-18675 18674 0
18675 -18674 0
-18677 18676 0
18677 -18676 0
19615 19726 0
-19615 -19726 0
19686 18681 0
-19686 -18681 0
18878 18881 0
-18878 -18881 0
19149 18881 0
-19149 -18881 0
19596 19654 0
-19596 -19654 0
18880 19576 0
-18880 -19576 0
19769 19576 0
-19769 -19576 0
19266 19669 0
-19266 -19669 0
19566 19605 0
-19566 -19605 0
19519 19749 0
-19519 -19749 0
19273 19436 0
-19273 -19436 0
19522 19507 0
-19522 -19507 0
19570 19640 0
-19570 -19640 0
19285 19224 0
-19285 -19224 0
19530 19599 0
-19530 -19599 0
19556 19717 0
-19556 -19717 0
19720 19259 0
-19720 -19259 0
19700 19185 0
-19700 -19185 0
19400 19407 0
-19400 -19407 0
19568 19504 0
-19568 -19504 0
19691 19478 0
-19691 -19478 0
18902 19484 0
-18902 -19484 0
19714 19270 0
-19714 -19270 0
18909 19502 0
-18909 -19502 0
19706 19505 0
-19706 -19505 0
19077 19148 0
-19077 -19148 0
18955 19511 0
-18955 -19511 0
19429 19752 0
-19429 -19752 0
19287 19683 0
-19287 -19683 0
19059 19178 0
-19059 -19178 0
19747 19523 0
-19747 -19523 0
19050 19187 0
-19050 -19187 0
19632 19585 0
-19632 -19585 0
18923 19529 0
-18923 -19529 0
19058 19196 0
-19058 -19196 0
19061 19205 0
-19061 -19205 0
19743 19535 0
-19743 -19535 0
19065 19211 0
-19065 -19211 0
19138 19541 0
-19138 -19541 0
18990 19554 0
-18990 -19554 0
19126 19237 0
-19126 -19237 0
18933 19561 0
-18933 -19561 0
18936 19567 0
-18936 -19567 0
18952 19577 0
-18952 -19577 0
19078 19858 0
-19078 -19858 0
19012 19254 0
-19012 -19254 0
19890 19261 0
-19890 -19261 0
18961 19447 0
-18961 -19447 0
19392 19784 0
-19392 -19784 0
19383 19289 0
-19383 -19289 0
19821 19413 0
-19821 -19413 0
18976 19616 0
-18976 -19616 0
18988 19622 0
-18988 -19622 0
19119 19303 0
-19119 -19303 0
19086 19625 0
-19086 -19625 0
18978 19312 0
-18978 -19312 0
19724 19393 0
-19724 -19393 0
18987 19659 0
-18987 -19659 0
19108 19324 0
-19108 -19324 0
19111 19327 0
-19111 -19327 0
18991 19662 0
-18991 -19662 0
19446 19665 0
-19446 -19665 0
19396 19668 0
-19396 -19668 0
18993 19672 0
-18993 -19672 0
19731 19330 0
-19731 -19330 0
18999 19388 0
-18999 -19388 0
19864 19685 0
-19864 -19685 0
19736 19422 0
-19736 -19422 0
19449 19678 0
-19449 -19678 0
19820 19452 0
-19820 -19452 0
19018 19708 0
-19018 -19708 0
19426 19378 0
-19426 -19378 0
19745 19681 0
-19745 -19681 0
19420 19384 0
-19420 -19384 0
19116 19687 0
-19116 -19687 0
19419 19690 0
-19419 -19690 0
19771 19693 0
-19771 -19693 0
19826 19722 0
-19826 -19722 0
19128 19725 0
-19128 -19725 0
19848 19732 0
-19848 -19732 0
19803 19416 0
-19803 -19416 0
19134 19401 0
-19134 -19401 0
19807 19404 0
-19807 -19404 0
19458 19740 0
-19458 -19740 0
19025 19754 0
-19025 -19754 0
19850 19757 0
-19850 -19757 0
19811 19765 0
-19811 -19765 0
19816 19772 0
-19816 -19772 0
19854 19776 0
-19854 -19776 0
19868 19781 0
-19868 -19781 0
19137 19786 0
-19137 -19786 0
19878 19796 0
-19878 -19796 0
19884 19800 0
-19884 -19800 0
19825 19805 0
-19825 -19805 0
19834 19809 0
-19834 -19809 0
19464 19437 0
-19464 -19437 0
19866 19817 0
-19866 -19817 0
19473 19453 0
-19473 -19453 0
19852 19832 0
-19852 -19832 0
-19545 19576 0
-19545 18878 0
19545 -19576 -18878 0
-19546 18880 0
-19546 18881 0
19546 -18880 -18881 0
-19563 19640 0
-19563 19519 0
19563 -19640 -19519 0
-19671 19726 0
-19671 19519 0
19671 -19726 -19519 0
-19578 19376 0
-19578 19576 0
-19578 19519 0
19578 -19376 -19576 -19519 0
-19755 19615 0
-19755 19592 0
19755 -19615 -19592 0
-19667 19519 0
-19667 19637 0
19667 -19519 -19637 0
-19646 19519 0
-19646 19160 0
19646 -19519 -19160 0
-19618 18902 0
-19618 19193 0
19618 -18902 -19193 0
-19624 19181 0
-19624 19214 0
19624 -19181 -19214 0
-19627 19640 0
-19627 18909 0
19627 -19640 -18909 0
-19730 19717 0
-19730 19547 0
19730 -19717 -19547 0
-19643 19519 0
-19643 19234 0
19643 -19519 -19234 0
-19703 19244 0
-19703 19226 0
19703 -19244 -19226 0
-19782 19547 0
-19782 19747 0
19782 -19547 -19747 0
-19661 18923 0
-19661 19251 0
19661 -18923 -19251 0
-19819 19858 0
-19819 19726 0
19819 -19858 -19726 0
-19709 19305 0
-19709 19254 0
19709 -19305 -19254 0
-19677 19634 0
-19677 18933 0
19677 -19634 -18933 0
-19680 19589 0
-19680 18936 0
19680 -19589 -18936 0
-19733 19480 0
-19733 19603 0
19733 -19480 -19603 0
-19833 19714 0
-19833 19478 0
-19833 19603 0
19833 -19714 -19478 -19603 0
-19734 19606 0
-19734 19514 0
19734 -19606 -19514 0
-19828 19507 0
-19828 19606 0
19828 -19507 -19606 0
-19738 19499 0
-19738 18952 0
19738 -19499 -18952 0
-19763 19628 0
-19763 18955 0
19763 -19628 -18955 0
-19729 19628 0
-19729 19613 0
19729 -19628 -19613 0
-19775 19637 0
-19775 18961 0
19775 -19637 -18961 0
-19815 19523 0
-19815 19635 0
19815 -19523 -19635 0
-19823 19635 0
-19823 19535 0
19823 -19635 -19535 0
-19808 19647 0
-19808 19613 0
19808 -19647 -19613 0
-19692 19309 0
-19692 19241 0
19692 -19309 -19241 0
-19727 19321 0
-19727 18976 0
19727 -19321 -18976 0
-19739 18978 0
-19739 19700 0
19739 -18978 -19700 0
-19777 19681 0
-19777 19674 0
19777 -19681 -19674 0
-19812 19673 0
-19812 19681 0
19812 -19673 -19681 0
-19750 18987 0
-19750 18988 0
19750 -18987 -18988 0
-19753 18990 0
-19753 18991 0
19753 -18990 -18991 0
-19756 18993 0
-19756 19580 0
19756 -18993 -19580 0
-19758 19769 0
-19758 18999 0
19758 -19769 -18999 0
-19802 18999 0
-19802 19436 0
19802 -18999 -19436 0
-19764 19864 0
-19764 19576 0
19764 -19864 -19576 0
-19766 19687 0
-19766 19443 0
-19766 19407 0
19766 -19687 -19443 -19407 0
-19791 19693 0
-19791 19574 0
19791 -19693 -19574 0
-19795 19012 0
-19795 19693 0
19795 -19012 -19693 0
-19814 19208 0
-19814 19696 0
19814 -19208 -19696 0
-19801 19018 0
-19801 19574 0
19801 -19018 -19574 0
-19788 19116 0
-19788 19355 0
19788 -19116 -19355 0
-19818 19571 0
-19818 19025 0
19818 -19571 -19025 0
19325 -19407 0
19325 -19717 0
19325 -19259 0
-19325 19407 19717 19259 0
19238 -19717 0
19238 -19481 0
-19238 19717 19481 0
19382 -19400 0
19382 -19508 0
-19382 19400 19508 0
19405 -19255 0
19405 -19720 0
-19405 19255 19720 0
19304 -19719 0
19304 -19576 0
-19304 19719 19576 0
19307 -19592 0
19307 -19564 0
-19307 19592 19564 0
19310 -19517 0
19310 -19564 0
-19310 19517 19564 0
19313 -19717 0
19313 -19050 0
-19313 19717 19050 0
19316 -19669 0
19316 -19580 0
-19316 19669 19580 0
19319 -19605 0
19319 -19583 0
-19319 19605 19583 0
19322 -19058 0
19322 -19059 0
-19322 19058 19059 0
19326 -19061 0
19326 -19719 0
-19326 19061 19719 0
19331 -19480 0
19331 -19065 0
-19331 19480 19065 0
19334 -19514 0
19334 -19597 0
-19334 19514 19597 0
19432 -19556 0
19432 -19655 0
-19432 19556 19655 0
19379 -19615 0
19379 -19669 0
19379 -19658 0
-19379 19615 19669 19658 0
19469 -19077 0
19469 -19078 0
-19469 19077 19078 0
19385 -19663 0
19385 -19636 0
-19385 19663 19636 0
19410 -19436 0
19410 -19392 0
-19410 19436 19392 0
19391 -19086 0
19391 -19556 0
-19391 19086 19556 0
19395 -19685 0
19395 -19149 0
-19395 19685 19149 0
19455 -19685 0
19455 -19436 0
-19455 19685 19436 0
19438 -19333 0
19438 -19689 0
-19438 19333 19689 0
19415 -19705 0
19415 -19226 0
-19415 19705 19226 0
19409 -19119 0
19409 -19708 0
-19409 19119 19708 0
19412 -19254 0
19412 -19713 0
-19412 19254 19713 0
19462 -19289 0
19462 -19108 0
-19462 19289 19108 0
19454 -19639 0
19454 -19111 0
-19454 19639 19111 0
19418 -19745 0
19418 -19672 0
-19418 19745 19672 0
19463 -19116 0
19463 -19538 0
-19463 19116 19538 0
19466 -19119 0
19466 -19771 0
-19466 19119 19771 0
19425 -19752 0
19425 -19737 0
-19425 19752 19737 0
19428 -19748 0
19428 -19126 0
-19428 19748 19126 0
19431 -19128 0
19431 -19651 0
-19431 19128 19651 0
19435 -19783 0
19435 -19684 0
-19435 19783 19684 0
19442 -19134 0
19442 -19715 0
-19442 19134 19715 0
19472 -19137 0
19472 -19138 0
-19472 19137 19138 0
19376 19599 0
19376 19507 0
-19376 -19599 -19507 0
19270 19509 0
19270 19654 0
-19270 -19509 -19654 0
19586 19185 0
19586 19224 0
-19586 -19185 -19224 0
19148 19149 0
19148 19615 0
-19148 -19149 -19615 0
19770 19509 0
19770 19596 0
-19770 -19509 -19596 0
19679 19605 0
19679 19478 0
-19679 -19605 -19478 0
19637 19615 0
19637 19266 0
-19637 -19615 -19266 0
19160 19513 0
19160 19266 0
-19160 -19513 -19266 0
19657 19266 0
19657 19480 0
-19657 -19266 -19480 0
19588 19566 0
19588 19168 0
-19588 -19566 -19168 0
19752 19566 0
19752 19480 0
-19752 -19566 -19480 0
19634 19519 0
19634 19717 0
-19634 -19519 -19717 0
19683 19519 0
19683 19566 0
-19683 -19519 -19566 0
19178 19522 0
19178 19185 0
-19178 -19522 -19185 0
19181 19570 0
19181 19726 0
-19181 -19570 -19726 0
19742 19185 0
19742 19285 0
-19742 -19185 -19285 0
19187 19481 0
19187 19376 0
-19187 -19481 -19376 0
19585 19530 0
19585 19522 0
-19585 -19530 -19522 0
19193 19530 0
19193 19509 0
-19193 -19530 -19509 0
19196 19530 0
19196 19285 0
-19196 -19530 -19285 0
19699 19726 0
19699 19530 0
-19699 -19726 -19530 0
19589 19592 0
19589 19749 0
-19589 -19592 -19749 0
19205 19556 0
19205 19407 0
-19205 -19556 -19407 0
19208 19712 0
19208 19407 0
-19208 -19712 -19407 0
19211 19266 0
19211 19270 0
-19211 -19266 -19270 0
19214 19576 0
19214 19270 0
-19214 -19576 -19270 0
19595 19640 0
19595 19499 0
-19595 -19640 -19499 0
19255 19700 0
19255 19285 0
-19255 -19700 -19285 0
19719 19224 0
19719 19700 0
-19719 -19224 -19700 0
19226 19769 0
19226 19720 0
19226 19505 0
19226 19407 0
-19226 -19769 -19720 -19505 -19407 0
19305 19508 0
19305 19576 0
-19305 -19508 -19576 0
19234 19586 0
19234 19637 0
-19234 -19586 -19637 0
19237 19238 0
19237 19570 0
19237 19586 0
-19237 -19238 -19570 -19586 0
19241 19517 0
19241 19588 0
-19241 -19517 -19588 0
19244 19596 0
19244 19520 0
19244 19576 0
-19244 -19596 -19520 -19576 0
19604 19523 0
19604 19749 0
-19604 -19523 -19749 0
19251 19585 0
19251 19717 0
-19251 -19585 -19717 0
19254 19255 0
19254 19769 0
19254 19586 0
-19254 -19255 -19769 -19586 0
19443 19259 0
19443 19719 0
-19443 -19259 -19719 0
19261 19547 0
19261 19592 0
-19261 -19547 -19592 0
19633 19558 0
19633 19266 0
-19633 -19558 -19266 0
19447 19556 0
19447 19558 0
19447 19270 0
-19447 -19556 -19558 -19270 0
19636 19429 0
19636 19273 0
-19636 -19429 -19273 0
19639 19429 0
19639 19669 0
-19639 -19429 -19669 0
19649 19535 0
19649 19429 0
-19649 -19535 -19429 0
19651 19429 0
19651 19490 0
-19651 -19429 -19490 0
19655 19571 0
19655 19285 0
-19655 -19571 -19285 0
19658 19287 0
19658 19592 0
-19658 -19287 -19592 0
19289 19580 0
19289 19570 0
19289 19571 0
-19289 -19580 -19570 -19571 0
19413 19550 0
19413 19566 0
19413 19583 0
-19413 -19550 -19566 -19583 0
19663 19591 0
19663 19749 0
-19663 -19591 -19749 0
19670 19429 0
19670 19591 0
-19670 -19429 -19591 0
19303 19304 0
19303 19305 0
-19303 -19304 -19305 0
19433 19307 0
19433 19478 0
-19433 -19307 -19478 0
19309 19310 0
19309 19640 0
-19309 -19310 -19640 0
19312 19313 0
19312 19570 0
-19312 -19313 -19570 0
19682 19316 0
19682 19480 0
-19682 -19316 -19480 0
19393 19319 0
19393 19550 0
-19393 -19319 -19550 0
19321 19322 0
19321 19769 0
-19321 -19322 -19769 0
19324 19325 0
19324 19326 0
-19324 -19325 -19326 0
19327 19663 0
19327 19595 0
-19327 -19663 -19595 0
19330 19331 0
19330 19603 0
-19330 -19331 -19603 0
19333 19334 0
19333 19570 0
-19333 -19334 -19570 0
19388 19519 0
19388 19615 0
19388 19628 0
-19388 -19519 -19615 -19628 0
19685 19490 0
19685 19638 0
-19685 -19490 -19638 0
19474 19717 0
19474 19638 0
19474 19700 0
-19474 -19717 -19638 -19700 0
19422 19514 0
19422 19519 0
19422 19647 0
-19422 -19514 -19519 -19647 0
19689 19650 0
19689 19522 0
19689 19508 0
-19689 -19650 -19522 -19508 0
19355 19400 0
19355 19650 0
19355 19580 0
-19355 -19400 -19650 -19580 0
19452 19632 0
19452 19830 0
19452 19593 0
-19452 -19632 -19830 -19593 0
19697 19656 0
19697 19522 0
-19697 -19656 -19522 0
19705 19656 0
19705 19530 0
19705 19509 0
-19705 -19656 -19530 -19509 0
19708 19530 0
19708 19656 0
19708 19520 0
-19708 -19530 -19656 -19520 0
19713 19615 0
19713 19376 0
19713 19656 0
-19713 -19615 -19376 -19656 0
19378 19379 0
19378 19433 0
-19378 -19379 -19433 0
19721 19382 0
19721 19383 0
-19721 -19382 -19383 0
19384 19385 0
19384 19413 0
-19384 -19385 -19413 0
19870 19388 0
19870 19685 0
-19870 -19388 -19685 0
19840 19391 0
19840 19392 0
19840 19393 0
-19840 -19391 -19392 -19393 0
19862 19395 0
19862 19396 0
-19862 -19395 -19396 0
19416 19696 0
19416 19787 0
19416 19400 0
-19416 -19696 -19787 -19400 0
19401 19704 0
19401 19576 0
-19401 -19704 -19576 0
19404 19405 0
19404 19704 0
19404 19407 0
-19404 -19405 -19704 -19407 0
19774 19409 0
19774 19410 0
-19774 -19409 -19410 0
19780 19412 0
19780 19413 0
-19780 -19412 -19413 0
19892 19415 0
19892 19416 0
-19892 -19415 -19416 0
19842 19418 0
19842 19419 0
19842 19420 0
-19842 -19418 -19419 -19420 0
19860 19422 0
19860 19762 0
-19860 -19422 -19762 0
19872 19425 0
19872 19426 0
-19872 -19425 -19426 0
19445 19428 0
19445 19429 0
-19445 -19428 -19429 0
19874 19431 0
19874 19432 0
19874 19433 0
-19874 -19431 -19432 -19433 0
19450 19435 0
19450 19436 0
-19450 -19435 -19436 0
19437 19438 0
19437 19449 0
19437 19792 0
-19437 -19438 -19449 -19792 0
19456 19442 0
19456 19443 0
-19456 -19442 -19443 0
19829 19445 0
19829 19446 0
19829 19447 0
-19829 -19445 -19446 -19447 0
19882 19449 0
19882 19450 0
19882 19789 0
19882 19452 0
-19882 -19449 -19450 -19789 -19452 0
19453 19454 0
19453 19455 0
19453 19456 0
-19453 -19454 -19455 -19456 0
19844 19458 0
19844 19728 0
19844 19813 0
-19844 -19458 -19728 -19813 0
19876 19462 0
19876 19463 0
19876 19464 0
-19876 -19462 -19463 -19464 0
19846 19466 0
19846 19822 0
-19846 -19466 -19822 0
19836 19469 0
19836 19827 0
-19836 -19469 -19827 0
19838 19472 0
19838 19473 0
19838 19474 0
-19838 -19472 -19473 -19474 0
-19513 -19726 0
-19513 -19576 0
19513 19726 19576 0
-19478 -19669 0
-19478 -19480 0
19478 19669 19480 0
-19481 -19576 0
-19481 -19749 0
19481 19576 19749 0
-19484 -19507 0
-19484 -19654 0
19484 19507 19654 0
-19592 -19717 0
-19592 -19640 0
19592 19717 19640 0
-19490 -19749 0
-19490 -19717 0
19490 19749 19717 0
-19888 -19599 0
-19888 -19612 0
19888 19599 19612 0
-19712 -19509 0
-19712 -19654 0
19712 19509 19654 0
-19499 -19717 0
-19499 -19509 0
19499 19717 19509 0
-19502 -19749 0
-19502 -19504 0
19502 19749 19504 0
-19505 -19615 0
-19505 -19507 0
19505 19615 19507 0
-19508 -19509 0
-19508 -19596 0
19508 19509 19596 0
-19511 -19749 0
-19511 -19513 0
19511 19749 19513 0
-19514 -19726 0
-19514 -19769 0
19514 19726 19769 0
-19517 -19717 0
-19517 -19519 0
19517 19717 19519 0
-19520 -19726 0
-19520 -19522 0
19520 19726 19522 0
-19523 -19717 0
-19523 -19570 0
19523 19717 19570 0
-19886 -19530 0
-19886 -19612 0
19886 19530 19612 0
-19529 -19530 0
-19529 -19570 0
19529 19530 19570 0
-19593 -19570 0
-19593 -19556 0
19593 19570 19556 0
-19535 -19556 0
-19535 -19640 0
19535 19556 19640 0
-19538 -19640 0
-19538 -19720 0
19538 19640 19720 0
-19541 -19700 0
-19541 -19640 0
19541 19700 19640 0
-19787 -19545 0
-19787 -19546 0
19787 19545 19546 0
-19547 -19679 0
-19547 -19749 0
19547 19679 19749 0
-19550 -19640 0
-19550 -19691 0
-19550 -19749 0
19550 19640 19691 19749 0
-19554 -19637 0
-19554 -19556 0
-19554 -19640 0
19554 19637 19556 19640 0
-19558 -19752 0
-19558 -19570 0
19558 19752 19570 0
-19561 -19717 0
-19561 -19563 0
19561 19717 19563 0
-19564 -19634 0
-19564 -19566 0
19564 19634 19566 0
-19567 -19568 0
-19567 -19634 0
-19567 -19570 0
19567 19568 19634 19570 0
-19571 -19657 0
-19571 -19683 0
19571 19657 19683 0
-19574 -19742 0
-19574 -19576 0
19574 19742 19576 0
-19577 -19578 0
-19577 -19640 0
19577 19578 19640 0
-19580 -19585 0
-19580 -19615 0
19580 19585 19615 0
-19583 -19717 0
-19583 -19585 0
-19583 -19586 0
19583 19717 19585 19586 0
-19858 -19588 0
-19858 -19589 0
-19858 -19691 0
19858 19588 19589 19691 0
-19591 -19592 0
-19591 -19593 0
19591 19592 19593 0
-19673 -19595 0
-19673 -19596 0
19673 19595 19596 0
-19597 -19719 0
-19597 -19599 0
19597 19719 19599 0
-19784 -19604 0
-19784 -19679 0
19784 19604 19679 0
-19603 -19604 0
-19603 -19605 0
19603 19604 19605 0
-19606 -19669 0
-19606 -19747 0
-19606 -19752 0
19606 19669 19747 19752 0
-19880 -19632 0
-19880 -19612 0
19880 19632 19612 0
-19613 -19632 0
-19613 -19615 0
19613 19632 19615 0
-19616 -19769 0
-19616 -19618 0
19616 19769 19618 0
-19674 -19743 0
-19674 -19719 0
19674 19743 19719 0
-19622 -19717 0
-19622 -19624 0
19622 19717 19624 0
-19625 -19679 0
-19625 -19627 0
19625 19679 19627 0
-19628 -19717 0
-19628 -19633 0
19628 19717 19633 0
-19773 -19632 0
-19773 -19633 0
-19773 -19634 0
19773 19632 19633 19634 0
-19635 -19636 0
-19635 -19637 0
19635 19636 19637 0
-19638 -19639 0
-19638 -19640 0
19638 19639 19640 0
-19806 -19649 0
-19806 -19643 0
19806 19649 19643 0
-19761 -19649 0
-19761 -19646 0
19761 19649 19646 0
-19647 -19669 0
-19647 -19649 0
19647 19669 19649 0
-19650 -19651 0
-19650 -19669 0
19650 19651 19669 0
-19830 -19654 0
-19830 -19655 0
19830 19654 19655 0
-19656 -19657 0
-19656 -19658 0
19656 19657 19658 0
-19659 -19669 0
-19659 -19661 0
19659 19669 19661 0
-19662 -19663 0
-19662 -19669 0
19662 19663 19669 0
-19665 -19670 0
-19665 -19667 0
19665 19670 19667 0
-19668 -19669 0
-19668 -19670 0
-19668 -19671 0
19668 19669 19670 19671 0
-19672 -19673 0
-19672 -19674 0
19672 19673 19674 0
-19856 -19679 0
-19856 -19677 0
19856 19679 19677 0
-19678 -19679 0
-19678 -19680 0
19678 19679 19680 0
-19681 -19682 0
-19681 -19683 0
19681 19682 19683 0
-19684 -19685 0
-19684 -19686 0
19684 19685 19686 0
-19687 -19699 0
-19687 -19689 0
19687 19699 19689 0
-19690 -19691 0
-19690 -19692 0
19690 19691 19692 0
-19693 -19697 0
-19693 -19726 0
19693 19697 19726 0
-19696 -19697 0
-19696 -19720 0
-19696 -19699 0
-19696 -19700 0
19696 19697 19720 19699 19700 0
-19804 -19705 0
-19804 -19703 0
19804 19705 19703 0
-19704 -19705 0
-19704 -19706 0
19704 19705 19706 0
-19799 -19708 0
-19799 -19709 0
19799 19708 19709 0
-19810 -19769 0
-19810 -19712 0
-19810 -19713 0
-19810 -19714 0
19810 19769 19712 19713 19714 0
-19715 -19721 0
-19715 -19717 0
19715 19721 19717 0
-19779 -19719 0
-19779 -19720 0
-19779 -19721 0
19779 19719 19720 19721 0
-19722 -19773 0
-19722 -19724 0
19722 19773 19724 0
-19725 -19726 0
-19725 -19727 0
19725 19726 19727 0
-19728 -19729 0
-19728 -19730 0
-19728 -19731 0
19728 19729 19730 19731 0
-19732 -19733 0
-19732 -19734 0
-19732 -19864 0
-19732 -19736 0
19732 19733 19734 19864 19736 0
-19737 -19738 0
-19737 -19739 0
19737 19738 19739 0
-19740 -19745 0
-19740 -19742 0
-19740 -19743 0
19740 19745 19742 19743 0
-19824 -19745 0
-19824 -19770 0
-19824 -19747 0
19824 19745 19770 19747 0
-19748 -19749 0
-19748 -19750 0
19748 19749 19750 0
-19783 -19752 0
-19783 -19753 0
19783 19752 19753 0
-19754 -19755 0
-19754 -19756 0
19754 19755 19756 0
-19757 -19758 0
-19757 -19864 0
-19757 -19856 0
-19757 -19761 0
19757 19758 19864 19856 19761 0
-19762 -19763 0
-19762 -19764 0
19762 19763 19764 0
-19765 -19766 0
-19765 -19820 0
19765 19766 19820 0
-19793 -19769 0
-19793 -19770 0
-19793 -19771 0
19793 19769 19770 19771 0
-19772 -19773 0
-19772 -19774 0
-19772 -19775 0
19772 19773 19774 19775 0
-19776 -19777 0
-19776 -19820 0
-19776 -19779 0
-19776 -19780 0
19776 19777 19820 19779 19780 0
-19781 -19782 0
-19781 -19783 0
-19781 -19784 0
-19781 -19864 0
19781 19782 19783 19784 19864 0
-19786 -19787 0
-19786 -19788 0
19786 19787 19788 0
-19789 -19793 0
-19789 -19791 0
19789 19793 19791 0
-19792 -19793 0
-19792 -19820 0
-19792 -19795 0
19792 19793 19820 19795 0
-19796 -19804 0
-19796 -19803 0
-19796 -19799 0
19796 19804 19803 19799 0
-19800 -19801 0
-19800 -19802 0
-19800 -19803 0
-19800 -19804 0
19800 19801 19802 19803 19804 0
-19805 -19806 0
-19805 -19807 0
-19805 -19808 0
19805 19806 19807 19808 0
-19809 -19810 0
-19809 -19811 0
-19809 -19812 0
19809 19810 19811 19812 0
-19813 -19814 0
-19813 -19815 0
-19813 -19816 0
19813 19814 19815 19816 0
-19817 -19818 0
-19817 -19819 0
-19817 -19820 0
-19817 -19821 0
19817 19818 19819 19820 19821 0
-19822 -19823 0
-19822 -19824 0
-19822 -19825 0
-19822 -19826 0
19822 19823 19824 19825 19826 0
-19827 -19828 0
-19827 -19829 0
-19827 -19830 0
-19827 -19864 0
19827 19828 19829 19830 19864 0
-19832 -19833 0
-19832 -19834 0
19832 19833 19834 0
-19836 20695 0
19836 -20695 0
-19838 20884 0
19838 -20884 0
-19840 20820 0
19840 -20820 0
-19842 20964 0
19842 -20964 0
-19844 20855 0
19844 -20855 0
-19846 20932 0
19846 -20932 0
-19848 19847 0
19848 -19847 0
-19850 19849 0
19850 -19849 0
-19852 19851 0
19852 -19851 0
-19854 19853 0
19854 -19853 0
-19856 19855 0
19856 -19855 0
-19858 19857 0
19858 -19857 0
-19860 19859 0
19860 -19859 0
-19862 19861 0
19862 -19861 0
-19864 19863 0
19864 -19863 0
-19866 19865 0
19866 -19865 0
-19868 19867 0
19868 -19867 0
-19870 19869 0
19870 -19869 0
-19872 19871 0
19872 -19871 0
-19874 19873 0
19874 -19873 0
-19876 19875 0
19876 -19875 0
-19878 19877 0
19878 -19877 0
-19880 19879 0
19880 -19879 0
-19882 19881 0
19882 -19881 0
-19884 19883 0
19884 -19883 0
-19886 19885 0
19886 -19885 0
-19888 19887 0
19888 -19887 0
-19890 19889 0
19890 -19889 0
-19892 19891 0
19892 -19891 0
20830 20941 0
-20830 -20941 0
20901 19896 0
-20901 -19896 0
20093 20096 0
-20093 -20096 0
20364 20096 0
-20364 -20096 0
20811 20869 0
-20811 -20869 0
20095 20791 0
-20095 -20791 0
20984 20791 0
-20984 -20791 0
20481 20884 0
-20481 -20884 0
20781 20820 0
-20781 -20820 0
20734 20964 0
-20734 -20964 0
20488 20651 0
-20488 -20651 0
20737 20722 0
-20737 -20722 0
20785 20855 0
-20785 -20855 0
20500 20439 0
-20500 -20439 0
20745 20814 0
-20745 -20814 0
20771 20932 0
-20771 -20932 0
20935 20474 0
-20935 -20474 0
20915 20400 0
-20915 -20400 0
20615 20622 0
-20615 -20622 0
20783 20719 0
-20783 -20719 0
20906 20693 0
-20906 -20693 0
20117 20699 0
-20117 -20699 0
20929 20485 0
-20929 -20485 0
20124 20717 0
-20124 -20717 0
20921 20720 0
-20921 -20720 0
20292 20363 0
-20292 -20363 0
20170 20726 0
-20170 -20726 0
20644 20967 0
-20644 -20967 0
20502 20898 0
-20502 -20898 0
20274 20393 0
-20274 -20393 0
20962 20738 0
-20962 -20738 0
20265 20402 0
-20265 -20402 0
20847 20800 0
-20847 -20800 0
20138 20744 0
-20138 -20744 0
20273 20411 0
-20273 -20411 0
20276 20420 0
-20276 -20420 0
20958 20750 0
-20958 -20750 0
20280 20426 0
-20280 -20426 0
20353 20756 0
-20353 -20756 0
20205 20769 0
-20205 -20769 0
20341 20452 0
-20341 -20452 0
20148 20776 0
-20148 -20776 0
20151 20782 0
-20151 -20782 0
20167 20792 0
-20167 -20792 0
20293 21073 0
-20293 -21073 0
20227 20469 0
-20227 -20469 0
21105 20476 0
-21105 -20476 0
20176 20662 0
-20176 -20662 0
20607 20999 0
-20607 -20999 0
20598 20504 0
-20598 -20504 0
21036 20628 0
-21036 -20628 0
20191 20831 0
-20191 -20831 0
20203 20837 0
-20203 -20837 0
20334 20518 0
-20334 -20518 0
20301 20840 0
-20301 -20840 0
20193 20527 0
-20193 -20527 0
20939 20608 0
-20939 -20608 0
20202 20874 0
-20202 -20874 0
20323 20539 0
-20323 -20539 0
20326 20542 0
-20326 -20542 0
20206 20877 0
-20206 -20877 0
20661 20880 0
-20661 -20880 0
20611 20883 0
-20611 -20883 0
20208 20887 0
-20208 -20887 0
20946 20545 0
-20946 -20545 0
20214 20603 0
-20214 -20603 0
21079 20900 0
-21079 -20900 0
20951 20637 0
-20951 -20637 0
20664 20893 0
-20664 -20893 0
21035 20667 0
-21035 -20667 0
20233 20923 0
-20233 -20923 0
20641 20593 0
-20641 -20593 0
20960 20896 0
-20960 -20896 0
20635 20599 0
-20635 -20599 0
20331 20902 0
-20331 -20902 0
20634 20905 0
-20634 -20905 0
20986 20908 0
-20986 -20908 0
21041 20937 0
-21041 -20937 0
20343 20940 0
-20343 -20940 0
21063 20947 0
-21063 -20947 0
21018 20631 0
-21018 -20631 0
20349 20616 0
-20349 -20616 0
21022 20619 0
-21022 -20619 0
20673 20955 0
-20673 -20955 0
20240 20969 0
-20240 -20969 0
21065 20972 0
-21065 -20972 0
21026 20980 0
-21026 -20980 0
21031 20987 0
-21031 -20987 0
21069 20991 0
-21069 -20991 0
21083 20996 0
-21083 -20996 0
20352 21001 0
-20352 -21001 0
21093 21011 0
-21093 -21011 0
21099 21015 0
-21099 -21015 0
21040 21020 0
-21040 -21020 0
21049 21024 0
-21049 -21024 0
20679 20652 0
-20679 -20652 0
21081 21032 0
-21081 -21032 0
20688 20668 0
-20688 -20668 0
21067 21047 0
-21067 -21047 0
-20760 20791 0
-20760 20093 0
20760 -20791 -20093 0
-20761 20095 0
-20761 20096 0
20761 -20095 -20096 0
-20778 20855 0
-20778 20734 0
20778 -20855 -20734 0
-20886 20941 0
-20886 20734 0
20886 -20941 -20734 0
-20793 20591 0
-20793 20791 0
-20793 20734 0
20793 -20591 -20791 -20734 0
-20970 20830 0
-20970 20807 0
20970 -20830 -20807 0
-20882 20734 0
-20882 20852 0
20882 -20734 -20852 0
-20861 20734 0
-20861 20375 0
20861 -20734 -20375 0
-20833 20117 0
-20833 20408 0
20833 -20117 -20408 0
-20839 20396 0
-20839 20429 0
20839 -20396 -20429 0
-20842 20855 0
-20842 20124 0
20842 -20855 -20124 0
-20945 20932 0
-20945 20762 0
20945 -20932 -20762 0
-20858 20734 0
-20858 20449 0
20858 -20734 -20449 0
-20918 20459 0
-20918 20441 0
20918 -20459 -20441 0
-20997 20762 0
-20997 20962 0
20997 -20762 -20962 0
-20876 20138 0
-20876 20466 0
20876 -20138 -20466 0
-21034 21073 0
-21034 20941 0
21034 -21073 -20941 0
-20924 20520 0
-20924 20469 0
20924 -20520 -20469 0
-20892 20849 0
-20892 20148 0
20892 -20849 -20148 0
-20895 20804 0
-20895 20151 0
20895 -20804 -20151 0
-20948 20695 0
-20948 20818 0
20948 -20695 -20818 0
-21048 20929 0
-21048 20693 0
-21048 20818 0
21048 -20929 -20693 -20818 0
-20949 20821 0
-20949 20729 0
20949 -20821 -20729 0
-21043 20722 0
-21043 20821 0
21043 -20722 -20821 0
-20953 20714 0
-20953 20167 0
20953 -20714 -20167 0
-20978 20843 0
-20978 20170 0
20978 -20843 -20170 0
-20944 20843 0
-20944 20828 0
20944 -20843 -20828 0
-20990 20852 0
-20990 20176 0
20990 -20852 -20176 0
-21030 20738 0
-21030 20850 0
21030 -20738 -20850 0
-21038 20850 0
-21038 20750 0
21038 -20850 -20750 0
-21023 20862 0
-21023 20828 0
21023 -20862 -20828 0
-20907 20524 0
-20907 20456 0
20907 -20524 -20456 0
-20942 20536 0
-20942 20191 0
20942 -20536 -20191 0
-20954 20193 0
-20954 20915 0
20954 -20193 -20915 0
-20992 20896 0
-20992 20889 0
20992 -20896 -20889 0
-21027 20888 0
-21027 20896 0
21027 -20888 -20896 0
-20965 20202 0
-20965 20203 0
20965 -20202 -20203 0
-20968 20205 0
-20968 20206 0
20968 -20205 -20206 0
-20971 20208 0
-20971 20795 0
20971 -20208 -20795 0
-20973 20984 0
-20973 20214 0
20973 -20984 -20214 0
-21017 20214 0
-21017 20651 0
21017 -20214 -20651 0
-20979 21079 0
-20979 20791 0
20979 -21079 -20791 0
-20981 20902 0
-20981 20658 0
-20981 20622 0
20981 -20902 -20658 -20622 0
-21006 20908 0
-21006 20789 0
21006 -20908 -20789 0
-21010 20227 0
-21010 20908 0
21010 -20227 -20908 0
-21029 20423 0
-21029 20911 0
21029 -20423 -20911 0
-21016 20233 0
-21016 20789 0
21016 -20233 -20789 0
-21003 20331 0
-21003 20570 0
21003 -20331 -20570 0
-21033 20786 0
-21033 20240 0
21033 -20786 -20240 0
20540 -20622 0
20540 -20932 0
20540 -20474 0
-20540 20622 20932 20474 0
20453 -20932 0
20453 -20696 0
-20453 20932 20696 0
20597 -20615 0
20597 -20723 0
-20597 20615 20723 0
20620 -20470 0
20620 -20935 0
-20620 20470 20935 0
20519 -20934 0
20519 -20791 0
-20519 20934 20791 0
20522 -20807 0
20522 -20779 0
-20522 20807 20779 0
20525 -20732 0
20525 -20779 0
-20525 20732 20779 0
20528 -20932 0
20528 -20265 0
-20528 20932 20265 0
20531 -20884 0
20531 -20795 0
-20531 20884 20795 0
20534 -20820 0
20534 -20798 0
-20534 20820 20798 0
20537 -20273 0
20537 -20274 0
-20537 20273 20274 0
20541 -20276 0
20541 -20934 0
-20541 20276 20934 0
20546 -20695 0
20546 -20280 0
-20546 20695 20280 0
20549 -20729 0
20549 -20812 0
-20549 20729 20812 0
20647 -20771 0
20647 -20870 0
-20647 20771 20870 0
20594 -20830 0
20594 -20884 0
20594 -20873 0
-20594 20830 20884 20873 0
20684 -20292 0
20684 -20293 0
-20684 20292 20293 0
20600 -20878 0
20600 -20851 0
-20600 20878 20851 0
20625 -20651 0
20625 -20607 0
-20625 20651 20607 0
20606 -20301 0
20606 -20771 0
-20606 20301 20771 0
20610 -20900 0
20610 -20364 0
-20610 20900 20364 0
20670 -20900 0
20670 -20651 0
-20670 20900 20651 0
20653 -20548 0
20653 -20904 0
-20653 20548 20904 0
20630 -20920 0
20630 -20441 0
-20630 20920 20441 0
20624 -20334 0
20624 -20923 0
-20624 20334 20923 0
20627 -20469 0
20627 -20928 0
-20627 20469 20928 0
20677 -20504 0
20677 -20323 0
-20677 20504 20323 0
20669 -20854 0
20669 -20326 0
-20669 20854 20326 0
20633 -20960 0
20633 -20887 0
-20633 20960 20887 0
20678 -20331 0
20678 -20753 0
-20678 20331 20753 0
20681 -20334 0
20681 -20986 0
-20681 20334 20986 0
20640 -20967 0
20640 -20952 0
-20640 20967 20952 0
20643 -20963 0
20643 -20341 0
-20643 20963 20341 0
20646 -20343 0
20646 -20866 0
-20646 20343 20866 0
20650 -20998 0
20650 -20899 0
-20650 20998 20899 0
20657 -20349 0
20657 -20930 0
-20657 20349 20930 0
20687 -20352 0
20687 -20353 0
-20687 20352 20353 0
20591 20814 0
20591 20722 0
-20591 -20814 -20722 0
20485 20724 0
20485 20869 0
-20485 -20724 -20869 0
20801 20400 0
20801 20439 0
-20801 -20400 -20439 0
20363 20364 0
20363 20830 0
-20363 -20364 -20830 0
20985 20724 0
20985 20811 0
-20985 -20724 -20811 0
20894 20820 0
20894 20693 0
-20894 -20820 -20693 0
20852 20830 0
20852 20481 0
-20852 -20830 -20481 0
20375 20728 0
20375 20481 0
-20375 -20728 -20481 0
20872 20481 0
20872 20695 0
-20872 -20481 -20695 0
20803 20781 0
20803 20383 0
-20803 -20781 -20383 0
20967 20781 0
20967 20695 0
-20967 -20781 -20695 0
20849 20734 0
20849 20932 0
-20849 -20734 -20932 0
20898 20734 0
20898 20781 0
-20898 -20734 -20781 0
20393 20737 0
20393 20400 0
-20393 -20737 -20400 0
20396 20785 0
20396 20941 0
-20396 -20785 -20941 0
20957 20400 0
20957 20500 0
-20957 -20400 -20500 0
20402 20696 0
20402 20591 0
-20402 -20696 -20591 0
20800 20745 0
20800 20737 0
-20800 -20745 -20737 0
20408 20745 0
20408 20724 0
-20408 -20745 -20724 0
20411 20745 0
20411 20500 0
-20411 -20745 -20500 0
20914 20941 0
20914 20745 0
-20914 -20941 -20745 0
20804 20807 0
20804 20964 0
-20804 -20807 -20964 0
20420 20771 0
20420 20622 0
-20420 -20771 -20622 0
20423 20927 0
20423 20622 0
-20423 -20927 -20622 0
20426 20481 0
20426 20485 0
-20426 -20481 -20485 0
20429 20791 0
20429 20485 0
-20429 -20791 -20485 0
20810 20855 0
20810 20714 0
-20810 -20855 -20714 0
20470 20915 0
20470 20500 0
-20470 -20915 -20500 0
20934 20439 0
20934 20915 0
-20934 -20439 -20915 0
20441 20984 0
20441 20935 0
20441 20720 0
20441 20622 0
-20441 -20984 -20935 -20720 -20622 0
20520 20723 0
20520 20791 0
-20520 -20723 -20791 0
20449 20801 0
20449 20852 0
-20449 -20801 -20852 0
20452 20453 0
20452 20785 0
20452 20801 0
-20452 -20453 -20785 -20801 0
20456 20732 0
20456 20803 0
-20456 -20732 -20803 0
20459 20811 0
20459 20735 0
20459 20791 0
-20459 -20811 -20735 -20791 0
20819 20738 0
20819 20964 0
-20819 -20738 -20964 0
20466 20800 0
20466 20932 0
-20466 -20800 -20932 0
20469 20470 0
20469 20984 0
20469 20801 0
-20469 -20470 -20984 -20801 0
20658 20474 0
20658 20934 0
-20658 -20474 -20934 0
20476 20762 0
20476 20807 0
-20476 -20762 -20807 0
20848 20773 0
20848 20481 0
-20848 -20773 -20481 0
20662 20771 0
20662 20773 0
20662 20485 0
-20662 -20771 -20773 -20485 0
20851 20644 0
20851 20488 0
-20851 -20644 -20488 0
20854 20644 0
20854 20884 0
-20854 -20644 -20884 0
20864 20750 0
20864 20644 0
-20864 -20750 -20644 0
20866 20644 0
20866 20705 0
-20866 -20644 -20705 0
20870 20786 0
20870 20500 0
-20870 -20786 -20500 0
20873 20502 0
20873 20807 0
-20873 -20502 -20807 0
20504 20795 0
20504 20785 0
20504 20786 0
-20504 -20795 -20785 -20786 0
20628 20765 0
20628 20781 0
20628 20798 0
-20628 -20765 -20781 -20798 0
20878 20806 0
20878 20964 0
-20878 -20806 -20964 0
20885 20644 0
20885 20806 0
-20885 -20644 -20806 0
20518 20519 0
20518 20520 0
-20518 -20519 -20520 0
20648 20522 0
20648 20693 0
-20648 -20522 -20693 0
20524 20525 0
20524 20855 0
-20524 -20525 -20855 0
20527 20528 0
20527 20785 0
-20527 -20528 -20785 0
20897 20531 0
20897 20695 0
-20897 -20531 -20695 0
20608 20534 0
20608 20765 0
-20608 -20534 -20765 0
20536 20537 0
20536 20984 0
-20536 -20537 -20984 0
20539 20540 0
20539 20541 0
-20539 -20540 -20541 0
20542 20878 0
20542 20810 0
-20542 -20878 -20810 0
20545 20546 0
20545 20818 0
-20545 -20546 -20818 0
20548 20549 0
20548 20785 0
-20548 -20549 -20785 0
20603 20734 0
20603 20830 0
20603 20843 0
-20603 -20734 -20830 -20843 0
20900 20705 0
20900 20853 0
-20900 -20705 -20853 0
20689 20932 0
20689 20853 0
20689 20915 0
-20689 -20932 -20853 -20915 0
20637 20729 0
20637 20734 0
20637 20862 0
-20637 -20729 -20734 -20862 0
20904 20865 0
20904 20737 0
20904 20723 0
-20904 -20865 -20737 -20723 0
20570 20615 0
20570 20865 0
20570 20795 0
-20570 -20615 -20865 -20795 0
20667 20847 0
20667 21045 0
20667 20808 0
-20667 -20847 -21045 -20808 0
20912 20871 0
20912 20737 0
-20912 -20871 -20737 0
20920 20871 0
20920 20745 0
20920 20724 0
-20920 -20871 -20745 -20724 0
20923 20745 0
20923 20871 0
20923 20735 0
-20923 -20745 -20871 -20735 0
20928 20830 0
20928 20591 0
20928 20871 0
-20928 -20830 -20591 -20871 0
20593 20594 0
20593 20648 0
-20593 -20594 -20648 0
20936 20597 0
20936 20598 0
-20936 -20597 -20598 0
20599 20600 0
20599 20628 0
-20599 -20600 -20628 0
21085 20603 0
21085 20900 0
-21085 -20603 -20900 0
21055 20606 0
21055 20607 0
21055 20608 0
-21055 -20606 -20607 -20608 0
21077 20610 0
21077 20611 0
-21077 -20610 -20611 0
20631 20911 0
20631 21002 0
20631 20615 0
-20631 -20911 -21002 -20615 0
20616 20919 0
20616 20791 0
-20616 -20919 -20791 0
20619 20620 0
20619 20919 0
20619 20622 0
-20619 -20620 -20919 -20622 0
20989 20624 0
20989 20625 0
-20989 -20624 -20625 0
20995 20627 0
20995 20628 0
-20995 -20627 -20628 0
21107 20630 0
21107 20631 0
-21107 -20630 -20631 0
21057 20633 0
21057 20634 0
21057 20635 0
-21057 -20633 -20634 -20635 0
21075 20637 0
21075 20977 0
-21075 -20637 -20977 0
21087 20640 0
21087 20641 0
-21087 -20640 -20641 0
20660 20643 0
20660 20644 0
-20660 -20643 -20644 0
21089 20646 0
21089 20647 0
21089 20648 0
-21089 -20646 -20647 -20648 0
20665 20650 0
20665 20651 0
-20665 -20650 -20651 0
20652 20653 0
20652 20664 0
20652 21007 0
-20652 -20653 -20664 -21007 0
20671 20657 0
20671 20658 0
-20671 -20657 -20658 0
21044 20660 0
21044 20661 0
21044 20662 0
-21044 -20660 -20661 -20662 0
21097 20664 0
21097 20665 0
21097 21004 0
21097 20667 0
-21097 -20664 -20665 -21004 -20667 0
20668 20669 0
20668 20670 0
20668 20671 0
-20668 -20669 -20670 -20671 0
21059 20673 0
21059 20943 0
21059 21028 0
-21059 -20673 -20943 -21028 0
21091 20677 0
21091 20678 0
21091 20679 0
-21091 -20677 -20678 -20679 0
21061 20681 0
21061 21037 0
-21061 -20681 -21037 0
21051 20684 0
21051 21042 0
-21051 -20684 -21042 0
21053 20687 0
21053 20688 0
21053 20689 0
-21053 -20687 -20688 -20689 0
-20728 -20941 0
-20728 -20791 0
20728 20941 20791 0
-20693 -20884 0
-20693 -20695 0
20693 20884 20695 0
-20696 -20791 0
-20696 -20964 0
20696 20791 20964 0
-20699 -20722 0
-20699 -20869 0
20699 20722 20869 0
-20807 -20932 0
-20807 -20855 0
20807 20932 20855 0
-20705 -20964 0
-20705 -20932 0
20705 20964 20932 0
-21103 -20814 0
-21103 -20827 0
21103 20814 20827 0
-20927 -20724 0
-20927 -20869 0
20927 20724 20869 0
-20714 -20932 0
-20714 -20724 0
20714 20932 20724 0
-20717 -20964 0
-20717 -20719 0
20717 20964 20719 0
-20720 -20830 0
-20720 -20722 0
20720 20830 20722 0
-20723 -20724 0
-20723 -20811 0
20723 20724 20811 0
-20726 -20964 0
-20726 -20728 0
20726 20964 20728 0
-20729 -20941 0
-20729 -20984 0
20729 20941 20984 0
-20732 -20932 0
-20732 -20734 0
20732 20932 20734 0
-20735 -20941 0
-20735 -20737 0
20735 20941 20737 0
-20738 -20932 0
-20738 -20785 0
20738 20932 20785 0
-21101 -20745 0
-21101 -20827 0
21101 20745 20827 0
-20744 -20745 0
-20744 -20785 0
20744 20745 20785 0
-20808 -20785 0
-20808 -20771 0
20808 20785 20771 0
-20750 -20771 0
-20750 -20855 0
20750 20771 20855 0
-20753 -20855 0
-20753 -20935 0
20753 20855 20935 0
-20756 -20915 0
-20756 -20855 0
20756 20915 20855 0
-21002 -20760 0
-21002 -20761 0
21002 20760 20761 0
-20762 -20894 0
-20762 -20964 0
20762 20894 20964 0
-20765 -20855 0
-20765 -20906 0
-20765 -20964 0
20765 20855 20906 20964 0
-20769 -20852 0
-20769 -20771 0
-20769 -20855 0
20769 20852 20771 20855 0
-20773 -20967 0
-20773 -20785 0
20773 20967 20785 0
-20776 -20932 0
-20776 -20778 0
20776 20932 20778 0
-20779 -20849 0
-20779 -20781 0
20779 20849 20781 0
-20782 -20783 0
-20782 -20849 0
-20782 -20785 0
20782 20783 20849 20785 0
-20786 -20872 0
-20786 -20898 0
20786 20872 20898 0
-20789 -20957 0
-20789 -20791 0
20789 20957 20791 0
-20792 -20793 0
-20792 -20855 0
20792 20793 20855 0
-20795 -20800 0
-20795 -20830 0
20795 20800 20830 0
-20798 -20932 0
-20798 -20800 0
-20798 -20801 0
20798 20932 20800 20801 0
-21073 -20803 0
-21073 -20804 0
-21073 -20906 0
21073 20803 20804 20906 0
-20806 -20807 0
-20806 -20808 0
20806 20807 20808 0
-20888 -20810 0
-20888 -20811 0
20888 20810 20811 0
-20812 -20934 0
-20812 -20814 0
20812 20934 20814 0
-20999 -20819 0
-20999 -20894 0
20999 20819 20894 0
-20818 -20819 0
-20818 -20820 0
20818 20819 20820 0
-20821 -20884 0
-20821 -20962 0
-20821 -20967 0
20821 20884 20962 20967 0
-21095 -20847 0
-21095 -20827 0
21095 20847 20827 0
-20828 -20847 0
-20828 -20830 0
20828 20847 20830 0
-20831 -20984 0
-20831 -20833 0
20831 20984 20833 0
-20889 -20958 0
-20889 -20934 0
20889 20958 20934 0
-20837 -20932 0
-20837 -20839 0
20837 20932 20839 0
-20840 -20894 0
-20840 -20842 0
20840 20894 20842 0
-20843 -20932 0
-20843 -20848 0
20843 20932 20848 0
-20988 -20847 0
-20988 -20848 0
-20988 -20849 0
20988 20847 20848 20849 0
-20850 -20851 0
-20850 -20852 0
20850 20851 20852 0
-20853 -20854 0
-20853 -20855 0
20853 20854 20855 0
-21021 -20864 0
-21021 -20858 0
21021 20864 20858 0
-20976 -20864 0
-20976 -20861 0
20976 20864 20861 0
-20862 -20884 0
-20862 -20864 0
20862 20884 20864 0
-20865 -20866 0
-20865 -20884 0
20865 20866 20884 0
-21045 -20869 0
-21045 -20870 0
21045 20869 20870 0
-20871 -20872 0
-20871 -20873 0
20871 20872 20873 0
-20874 -20884 0
-20874 -20876 0
20874 20884 20876 0
-20877 -20878 0
-20877 -20884 0
20877 20878 20884 0
-20880 -20885 0
-20880 -20882 0
20880 20885 20882 0
-20883 -20884 0
-20883 -20885 0
-20883 -20886 0
20883 20884 20885 20886 0
-20887 -20888 0
-20887 -20889 0
20887 20888 20889 0
-21071 -20894 0
-21071 -20892 0
21071 20894 20892 0
-20893 -20894 0
-20893 -20895 0
20893 20894 20895 0
-20896 -20897 0
-20896 -20898 0
20896 20897 20898 0
-20899 -20900 0
-20899 -20901 0
20899 20900 20901 0
-20902 -20914 0
-20902 -20904 0
20902 20914 20904 0
-20905 -20906 0
-20905 -20907 0
20905 20906 20907 0
-20908 -20912 0
-20908 -20941 0
20908 20912 20941 0
-20911 -20912 0
-20911 -20935 0
-20911 -20914 0
-20911 -20915 0
20911 20912 20935 20914 20915 0
-21019 -20920 0
-21019 -20918 0
21019 20920 20918 0
-20919 -20920 0
-20919 -20921 0
20919 20920 20921 0
-21014 -20923 0
-21014 -20924 0
21014 20923 20924 0
-21025 -20984 0
-21025 -20927 0
-21025 -20928 0
-21025 -20929 0
21025 20984 20927 20928 20929 0
-20930 -20936 0
-20930 -20932 0
20930 20936 20932 0
-20994 -20934 0
-20994 -20935 0
-20994 -20936 0
20994 20934 20935 20936 0
-20937 -20988 0
-20937 -20939 0
20937 20988 20939 0
-20940 -20941 0
-20940 -20942 0
20940 20941 20942 0
-20943 -20944 0
-20943 -20945 0
-20943 -20946 0
20943 20944 20945 20946 0
-20947 -20948 0
-20947 -20949 0
-20947 -21079 0
-20947 -20951 0
20947 20948 20949 21079 20951 0
-20952 -20953 0
-20952 -20954 0
20952 20953 20954 0
-20955 -20960 0
-20955 -20957 0
-20955 -20958 0
20955 20960 20957 20958 0
-21039 -20960 0
-21039 -20985 0
-21039 -20962 0
21039 20960 20985 20962 0
-20963 -20964 0
-20963 -20965 0
20963 20964 20965 0
-20998 -20967 0
-20998 -20968 0
20998 20967 20968 0
-20969 -20970 0
-20969 -20971 0
20969 20970 20971 0
-20972 -20973 0
-20972 -21079 0
-20972 -21071 0
-20972 -20976 0
20972 20973 21079 21071 20976 0
-20977 -20978 0
-20977 -20979 0
20977 20978 20979 0
-20980 -20981 0
-20980 -21035 0
20980 20981 21035 0
-21008 -20984 0
-21008 -20985 0
-21008 -20986 0
21008 20984 20985 20986 0
-20987 -20988 0
-20987 -20989 0
-20987 -20990 0
20987 20988 20989 20990 0
-20991 -20992 0
-20991 -21035 0
-20991 -20994 0
-20991 -20995 0
20991 20992 21035 20994 20995 0
-20996 -20997 0
-20996 -20998 0
-20996 -20999 0
-20996 -21079 0
20996 20997 20998 20999 21079 0
-21001 -21002 0
-21001 -21003 0
21001 21002 21003 0
-21004 -21008 0
-21004 -21006 0
21004 21008 21006 0
-21007 -21008 0
-21007 -21035 0
-21007 -21010 0
21007 21008 21035 21010 0
-21011 -21019 0
-21011 -21018 0
-21011 -21014 0
21011 21019 21018 21014 0
-21015 -21016 0
-21015 -21017 0
-21015 -21018 0
-21015 -21019 0
21015 21016 21017 21018 21019 0
-21020 -21021 0
-21020 -21022 0
-21020 -21023 0
21020 21021 21022 21023 0
-21024 -21025 0
-21024 -21026 0
-21024 -21027 0
21024 21025 21026 21027 0
-21028 -21029 0
-21028 -21030 0
-21028 -21031 0
21028 21029 21030 21031 0
-21032 -21033 0
-21032 -21034 0
-21032 -21035 0
-21032 -21036 0
21032 21033 21034 21035 21036 0
-21037 -21038 0
-21037 -21039 0
-21037 -21040 0
-21037 -21041 0
21037 21038 21039 21040 21041 0
-21042 -21043 0
-21042 -21044 0
-21042 -21045 0
-21042 -21079 0
21042 21043 21044 21045 21079 0
-21047 -21048 0
-21047 -21049 0
21047 21048 21049 0
-21051 21910 0
21051 -21910 0
-21053 22099 0
21053 -22099 0
-21055 22035 0
21055 -22035 0
-21057 22179 0
21057 -22179 0
-21059 22070 0
21059 -22070 0
-21061 22147 0
21061 -22147 0
-21063 21062 0
21063 -21062 0
-21065 21064 0
21065 -21064 0
-21067 21066 0
21067 -21066 0
-21069 21068 0
21069 -21068 0
-21071 21070 0
21071 -21070 0
-21073 21072 0
21073 -21072 0
-21075 21074 0
21075 -21074 0
-21077 21076 0
21077 -21076 0
-21079 21078 0
21079 -21078 0
-21081 21080 0
21081 -21080 0
-21083 21082 0
21083 -21082 0
-21085 21084 0
21085 -21084 0
-21087 21086 0
21087 -21086 0
-21089 21088 0
21089 -21088 0
-21091 21090 0
21091 -21090 0
-21093 21092 0
21093 -21092 0
-21095 21094 0
21095 -21094 0
-21097 21096 0
21097 -21096 0
-21099 21098 0
21099 -21098 0
-21101 21100 0
21101 -21100 0
-21103 21102 0
21103 -21102 0
-21105 21104 0
21105 -21104 0
-21107 21106 0
21107 -21106 0
22045 22156 0
-22045 -22156 0
22116 21111 0
-22116 -21111 0
21308 21311 0
-21308 -21311 0
21579 21311 0
-21579 -21311 0
22026 22084 0
-22026 -22084 0
21310 22006 0
-21310 -22006 0
22199 22006 0
-22199 -22006 0
21696 22099 0
-21696 -22099 0
21996 22035 0
-21996 -22035 0
21949 22179 0
-21949 -22179 0
21703 21866 0
-21703 -21866 0
21952 21937 0
-21952 -21937 0
22000 22070 0
-22000 -22070 0
21715 21654 0
-21715 -21654 0
21960 22029 0
-21960 -22029 0
21986 22147 0
-21986 -22147 0
22150 21689 0
-22150 -21689 0
22130 21615 0
-22130 -21615 0
21830 21837 0
-21830 -21837 0
21998 21934 0
-21998 -21934 0
22121 21908 0
-22121 -21908 0
21332 21914 0
-21332 -21914 0
22144 21700 0
-22144 -21700 0
21339 21932 0
-21339 -21932 0
22136 21935 0
-22136 -21935 0
21507 21578 0
-21507 -21578 0
21385 21941 0
-21385 -21941 0
21859 22182 0
-21859 -22182 0
21717 22113 0
-21717 -22113 0
21489 21608 0
-21489 -21608 0
22177 21953 0
-22177 -21953 0
21480 21617 0
-21480 -21617 0
22062 22015 0
-22062 -22015 0
21353 21959 0
-21353 -21959 0
21488 21626 0
-21488 -21626 0
21491 21635 0
-21491 -21635 0
22173 21965 0
-22173 -21965 0
21495 21641 0
-21495 -21641 0
21568 21971 0
-21568 -21971 0
21420 21984 0
-21420 -21984 0
21556 21667 0
-21556 -21667 0
21363 21991 0
-21363 -21991 0
21366 21997 0
-21366 -21997 0
21382 22007 0
-21382 -22007 0
21508 22288 0
-21508 -22288 0
21442 21684 0
-21442 -21684 0
22320 21691 0
-22320 -21691 0
21391 21877 0
-21391 -21877 0
21822 22214 0
-21822 -22214 0
21813 21719 0
-21813 -21719 0
22251 21843 0
-22251 -21843 0
21406 22046 0
-21406 -22046 0
21418 22052 0
-21418 -22052 0
21549 21733 0
-21549 -21733 0
21516 22055 0
-21516 -22055 0
21408 21742 0
-21408 -21742 0
22154 21823 0
-22154 -21823 0
21417 22089 0
-21417 -22089 0
21538 21754 0
-21538 -21754 0
21541 21757 0
-21541 -21757 0
21421 22092 0
-21421 -22092 0
21876 22095 0
-21876 -22095 0
21826 22098 0
-21826 -22098 0
21423 22102 0
-21423 -22102 0
22161 21760 0
-22161 -21760 0
21429 21818 0
-21429 -21818 0
22294 22115 0
-22294 -22115 0
22166 21852 0
-22166 -21852 0
21879 22108 0
-21879 -22108 0
22250 21882 0
-22250 -21882 0
21448 22138 0
-21448 -22138 0
21856 21808 0
-21856 -21808 0
22175 22111 0
-22175 -22111 0
21850 21814 0
-21850 -21814 0
21546 22117 0
-21546 -22117 0
21849 22120 0
-21849 -22120 0
22201 22123 0
-22201 -22123 0
22256 22152 0
-22256 -22152 0
21558 22155 0
-21558 -22155 0
22278 22162 0
-22278 -22162 0
22233 21846 0
-22233 -21846 0
21564 21831 0
-21564 -21831 0
22237 21834 0
-22237 -21834 0
21888 22170 0
-21888 -22170 0
21455 22184 0
-21455 -22184 0
22280 22187 0
-22280 -22187 0
22241 22195 0
-22241 -22195 0
22246 22202 0
-22246 -22202 0
22284 22206 0
-22284 -22206 0
22298 22211 0
-22298 -22211 0
21567 22216 0
-21567 -22216 0
22308 22226 0
-22308 -22226 0
22314 22230 0
-22314 -22230 0
22255 22235 0
-22255 -22235 0
22264 22239 0
-22264 -22239 0
21894 21867 0
-21894 -21867 0
22296 22247 0
-22296 -22247 0
21903 21883 0
-21903 -21883 0
22282 22262 0
-22282 -22262 0
-21975 22006 0
-21975 21308 0
21975 -22006 -21308 0
-21976 21310 0
-21976 21311 0
21976 -21310 -21311 0
-21993 22070 0
-21993 21949 0
21993 -22070 -21949 0
-22101 22156 0
-22101 21949 0
22101 -22156 -21949 0
-22008 21806 0
-22008 22006 0
-22008 21949 0
22008 -21806 -22006 -21949 0
-22185 22045 0
-22185 22022 0
22185 -22045 -22022 0
-22097 21949 0
-22097 22067 0
22097 -21949 -22067 0
-22076 21949 0
-22076 21590 0
22076 -21949 -21590 0
-22048 21332 0
-22048 21623 0
22048 -21332 -21623 0
-22054 21611 0
-22054 21644 0
22054 -21611 -21644 0
-22057 22070 0
-22057 21339 0
22057 -22070 -21339 0
-22160 22147 0
-22160 21977 0
22160 -22147 -21977 0
-22073 21949 0
-22073 21664 0
22073 -21949 -21664 0
-22133 21674 0
-22133 21656 0
22133 -21674 -21656 0
-22212 21977 0
-22212 22177 0
22212 -21977 -22177 0
-22091 21353 0
-22091 21681 0
22091 -21353 -21681 0
-22249 22288 0
-22249 22156 0
22249 -22288 -22156 0
-22139 21735 0
-22139 21684 0
22139 -21735 -21684 0
-22107 22064 0
-22107 21363 0
22107 -22064 -21363 0
-22110 22019 0
-22110 21366 0
22110 -22019 -21366 0
-22163 21910 0
-22163 22033 0
22163 -21910 -22033 0
-22263 22144 0
-22263 21908 0
-22263 22033 0
22263 -22144 -21908 -22033 0
-22164 22036 0
-22164 21944 0
22164 -22036 -21944 0
-22258 21937 0
-22258 22036 0
22258 -21937 -22036 0
-22168 21929 0
-22168 21382 0
22168 -21929 -21382 0
-22193 22058 0
-22193 21385 0
22193 -22058 -21385 0
-22159 22058 0
-22159 22043 0
22159 -22058 -22043 0
-22205 22067 0
-22205 21391 0
22205 -22067 -21391 0
-22245 21953 0
-22245 22065 0
22245 -21953 -22065 0
-22253 22065 0
-22253 21965 0
22253 -22065 -21965 0
-22238 22077 0
-22238 22043 0
22238 -22077 -22043 0
-22122 21739 0
-22122 21671 0
22122 -21739 -21671 0
-22157 21751 0
-22157 21406 0
22157 -21751 -21406 0
-22169 21408 0
-22169 22130 0
22169 -21408 -22130 0
-22207 22111 0
-22207 22104 0
22207 -22111 -22104 0
-22242 22103 0
-22242 22111 0
22242 -22103 -22111 0
-22180 21417 0
-22180 21418 0
22180 -21417 -21418 0
-22183 21420 0
-22183 21421 0
22183 -21420 -21421 0
-22186 21423 0
-22186 22010 0
22186 -21423 -22010 0
-22188 22199 0
-22188 21429 0
22188 -22199 -21429 0
-22232 21429 0
-22232 21866 0
22232 -21429 -21866 0
-22194 22294 0
-22194 22006 0
22194 -22294 -22006 0
-22196 22117 0
-22196 21873 0
-22196 21837 0
22196 -22117 -21873 -21837 0
-22221 22123 0
-22221 22004 0
22221 -22123 -22004 0
-22225 21442 0
-22225 22123 0
22225 -21442 -22123 0
-22244 21638 0
-22244 22126 0
22244 -21638 -22126 0
-22231 21448 0
-22231 22004 0
22231 -21448 -22004 0
-22218 21546 0
-22218 21785 0
22218 -21546 -21785 0
-22248 22001 0
-22248 21455 0
22248 -22001 -21455 0
21755 -21837 0
21755 -22147 0
21755 -21689 0
-21755 21837 22147 21689 0
21668 -22147 0
21668 -21911 0
-21668 22147 21911 0
21812 -21830 0
21812 -21938 0
-21812 21830 21938 0
21835 -21685 0
21835 -22150 0
-21835 21685 22150 0
21734 -22149 0
21734 -22006 0
-21734 22149 22006 0
21737 -22022 0
21737 -21994 0
-21737 22022 21994 0
21740 -21947 0
21740 -21994 0
-21740 21947 21994 0
21743 -22147 0
21743 -21480 0
-21743 22147 21480 0
21746 -22099 0
21746 -22010 0
-21746 22099 22010 0
21749 -22035 0
21749 -22013 0
-21749 22035 22013 0
21752 -21488 0
21752 -21489 0
-21752 21488 21489 0
21756 -21491 0
21756 -22149 0
-21756 21491 22149 0
21761 -21910 0
21761 -21495 0
-21761 21910 21495 0
21764 -21944 0
21764 -22027 0
-21764 21944 22027 0
21862 -21986 0
21862 -22085 0
-21862 21986 22085 0
21809 -22045 0
21809 -22099 0
21809 -22088 0
-21809 22045 22099 22088 0
21899 -21507 0
21899 -21508 0
-21899 21507 21508 0
21815 -22093 0
21815 -22066 0
-21815 22093 22066 0
21840 -21866 0
21840 -21822 0
-21840 21866 21822 0
21821 -21516 0
21821 -21986 0
-21821 21516 21986 0
21825 -22115 0
21825 -21579 0
-21825 22115 21579 0
21885 -22115 0
21885 -21866 0
-21885 22115 21866 0
21868 -21763 0
21868 -22119 0
-21868 21763 22119 0
21845 -22135 0
21845 -21656 0
-21845 22135 21656 0
21839 -21549 0
21839 -22138 0
-21839 21549 22138 0
21842 -21684 0
21842 -22143 0
-21842 21684 22143 0
21892 -21719 0
21892 -21538 0
-21892 21719 21538 0
21884 -22069 0
21884 -21541 0
-21884 22069 21541 0
21848 -22175 0
21848 -22102 0
-21848 22175 22102 0
21893 -21546 0
21893 -21968 0
-21893 21546 21968 0
21896 -21549 0
21896 -22201 0
-21896 21549 22201 0
21855 -22182 0
21855 -22167 0
-21855 22182 22167 0
21858 -22178 0
21858 -21556 0
-21858 22178 21556 0
21861 -21558 0
21861 -22081 0
-21861 21558 22081 0
21865 -22213 0
21865 -22114 0
-21865 22213 22114 0
21872 -21564 0
21872 -22145 0
-21872 21564 22145 0
21902 -21567 0
21902 -21568 0
-21902 21567 21568 0
21806 22029 0
21806 21937 0
-21806 -22029 -21937 0
21700 21939 0
21700 22084 0
-21700 -21939 -22084 0
22016 21615 0
22016 21654 0
-22016 -21615 -21654 0
21578 21579 0
21578 22045 0
-21578 -21579 -22045 0
22200 21939 0
22200 22026 0
-22200 -21939 -22026 0
22109 22035 0
22109 21908 0
-22109 -22035 -21908 0
22067 22045 0
22067 21696 0
-22067 -22045 -21696 0
21590 21943 0
21590 21696 0
-21590 -21943 -21696 0
22087 21696 0
22087 21910 0
-22087 -21696 -21910 0
22018 21996 0
22018 21598 0
-22018 -21996 -21598 0
22182 21996 0
22182 21910 0
-22182 -21996 -21910 0
22064 21949 0
22064 22147 0
-22064 -21949 -22147 0
22113 21949 0
22113 21996 0
-22113 -21949 -21996 0
21608 21952 0
21608 21615 0
-21608 -21952 -21615 0
21611 22000 0
21611 22156 0
-21611 -22000 -22156 0
22172 21615 0
22172 21715 0
-22172 -21615 -21715 0
21617 21911 0
21617 21806 0
-21617 -21911 -21806 0
22015 21960 0
22015 21952 0
-22015 -21960 -21952 0
21623 21960 0
21623 21939 0
-21623 -21960 -21939 0
21626 21960 0
21626 21715 0
-21626 -21960 -21715 0
22129 22156 0
22129 21960 0
-22129 -22156 -21960 0
22019 22022 0
22019 22179 0
-22019 -22022 -22179 0
21635 21986 0
21635 21837 0
-21635 -21986 -21837 0
21638 22142 0
21638 21837 0
-21638 -22142 -21837 0
21641 21696 0
21641 21700 0
-21641 -21696 -21700 0
21644 22006 0
21644 21700 0
-21644 -22006 -21700 0
22025 22070 0
22025 21929 0
-22025 -22070 -21929 0
21685 22130 0
21685 21715 0
-21685 -22130 -21715 0
22149 21654 0
22149 22130 0
-22149 -21654 -22130 0
21656 22199 0
21656 22150 0
21656 21935 0
21656 21837 0
-21656 -22199 -22150 -21935 -21837 0
21735 21938 0
21735 22006 0
-21735 -21938 -22006 0
21664 22016 0
21664 22067 0
-21664 -22016 -22067 0
21667 21668 0
21667 22000 0
21667 22016 0
-21667 -21668 -22000 -22016 0
21671 21947 0
21671 22018 0
-21671 -21947 -22018 0
21674 22026 0
21674 21950 0
21674 22006 0
-21674 -22026 -21950 -22006 0
22034 21953 0
22034 22179 0
-22034 -21953 -22179 0
21681 22015 0
21681 22147 0
-21681 -22015 -22147 0
21684 21685 0
21684 22199 0
21684 22016 0
-21684 -21685 -22199 -22016 0
21873 21689 0
21873 22149 0
-21873 -21689 -22149 0
21691 21977 0
21691 22022 0
-21691 -21977 -22022 0
22063 21988 0
22063 21696 0
-22063 -21988 -21696 0
21877 21986 0
21877 21988 0
21877 21700 0
-21877 -21986 -21988 -21700 0
22066 21859 0
22066 21703 0
-22066 -21859 -21703 0
22069 21859 0
22069 22099 0
-22069 -21859 -22099 0
22079 21965 0
22079 21859 0
-22079 -21965 -21859 0
22081 21859 0
22081 21920 0
-22081 -21859 -21920 0
22085 22001 0
22085 21715 0
-22085 -22001 -21715 0
22088 21717 0
22088 22022 0
-22088 -21717 -22022 0
21719 22010 0
21719 22000 0
21719 22001 0
-21719 -22010 -22000 -22001 0
21843 21980 0
21843 21996 0
21843 22013 0
-21843 -21980 -21996 -22013 0
22093 22021 0
22093 22179 0
-22093 -22021 -22179 0
22100 21859 0
22100 22021 0
-22100 -21859 -22021 0
21733 21734 0
21733 21735 0
-21733 -21734 -21735 0
21863 21737 0
21863 21908 0
-21863 -21737 -21908 0
21739 21740 0
21739 22070 0
-21739 -21740 -22070 0
21742 21743 0
21742 22000 0
-21742 -21743 -22000 0
22112 21746 0
22112 21910 0
-22112 -21746 -21910 0
21823 21749 0
21823 21980 0
-21823 -21749 -21980 0
21751 21752 0
21751 22199 0
-21751 -21752 -22199 0
21754 21755 0
21754 21756 0
-21754 -21755 -21756 0
21757 22093 0
21757 22025 0
-21757 -22093 -22025 0
21760 21761 0
21760 22033 0
-21760 -21761 -22033 0
21763 21764 0
21763 22000 0
-21763 -21764 -22000 0
21818 21949 0
21818 22045 0
21818 22058 0
-21818 -21949 -22045 -22058 0
22115 21920 0
22115 22068 0
-22115 -21920 -22068 0
21904 22147 0
21904 22068 0
21904 22130 0
-21904 -22147 -22068 -22130 0
21852 21944 0
21852 21949 0
21852 22077 0
-21852 -21944 -21949 -22077 0
22119 22080 0
22119 21952 0
22119 21938 0
-22119 -22080 -21952 -21938 0
21785 21830 0
21785 22080 0
21785 22010 0
-21785 -21830 -22080 -22010 0
21882 22062 0
21882 22260 0
21882 22023 0
-21882 -22062 -22260 -22023 0
22127 22086 0
22127 21952 0
-22127 -22086 -21952 0
22135 22086 0
22135 21960 0
22135 21939 0
-22135 -22086 -21960 -21939 0
22138 21960 0
22138 22086 0
22138 21950 0
-22138 -21960 -22086 -21950 0
22143 22045 0
22143 21806 0
22143 22086 0
-22143 -22045 -21806 -22086 0
21808 21809 0
21808 21863 0
-21808 -21809 -21863 0
22151 21812 0
22151 21813 0
-22151 -21812 -21813 0
21814 21815 0
21814 21843 0
-21814 -21815 -21843 0
22300 21818 0
22300 22115 0
-22300 -21818 -22115 0
22270 21821 0
22270 21822 0
22270 21823 0
-22270 -21821 -21822 -21823 0
22292 21825 0
22292 21826 0
-22292 -21825 -21826 0
21846 22126 0
21846 22217 0
21846 21830 0
-21846 -22126 -22217 -21830 0
21831 22134 0
21831 22006 0
-21831 -22134 -22006 0
21834 21835 0
21834 22134 0
21834 21837 0
-21834 -21835 -22134 -21837 0
22204 21839 0
22204 21840 0
-22204 -21839 -21840 0
22210 21842 0
22210 21843 0
-22210 -21842 -21843 0
22322 21845 0
22322 21846 0
-22322 -21845 -21846 0
22272 21848 0
22272 21849 0
22272 21850 0
-22272 -21848 -21849 -21850 0
22290 21852 0
22290 22192 0
-22290 -21852 -22192 0
22302 21855 0
22302 21856 0
-22302 -21855 -21856 0
21875 21858 0
21875 21859 0
-21875 -21858 -21859 0
22304 21861 0
22304 21862 0
22304 21863 0
-22304 -21861 -21862 -21863 0
21880 21865 0
21880 21866 0
-21880 -21865 -21866 0
21867 21868 0
21867 21879 0
21867 22222 0
-21867 -21868 -21879 -22222 0
21886 21872 0
21886 21873 0
-21886 -21872 -21873 0
22259 21875 0
22259 21876 0
22259 21877 0
-22259 -21875 -21876 -21877 0
22312 21879 0
22312 21880 0
22312 22219 0
22312 21882 0
-22312 -21879 -21880 -22219 -21882 0
21883 21884 0
21883 21885 0
21883 21886 0
-21883 -21884 -21885 -21886 0
22274 21888 0
22274 22158 0
22274 22243 0
-22274 -21888 -22158 -22243 0
22306 21892 0
22306 21893 0
22306 21894 0
-22306 -21892 -21893 -21894 0
22276 21896 0
22276 22252 0
-22276 -21896 -22252 0
22266 21899 0
22266 22257 0
-22266 -21899 -22257 0
22268 21902 0
22268 21903 0
22268 21904 0
-22268 -21902 -21903 -21904 0
-21943 -22156 0
-21943 -22006 0
21943 22156 22006 0
-21908 -22099 0
-21908 -21910 0
21908 22099 21910 0
-21911 -22006 0
-21911 -22179 0
21911 22006 22179 0
-21914 -21937 0
-21914 -22084 0
21914 21937 22084 0
-22022 -22147 0
-22022 -22070 0
22022 22147 22070 0
-21920 -22179 0
-21920 -22147 0
21920 22179 22147 0
-22318 -22029 0
-22318 -22042 0
22318 22029 22042 0
-22142 -21939 0
-22142 -22084 0
22142 21939 22084 0
-21929 -22147 0
-21929 -21939 0
21929 22147 21939 0
-21932 -22179 0
-21932 -21934 0
21932 22179 21934 0
-21935 -22045 0
-21935 -21937 0
21935 22045 21937 0
-21938 -21939 0
-21938 -22026 0
21938 21939 22026 0
-21941 -22179 0
-21941 -21943 0
21941 22179 21943 0
-21944 -22156 0
-21944 -22199 0
21944 22156 22199 0
-21947 -22147 0
-21947 -21949 0
21947 22147 21949 0
-21950 -22156 0
-21950 -21952 0
21950 22156 21952 0
-21953 -22147 0
-21953 -22000 0
21953 22147 22000 0
-22316 -21960 0
-22316 -22042 0
22316 21960 22042 0
-21959 -21960 0
-21959 -22000 0
21959 21960 22000 0
-22023 -22000 0
-22023 -21986 0
22023 22000 21986 0
-21965 -21986 0
-21965 -22070 0
21965 21986 22070 0
-21968 -22070 0
-21968 -22150 0
21968 22070 22150 0
-21971 -22130 0
-21971 -22070 0
21971 22130 22070 0
-22217 -21975 0
-22217 -21976 0
22217 21975 21976 0
-21977 -22109 0
-21977 -22179 0
21977 22109 22179 0
-21980 -22070 0
-21980 -22121 0
-21980 -22179 0
21980 22070 22121 22179 0
-21984 -22067 0
-21984 -21986 0
-21984 -22070 0
21984 22067 21986 22070 0
-21988 -22182 0
-21988 -22000 0
21988 22182 22000 0
-21991 -22147 0
-21991 -21993 0
21991 22147 21993 0
-21994 -22064 0
-21994 -21996 0
21994 22064 21996 0
-21997 -21998 0
-21997 -22064 0
-21997 -22000 0
21997 21998 22064 22000 0
-22001 -22087 0
-22001 -22113 0
22001 22087 22113 0
-22004 -22172 0
-22004 -22006 0
22004 22172 22006 0
-22007 -22008 0
-22007 -22070 0
22007 22008 22070 0
-22010 -22015 0
-22010 -22045 0
22010 22015 22045 0
-22013 -22147 0
-22013 -22015 0
-22013 -22016 0
22013 22147 22015 22016 0
-22288 -22018 0
-22288 -22019 0
-22288 -22121 0
22288 22018 22019 22121 0
-22021 -22022 0
-22021 -22023 0
22021 22022 22023 0
-22103 -22025 0
-22103 -22026 0
22103 22025 22026 0
-22027 -22149 0
-22027 -22029 0
22027 22149 22029 0
-22214 -22034 0
-22214 -22109 0
22214 22034 22109 0
-22033 -22034 0
-22033 -22035 0
22033 22034 22035 0
-22036 -22099 0
-22036 -22177 0
-22036 -22182 0
22036 22099 22177 22182 0
-22310 -22062 0
-22310 -22042 0
22310 22062 22042 0
-22043 -22062 0
-22043 -22045 0
22043 22062 22045 0
-22046 -22199 0
-22046 -22048 0
22046 22199 22048 0
-22104 -22173 0
-22104 -22149 0
22104 22173 22149 0
-22052 -22147 0
-22052 -22054 0
22052 22147 22054 0
-22055 -22109 0
-22055 -22057 0
22055 22109 22057 0
-22058 -22147 0
-22058 -22063 0
22058 22147 22063 0
-22203 -22062 0
-22203 -22063 0
-22203 -22064 0
22203 22062 22063 22064 0
-22065 -22066 0
-22065 -22067 0
22065 22066 22067 0
-22068 -22069 0
-22068 -22070 0
22068 22069 22070 0
-22236 -22079 0
-22236 -22073 0
22236 22079 22073 0
-22191 -22079 0
-22191 -22076 0
22191 22079 22076 0
-22077 -22099 0
-22077 -22079 0
22077 22099 22079 0
-22080 -22081 0
-22080 -22099 0
22080 22081 22099 0
-22260 -22084 0
-22260 -22085 0
22260 22084 22085 0
-22086 -22087 0
-22086 -22088 0
22086 22087 22088 0
-22089 -22099 0
-22089 -22091 0
22089 22099 22091 0
-22092 -22093 0
-22092 -22099 0
22092 22093 22099 0
-22095 -22100 0
-22095 -22097 0
22095 22100 22097 0
-22098 -22099 0
-22098 -22100 0
-22098 -22101 0
22098 22099 22100 22101 0
-22102 -22103 0
-22102 -22104 0
22102 22103 22104 0
-22286 -22109 0
-22286 -22107 0
22286 22109 22107 0
-22108 -22109 0
-22108 -22110 0
22108 22109 22110 0
-22111 -22112 0
-22111 -22113 0
22111 22112 22113 0
-22114 -22115 0
-22114 -22116 0
22114 22115 22116 0
-22117 -22129 0
-22117 -22119 0
22117 22129 22119 0
-22120 -22121 0
-22120 -22122 0
22120 22121 22122 0
-22123 -22127 0
-22123 -22156 0
22123 22127 22156 0
-22126 -22127 0
-22126 -22150 0
-22126 -22129 0
-22126 -22130 0
22126 22127 22150 22129 22130 0
-22234 -22135 0
-22234 -22133 0
22234 22135 22133 0
-22134 -22135 0
-22134 -22136 0
22134 22135 22136 0
-22229 -22138 0
-22229 -22139 0
22229 22138 22139 0
-22240 -22199 0
-22240 -22142 0
-22240 -22143 0
-22240 -22144 0
22240 22199 22142 22143 22144 0
-22145 -22151 0
-22145 -22147 0
22145 22151 22147 0
-22209 -22149 0
-22209 -22150 0
-22209 -22151 0
22209 22149 22150 22151 0
-22152 -22203 0
-22152 -22154 0
22152 22203 22154 0
-22155 -22156 0
-22155 -22157 0
22155 22156 22157 0
-22158 -22159 0
-22158 -22160 0
-22158 -22161 0
22158 22159 22160 22161 0
-22162 -22163 0
-22162 -22164 0
-22162 -22294 0
-22162 -22166 0
22162 22163 22164 22294 22166 0
-22167 -22168 0
-22167 -22169 0
22167 22168 22169 0
-22170 -22175 0
-22170 -22172 0
-22170 -22173 0
22170 22175 22172 22173 0
-22254 -22175 0
-22254 -22200 0
-22254 -22177 0
22254 22175 22200 22177 0
-22178 -22179 0
-22178 -22180 0
22178 22179 22180 0
-22213 -22182 0
-22213 -22183 0
22213 22182 22183 0
-22184 -22185 0
-22184 -22186 0
22184 22185 22186 0
-22187 -22188 0
-22187 -22294 0
-22187 -22286 0
-22187 -22191 0
22187 22188 22294 22286 22191 0
-22192 -22193 0
-22192 -22194 0
22192 22193 22194 0
-22195 -22196 0
-22195 -22250 0
22195 22196 22250 0
-22223 -22199 0
-22223 -22200 0
-22223 -22201 0
22223 22199 22200 22201 0
-22202 -22203 0
-22202 -22204 0
-22202 -22205 0
22202 22203 22204 22205 0
-22206 -22207 0
-22206 -22250 0
-22206 -22209 0
-22206 -22210 0
22206 22207 22250 22209 22210 0
-22211 -22212 0
-22211 -22213 0
-22211 -22214 0
-22211 -22294 0
22211 22212 22213 22214 22294 0
-22216 -22217 0
-22216 -22218 0
22216 22217 22218 0
-22219 -22223 0
-22219 -22221 0
22219 22223 22221 0
-22222 -22223 0
-22222 -22250 0
-22222 -22225 0
22222 22223 22250 22225 0
-22226 -22234 0
-22226 -22233 0
-22226 -22229 0
22226 22234 22233 22229 0
-22230 -22231 0
-22230 -22232 0
-22230 -22233 0
-22230 -22234 0
22230 22231 22232 22233 22234 0
-22235 -22236 0
-22235 -22237 0
-22235 -22238 0
22235 22236 22237 22238 0
-22239 -22240 0
-22239 -22241 0
-22239 -22242 0
22239 22240 22241 22242 0
-22243 -22244 0
-22243 -22245 0
-22243 -22246 0
22243 22244 22245 22246 0
-22247 -22248 0
-22247 -22249 0
-22247 -22250 0
-22247 -22251 0
22247 22248 22249 22250 22251 0
-22252 -22253 0
-22252 -22254 0
-22252 -22255 0
-22252 -22256 0
22252 22253 22254 22255 22256 0
-22257 -22258 0
-22257 -22259 0
-22257 -22260 0
-22257 -22294 0
22257 22258 22259 22260 22294 0
-22262 -22263 0
-22262 -22264 0
22262 22263 22264 0
-22266 23125 0
22266 -23125 0
-22268 23314 0
22268 -23314 0
-22270 23250 0
22270 -23250 0
-22272 23394 0
22272 -23394 0
-22274 23285 0
22274 -23285 0
-22276 23362 0
22276 -23362 0
-22278 22277 0
22278 -22277 0
-22280 22279 0
22280 -22279 0
-22282 22281 0
22282 -22281 0
-22284 22283 0
22284 -22283 0
-22286 22285 0
22286 -22285 0
-22288 22287 0
22288 -22287 0
-22290 22289 0
22290 -22289 0
-22292 22291 0
22292 -22291 0
-22294 22293 0
22294 -22293 0
-22296 22295 0
22296 -22295 0
-22298 22297 0
22298 -22297 0
-22300 22299 0
22300 -22299 0
-22302 22301 0
22302 -22301 0
-22304 22303 0
22304 -22303 0
-22306 22305 0
22306 -22305 0
-22308 22307 0
22308 -22307 0
-22310 22309 0
22310 -22309 0
-22312 22311 0
22312 -22311 0
-22314 22313 0
22314 -22313 0
-22316 22315 0
22316 -22315 0
-22318 22317 0
22318 -22317 0
-22320 22319 0
22320 -22319 0
-22322 22321 0
22322 -22321 0
23260 23371 0
-23260 -23371 0
23331 22326 0
-23331 -22326 0
22523 22526 0
-22523 -22526 0
22794 22526 0
-22794 -22526 0
23241 23299 0
-23241 -23299 0
22525 23221 0
-22525 -23221 0
23414 23221 0
-23414 -23221 0
22911 23314 0
-22911 -23314 0
23211 23250 0
-23211 -23250 0
23164 23394 0
-23164 -23394 0
22918 23081 0
-22918 -23081 0
23167 23152 0
-23167 -23152 0
23215 23285 0
-23215 -23285 0
22930 22869 0
-22930 -22869 0
23175 23244 0
-23175 -23244 0
23201 23362 0
-23201 -23362 0
23365 22904 0
-23365 -22904 0
23345 22830 0
-23345 -22830 0
23045 23052 0
-23045 -23052 0
23213 23149 0
-23213 -23149 0
23336 23123 0
-23336 -23123 0
22547 23129 0
-22547 -23129 0
23359 22915 0
-23359 -22915 0
22554 23147 0
-22554 -23147 0
23351 23150 0
-23351 -23150 0
22722 22793 0
-22722 -22793 0
22600 23156 0
-22600 -23156 0
23074 23397 0
-23074 -23397 0
22932 23328 0
-22932 -23328 0
22704 22823 0
-22704 -22823 0
23392 23168 0
-23392 -23168 0
22695 22832 0
-22695 -22832 0
23277 23230 0
-23277 -23230 0
22568 23174 0
-22568 -23174 0
22703 22841 0
-22703 -22841 0
22706 22850 0
-22706 -22850 0
23388 23180 0
-23388 -23180 0
22710 22856 0
-22710 -22856 0
22783 23186 0
-22783 -23186 0
22635 23199 0
-22635 -23199 0
22771 22882 0
-22771 -22882 0
22578 23206 0
-22578 -23206 0
22581 23212 0
-22581 -23212 0
22597 23222 0
-22597 -23222 0
22723 23503 0
-22723 -23503 0
22657 22899 0
-22657 -22899 0
23535 22906 0
-23535 -22906 0
22606 23092 0
-22606 -23092 0
23037 23429 0
-23037 -23429 0
23028 22934 0
-23028 -22934 0
23466 23058 0
-23466 -23058 0
22621 23261 0
-22621 -23261 0
22633 23267 0
-22633 -23267 0
22764 22948 0
-22764 -22948 0
22731 23270 0
-22731 -23270 0
22623 22957 0
-22623 -22957 0
23369 23038 0
-23369 -23038 0
22632 23304 0
-22632 -23304 0
22753 22969 0
-22753 -22969 0
22756 22972 0
-22756 -22972 0
22636 23307 0
-22636 -23307 0
23091 23310 0
-23091 -23310 0
23041 23313 0
-23041 -23313 0
22638 23317 0
-22638 -23317 0
23376 22975 0
-23376 -22975 0
22644 23033 0
-22644 -23033 0
23509 23330 0
-23509 -23330 0
23381 23067 0
-23381 -23067 0
23094 23323 0
-23094 -23323 0
23465 23097 0
-23465 -23097 0
22663 23353 0
-22663 -23353 0
23071 23023 0
-23071 -23023 0
23390 23326 0
-23390 -23326 0
23065 23029 0
-23065 -23029 0
22761 23332 0
-22761 -23332 0
23064 23335 0
-23064 -23335 0
23416 23338 0
-23416 -23338 0
23471 23367 0
-23471 -23367 0
22773 23370 0
-22773 -23370 0
23493 23377 0
-23493 -23377 0
23448 23061 0
-23448 -23061 0
22779 23046 0
-22779 -23046 0
23452 23049 0
-23452 -23049 0
23103 23385 0
-23103 -23385 0
22670 23399 0
-22670 -23399 0
23495 23402 0
-23495 -23402 0
23456 23410 0
-23456 -23410 0
23461 23417 0
-23461 -23417 0
23499 23421 0
-23499 -23421 0
23513 23426 0
-23513 -23426 0
22782 23431 0
-22782 -23431 0
23523 23441 0
-23523 -23441 0
23529 23445 0
-23529 -23445 0
23470 23450 0
-23470 -23450 0
23479 23454 0
-23479 -23454 0
23109 23082 0
-23109 -23082 0
23511 23462 0
-23511 -23462 0
23118 23098 0
-23118 -23098 0
23497 23477 0
-23497 -23477 0
-23190 23221 0
-23190 22523 0
23190 -23221 -22523 0
-23191 22525 0
-23191 22526 0
23191 -22525 -22526 0
-23208 23285 0
-23208 23164 0
23208 -23285 -23164 0
-23316 23371 0
-23316 23164 0
23316 -23371 -23164 0
-23223 23021 0
-23223 23221 0
-23223 23164 0
23223 -23021 -23221 -23164 0
-23400 23260 0
-23400 23237 0
23400 -23260 -23237 0
-23312 23164 0
-23312 23282 0
23312 -23164 -23282 0
-23291 23164 0
-23291 22805 0
23291 -23164 -22805 0
-23263 22547 0
-23263 22838 0
23263 -22547 -22838 0
-23269 22826 0
-23269 22859 0
23269 -22826 -22859 0
-23272 23285 0
-23272 22554 0
23272 -23285 -22554 0
-23375 23362 0
-23375 23192 0
23375 -23362 -23192 0
-23288 23164 0
-23288 22879 0
23288 -23164 -22879 0
-23348 22889 0
-23348 22871 0
23348 -22889 -22871 0
-23427 23192 0
-23427 23392 0
23427 -23192 -23392 0
-23306 22568 0
-23306 22896 0
23306 -22568 -22896 0
-23464 23503 0
-23464 23371 0
23464 -23503 -23371 0
-23354 22950 0
-23354 22899 0
23354 -22950 -22899 0
-23322 23279 0
-23322 22578 0
23322 -23279 -22578 0
-23325 23234 0
-23325 22581 0
23325 -23234 -22581 0
-23378 23125 0
-23378 23248 0
23378 -23125 -23248 0
-23478 23359 0
-23478 23123 0
-23478 23248 0
23478 -23359 -23123 -23248 0
-23379 23251 0
-23379 23159 0
23379 -23251 -23159 0
-23473 23152 0
-23473 23251 0
23473 -23152 -23251 0
-23383 23144 0
-23383 22597 0
23383 -23144 -22597 0
-23408 23273 0
-23408 22600 0
23408 -23273 -22600 0
-23374 23273 0
-23374 23258 0
23374 -23273 -23258 0
-23420 23282 0
-23420 22606 0
23420 -23282 -22606 0
-23460 23168 0
-23460 23280 0
23460 -23168 -23280 0
-23468 23280 0
-23468 23180 0
23468 -23280 -23180 0
-23453 23292 0
-23453 23258 0
23453 -23292 -23258 0
-23337 22954 0
-23337 22886 0
23337 -22954 -22886 0
-23372 22966 0
-23372 22621 0
23372 -22966 -22621 0
-23384 22623 0
-23384 23345 0
23384 -22623 -23345 0
-23422 23326 0
-23422 23319 0
23422 -23326 -23319 0
-23457 23318 0
-23457 23326 0
23457 -23318 -23326 0
-23395 22632 0
-23395 22633 0
23395 -22632 -22633 0
-23398 22635 0
-23398 22636 0
23398 -22635 -22636 0
-23401 22638 0
-23401 23225 0
23401 -22638 -23225 0
-23403 23414 0
-23403 22644 0
23403 -23414 -22644 0
-23447 22644 0
-23447 23081 0
23447 -22644 -23081 0
-23409 23509 0
-23409 23221 0
23409 -23509 -23221 0
-23411 23332 0
-23411 23088 0
-23411 23052 0
23411 -23332 -23088 -23052 0
-23436 23338 0
-23436 23219 0
23436 -23338 -23219 0
-23440 22657 0
-23440 23338 0
23440 -22657 -23338 0
-23459 22853 0
-23459 23341 0
23459 -22853 -23341 0
-23446 22663 0
-23446 23219 0
23446 -22663 -23219 0
-23433 22761 0
-23433 23000 0
23433 -22761 -23000 0
-23463 23216 0
-23463 22670 0
23463 -23216 -22670 0
22970 -23052 0
22970 -23362 0
22970 -22904 0
-22970 23052 23362 22904 0
22883 -23362 0
22883 -23126 0
-22883 23362 23126 0
23027 -23045 0
23027 -23153 0
-23027 23045 23153 0
23050 -22900 0
23050 -23365 0
-23050 22900 23365 0
22949 -23364 0
22949 -23221 0
-22949 23364 23221 0
22952 -23237 0
22952 -23209 0
-22952 23237 23209 0
22955 -23162 0
22955 -23209 0
-22955 23162 23209 0
22958 -23362 0
22958 -22695 0
-22958 23362 22695 0
22961 -23314 0
22961 -23225 0
-22961 23314 23225 0
22964 -23250 0
22964 -23228 0
-22964 23250 23228 0
22967 -22703 0
22967 -22704 0
-22967 22703 22704 0
22971 -22706 0
22971 -23364 0
-22971 22706 23364 0
22976 -23125 0
22976 -22710 0
-22976 23125 22710 0
22979 -23159 0
22979 -23242 0
-22979 23159 23242 0
23077 -23201 0
23077 -23300 0
-23077 23201 23300 0
23024 -23260 0
23024 -23314 0
23024 -23303 0
-23024 23260 23314 23303 0
23114 -22722 0
23114 -22723 0
-23114 22722 22723 0
23030 -23308 0
23030 -23281 0
-23030 23308 23281 0
23055 -23081 0
23055 -23037 0
-23055 23081 23037 0
23036 -22731 0
23036 -23201 0
-23036 22731 23201 0
23040 -23330 0
23040 -22794 0
-23040 23330 22794 0
23100 -23330 0
23100 -23081 0
-23100 23330 23081 0
23083 -22978 0
23083 -23334 0
-23083 22978 23334 0
23060 -23350 0
23060 -22871 0
-23060 23350 22871 0
23054 -22764 0
23054 -23353 0
-23054 22764 23353 0
23057 -22899 0
23057 -23358 0
-23057 22899 23358 0
23107 -22934 0
23107 -22753 0
-23107 22934 22753 0
23099 -23284 0
23099 -22756 0
-23099 23284 22756 0
23063 -23390 0
23063 -23317 0
-23063 23390 23317 0
23108 -22761 0
23108 -23183 0
-23108 22761 23183 0
23111 -22764 0
23111 -23416 0
-23111 22764 23416 0
23070 -23397 0
23070 -23382 0
-23070 23397 23382 0
23073 -23393 0
23073 -22771 0
-23073 23393 22771 0
23076 -22773 0
23076 -23296 0
-23076 22773 23296 0
23080 -23428 0
23080 -23329 0
-23080 23428 23329 0
23087 -22779 0
23087 -23360 0
-23087 22779 23360 0
23117 -22782 0
23117 -22783 0
-23117 22782 22783 0
23021 23244 0
23021 23152 0
-23021 -23244 -23152 0
22915 23154 0
22915 23299 0
-22915 -23154 -23299 0
23231 22830 0
23231 22869 0
-23231 -22830 -22869 0
22793 22794 0
22793 23260 0
-22793 -22794 -23260 0
23415 23154 0
23415 23241 0
-23415 -23154 -23241 0
23324 23250 0
23324 23123 0
-23324 -23250 -23123 0
23282 23260 0
23282 22911 0
-23282 -23260 -22911 0
22805 23158 0
22805 22911 0
-22805 -23158 -22911 0
23302 22911 0
23302 23125 0
-23302 -22911 -23125 0
23233 23211 0
23233 22813 0
-23233 -23211 -22813 0
23397 23211 0
23397 23125 0
-23397 -23211 -23125 0
23279 23164 0
23279 23362 0
-23279 -23164 -23362 0
23328 23164 0
23328 23211 0
-23328 -23164 -23211 0
22823 23167 0
22823 22830 0
-22823 -23167 -22830 0
22826 23215 0
22826 23371 0
-22826 -23215 -23371 0
23387 22830 0
23387 22930 0
-23387 -22830 -22930 0
22832 23126 0
22832 23021 0
-22832 -23126 -23021 0
23230 23175 0
23230 23167 0
-23230 -23175 -23167 0
22838 23175 0
22838 23154 0
-22838 -23175 -23154 0
22841 23175 0
22841 22930 0
-22841 -23175 -22930 0
23344 23371 0
23344 23175 0
-23344 -23371 -23175 0
23234 23237 0
23234 23394 0
-23234 -23237 -23394 0
22850 23201 0
22850 23052 0
-22850 -23201 -23052 0
22853 23357 0
22853 23052 0
-22853 -23357 -23052 0
22856 22911 0
22856 22915 0
-22856 -22911 -22915 0
22859 23221 0
22859 22915 0
-22859 -23221 -22915 0
23240 23285 0
23240 23144 0
-23240 -23285 -23144 0
22900 23345 0
22900 22930 0
-22900 -23345 -22930 0
23364 22869 0
23364 23345 0
-23364 -22869 -23345 0
22871 23414 0
22871 23365 0
22871 23150 0
22871 23052 0
-22871 -23414 -23365 -23150 -23052 0
22950 23153 0
22950 23221 0
-22950 -23153 -23221 0
22879 23231 0
22879 23282 0
-22879 -23231 -23282 0
22882 22883 0
22882 23215 0
22882 23231 0
-22882 -22883 -23215 -23231 0
22886 23162 0
22886 23233 0
-22886 -23162 -23233 0
22889 23241 0
22889 23165 0
22889 23221 0
-22889 -23241 -23165 -23221 0
23249 23168 0
23249 23394 0
-23249 -23168 -23394 0
22896 23230 0
22896 23362 0
-22896 -23230 -23362 0
22899 22900 0
22899 23414 0
22899 23231 0
-22899 -22900 -23414 -23231 0
23088 22904 0
23088 23364 0
-23088 -22904 -23364 0
22906 23192 0
22906 23237 0
-22906 -23192 -23237 0
23278 23203 0
23278 22911 0
-23278 -23203 -22911 0
23092 23201 0
23092 23203 0
23092 22915 0
-23092 -23201 -23203 -22915 0
23281 23074 0
23281 22918 0
-23281 -23074 -22918 0
23284 23074 0
23284 23314 0
-23284 -23074 -23314 0
23294 23180 0
23294 23074 0
-23294 -23180 -23074 0
23296 23074 0
23296 23135 0
-23296 -23074 -23135 0
23300 23216 0
23300 22930 0
-23300 -23216 -22930 0
23303 22932 0
23303 23237 0
-23303 -22932 -23237 0
22934 23225 0
22934 23215 0
22934 23216 0
-22934 -23225 -23215 -23216 0
23058 23195 0
23058 23211 0
23058 23228 0
-23058 -23195 -23211 -23228 0
23308 23236 0
23308 23394 0
-23308 -23236 -23394 0
23315 23074 0
23315 23236 0
-23315 -23074 -23236 0
22948 22949 0
22948 22950 0
-22948 -22949 -22950 0
23078 22952 0
23078 23123 0
-23078 -22952 -23123 0
22954 22955 0
22954 23285 0
-22954 -22955 -23285 0
22957 22958 0
22957 23215 0
-22957 -22958 -23215 0
23327 22961 0
23327 23125 0
-23327 -22961 -23125 0
23038 22964 0
23038 23195 0
-23038 -22964 -23195 0
22966 22967 0
22966 23414 0
-22966 -22967 -23414 0
22969 22970 0
22969 22971 0
-22969 -22970 -22971 0
22972 23308 0
22972 23240 0
-22972 -23308 -23240 0
22975 22976 0
22975 23248 0
-22975 -22976 -23248 0
22978 22979 0
22978 23215 0
-22978 -22979 -23215 0
23033 23164 0
23033 23260 0
23033 23273 0
-23033 -23164 -23260 -23273 0
23330 23135 0
23330 23283 0
-23330 -23135 -23283 0
23119 23362 0
23119 23283 0
23119 23345 0
-23119 -23362 -23283 -23345 0
23067 23159 0
23067 23164 0
23067 23292 0
-23067 -23159 -23164 -23292 0
23334 23295 0
23334 23167 0
23334 23153 0
-23334 -23295 -23167 -23153 0
23000 23045 0
23000 23295 0
23000 23225 0
-23000 -23045 -23295 -23225 0
23097 23277 0
23097 23475 0
23097 23238 0
-23097 -23277 -23475 -23238 0
23342 23301 0
23342 23167 0
-23342 -23301 -23167 0
23350 23301 0
23350 23175 0
23350 23154 0
-23350 -23301 -23175 -23154 0
23353 23175 0
23353 23301 0
23353 23165 0
-23353 -23175 -23301 -23165 0
23358 23260 0
23358 23021 0
23358 23301 0
-23358 -23260 -23021 -23301 0
23023 23024 0
23023 23078 0
-23023 -23024 -23078 0
23366 23027 0
23366 23028 0
-23366 -23027 -23028 0
23029 23030 0
23029 23058 0
-23029 -23030 -23058 0
23515 23033 0
23515 23330 0
-23515 -23033 -23330 0
23485 23036 0
23485 23037 0
23485 23038 0
-23485 -23036 -23037 -23038 0
23507 23040 0
23507 23041 0
-23507 -23040 -23041 0
23061 23341 0
23061 23432 0
23061 23045 0
-23061 -23341 -23432 -23045 0
23046 23349 0
23046 23221 0
-23046 -23349 -23221 0
23049 23050 0
23049 23349 0
23049 23052 0
-23049 -23050 -23349 -23052 0
23419 23054 0
23419 23055 0
-23419 -23054 -23055 0
23425 23057 0
23425 23058 0
-23425 -23057 -23058 0
23537 23060 0
23537 23061 0
-23537 -23060 -23061 0
23487 23063 0
23487 23064 0
23487 23065 0
-23487 -23063 -23064 -23065 0
23505 23067 0
23505 23407 0
-23505 -23067 -23407 0
23517 23070 0
23517 23071 0
-23517 -23070 -23071 0
23090 23073 0
23090 23074 0
-23090 -23073 -23074 0
23519 23076 0
23519 23077 0
23519 23078 0
-23519 -23076 -23077 -23078 0
23095 23080 0
23095 23081 0
-23095 -23080 -23081 0
23082 23083 0
23082 23094 0
23082 23437 0
-23082 -23083 -23094 -23437 0
23101 23087 0
23101 23088 0
-23101 -23087 -23088 0
23474 23090 0
23474 23091 0
23474 23092 0
-23474 -23090 -23091 -23092 0
23527 23094 0
23527 23095 0
23527 23434 0
23527 23097 0
-23527 -23094 -23095 -23434 -23097 0
23098 23099 0
23098 23100 0
23098 23101 0
-23098 -23099 -23100 -23101 0
23489 23103 0
23489 23373 0
23489 23458 0
-23489 -23103 -23373 -23458 0
23521 23107 0
23521 23108 0
23521 23109 0
-23521 -23107 -23108 -23109 0
23491 23111 0
23491 23467 0
-23491 -23111 -23467 0
23481 23114 0
23481 23472 0
-23481 -23114 -23472 0
23483 23117 0
23483 23118 0
23483 23119 0
-23483 -23117 -23118 -23119 0
-23158 -23371 0
-23158 -23221 0
23158 23371 23221 0
-23123 -23314 0
-23123 -23125 0
23123 23314 23125 0
-23126 -23221 0
-23126 -23394 0
23126 23221 23394 0
-23129 -23152 0
-23129 -23299 0
23129 23152 23299 0
-23237 -23362 0
-23237 -23285 0
23237 23362 23285 0
-23135 -23394 0
-23135 -23362 0
23135 23394 23362 0
-23533 -23244 0
-23533 -23257 0
23533 23244 23257 0
-23357 -23154 0
-23357 -23299 0
23357 23154 23299 0
-23144 -23362 0
-23144 -23154 0
23144 23362 23154 0
-23147 -23394 0
-23147 -23149 0
23147 23394 23149 0
-23150 -23260 0
-23150 -23152 0
23150 23260 23152 0
-23153 -23154 0
-23153 -23241 0
23153 23154 23241 0
-23156 -23394 0
-23156 -23158 0
23156 23394 23158 0
-23159 -23371 0
-23159 -23414 0
23159 23371 23414 0
-23162 -23362 0
-23162 -23164 0
23162 23362 23164 0
-23165 -23371 0
-23165 -23167 0
23165 23371 23167 0
-23168 -23362 0
-23168 -23215 0
23168 23362 23215 0
-23531 -23175 0
-23531 -23257 0
23531 23175 23257 0
-23174 -23175 0
-23174 -23215 0
23174 23175 23215 0
-23238 -23215 0
-23238 -23201 0
23238 23215 23201 0
-23180 -23201 0
-23180 -23285 0
23180 23201 23285 0
-23183 -23285 0
-23183 -23365 0
23183 23285 23365 0
-23186 -23345 0
-23186 -23285 0
23186 23345 23285 0
-23432 -23190 0
-23432 -23191 0
23432 23190 23191 0
-23192 -23324 0
-23192 -23394 0
23192 23324 23394 0
-23195 -23285 0
-23195 -23336 0
-23195 -23394 0
23195 23285 23336 23394 0
-23199 -23282 0
-23199 -23201 0
-23199 -23285 0
23199 23282 23201 23285 0
-23203 -23397 0
-23203 -23215 0
23203 23397 23215 0
-23206 -23362 0
-23206 -23208 0
23206 23362 23208 0
-23209 -23279 0
-23209 -23211 0
23209 23279 23211 0
-23212 -23213 0
-23212 -23279 0
-23212 -23215 0
23212 23213 23279 23215 0
-23216 -23302 0
-23216 -23328 0
23216 23302 23328 0
-23219 -23387 0
-23219 -23221 0
23219 23387 23221 0
-23222 -23223 0
-23222 -23285 0
23222 23223 23285 0
-23225 -23230 0
-23225 -23260 0
23225 23230 23260 0
-23228 -23362 0
-23228 -23230 0
-23228 -23231 0
23228 23362 23230 23231 0
-23503 -23233 0
-23503 -23234 0
-23503 -23336 0
23503 23233 23234 23336 0
-23236 -23237 0
-23236 -23238 0
23236 23237 23238 0
-23318 -23240 0
-23318 -23241 0
23318 23240 23241 0
-23242 -23364 0
-23242 -23244 0
23242 23364 23244 0
-23429 -23249 0
-23429 -23324 0
23429 23249 23324 0
-23248 -23249 0
-23248 -23250 0
23248 23249 23250 0
-23251 -23314 0
-23251 -23392 0
-23251 -23397 0
23251 23314 23392 23397 0
-23525 -23277 0
-23525 -23257 0
23525 23277 23257 0
-23258 -23277 0
-23258 -23260 0
23258 23277 23260 0
-23261 -23414 0
-23261 -23263 0
23261 23414 23263 0
-23319 -23388 0
-23319 -23364 0
23319 23388 23364 0
-23267 -23362 0
-23267 -23269 0
23267 23362 23269 0
-23270 -23324 0
-23270 -23272 0
23270 23324 23272 0
-23273 -23362 0
-23273 -23278 0
23273 23362 23278 0
-23418 -23277 0
-23418 -23278 0
-23418 -23279 0
23418 23277 23278 23279 0
-23280 -23281 0
-23280 -23282 0
23280 23281 23282 0
-23283 -23284 0
-23283 -23285 0
23283 23284 23285 0
-23451 -23294 0
-23451 -23288 0
23451 23294 23288 0
-23406 -23294 0
-23406 -23291 0
23406 23294 23291 0
-23292 -23314 0
-23292 -23294 0
23292 23314 23294 0
-23295 -23296 0
-23295 -23314 0
23295 23296 23314 0
-23475 -23299 0
-23475 -23300 0
23475 23299 23300 0
-23301 -23302 0
-23301 -23303 0
23301 23302 23303 0
-23304 -23314 0
-23304 -23306 0
23304 23314 23306 0
-23307 -23308 0
-23307 -23314 0
23307 23308 23314 0
-23310 -23315 0
-23310 -23312 0
23310 23315 23312 0
-23313 -23314 0
-23313 -23315 0
-23313 -23316 0
23313 23314 23315 23316 0
-23317 -23318 0
-23317 -23319 0
23317 23318 23319 0
-23501 -23324 0
-23501 -23322 0
23501 23324 23322 0
-23323 -23324 0
-23323 -23325 0
23323 23324 23325 0
-23326 -23327 0
-23326 -23328 0
23326 23327 23328 0
-23329 -23330 0
-23329 -23331 0
23329 23330 23331 0
-23332 -23344 0
-23332 -23334 0
23332 23344 23334 0
-23335 -23336 0
-23335 -23337 0
23335 23336 23337 0
-23338 -23342 0
-23338 -23371 0
23338 23342 23371 0
-23341 -23342 0
-23341 -23365 0
-23341 -23344 0
-23341 -23345 0
23341 23342 23365 23344 23345 0
-23449 -23350 0
-23449 -23348 0
23449 23350 23348 0
-23349 -23350 0
-23349 -23351 0
23349 23350 23351 0
-23444 -23353 0
-23444 -23354 0
23444 23353 23354 0
-23455 -23414 0
-23455 -23357 0
-23455 -23358 0
-23455 -23359 0
23455 23414 23357 23358 23359 0
-23360 -23366 0
-23360 -23362 0
23360 23366 23362 0
-23424 -23364 0
-23424 -23365 0
-23424 -23366 0
23424 23364 23365 23366 0
-23367 -23418 0
-23367 -23369 0
23367 23418 23369 0
-23370 -23371 0
-23370 -23372 0
23370 23371 23372 0
-23373 -23374 0
-23373 -23375 0
-23373 -23376 0
23373 23374 23375 23376 0
-23377 -23378 0
-23377 -23379 0
-23377 -23509 0
-23377 -23381 0
23377 23378 23379 23509 23381 0
-23382 -23383 0
-23382 -23384 0
23382 23383 23384 0
-23385 -23390 0
-23385 -23387 0
-23385 -23388 0
23385 23390 23387 23388 0
-23469 -23390 0
-23469 -23415 0
-23469 -23392 0
23469 23390 23415 23392 0
-23393 -23394 0
-23393 -23395 0
23393 23394 23395 0
-23428 -23397 0
-23428 -23398 0
23428 23397 23398 0
-23399 -23400 0
-23399 -23401 0
23399 23400 23401 0
-23402 -23403 0
-23402 -23509 0
-23402 -23501 0
-23402 -23406 0
23402 23403 23509 23501 23406 0
-23407 -23408 0
-23407 -23409 0
23407 23408 23409 0
-23410 -23411 0
-23410 -23465 0
23410 23411 23465 0
-23438 -23414 0
-23438 -23415 0
-23438 -23416 0
23438 23414 23415 23416 0
-23417 -23418 0
-23417 -23419 0
-23417 -23420 0
23417 23418 23419 23420 0
-23421 -23422 0
-23421 -23465 0
-23421 -23424 0
-23421 -23425 0
23421 23422 23465 23424 23425 0
-23426 -23427 0
-23426 -23428 0
-23426 -23429 0
-23426 -23509 0
23426 23427 23428 23429 23509 0
-23431 -23432 0
-23431 -23433 0
23431 23432 23433 0
-23434 -23438 0
-23434 -23436 0
23434 23438 23436 0
-23437 -23438 0
-23437 -23465 0
-23437 -23440 0
23437 23438 23465 23440 0
-23441 -23449 0
-23441 -23448 0
-23441 -23444 0
23441 23449 23448 23444 0
-23445 -23446 0
-23445 -23447 0
-23445 -23448 0
-23445 -23449 0
23445 23446 23447 23448 23449 0
-23450 -23451 0
-23450 -23452 0
-23450 -23453 0
23450 23451 23452 23453 0
-23454 -23455 0
-23454 -23456 0
-23454 -23457 0
23454 23455 23456 23457 0
-23458 -23459 0
-23458 -23460 0
-23458 -23461 0
23458 23459 23460 23461 0
-23462 -23463 0
-23462 -23464 0
-23462 -23465 0
-23462 -23466 0
23462 23463 23464 23465 23466 0
-23467 -23468 0
-23467 -23469 0
-23467 -23470 0
-23467 -23471 0
23467 23468 23469 23470 23471 0
-23472 -23473 0
-23472 -23474 0
-23472 -23475 0
-23472 -23509 0
23472 23473 23474 23475 23509 0
-23477 -23478 0
-23477 -23479 0
23477 23478 23479 0
-23481 24340 0
23481 -24340 0
-23483 24529 0
23483 -24529 0
-23485 24465 0
23485 -24465 0
-23487 24609 0
23487 -24609 0
-23489 24500 0
23489 -24500 0
-23491 24577 0
23491 -24577 0
-23493 23492 0
23493 -23492 0
-23495 23494 0
23495 -23494 0
-23497 23496 0
23497 -23496 0
-23499 23498 0
23499 -23498 0
-23501 23500 0
23501 -23500 0
-23503 23502 0
23503 -23502 0
-23505 23504 0
23505 -23504 0
-23507 23506 0
23507 -23506 0
-23509 23508 0
23509 -23508 0
-23511 23510 0
23511 -23510 0
-23513 23512 0
23513 -23512 0
-23515 23514 0
23515 -23514 0
-23517 23516 0
23517 -23516 0
-23519 23518 0
23519 -23518 0
-23521 23520 0
23521 -23520 0
-23523 23522 0
23523 -23522 0
-23525 23524 0
23525 -23524 0
-23527 23526 0
23527 -23526 0
-23529 23528 0
23529 -23528 0
-23531 23530 0
23531 -23530 0
-23533 23532 0
23533 -23532 0
-23535 23534 0
23535 -23534 0
-23537 23536 0
23537 -23536 0
24475 24586 0
-24475 -24586 0
24546 23541 0
-24546 -23541 0
23738 23741 0
-23738 -23741 0
24009 23741 0
-24009 -23741 0
24456 24514 0
-24456 -24514 0
23740 24436 0
-23740 -24436 0
24629 24436 0
-24629 -24436 0
24126 24529 0
-24126 -24529 0
24426 24465 0
-24426 -24465 0
24379 24609 0
-24379 -24609 0
24133 24296 0
-24133 -24296 0
24382 24367 0
-24382 -24367 0
24430 24500 0
-24430 -24500 0
24145 24084 0
-24145 -24084 0
24390 24459 0
-24390 -24459 0
24416 24577 0
-24416 -24577 0
24580 24119 0
-24580 -24119 0
24560 24045 0
-24560 -24045 0
24260 24267 0
-24260 -24267 0
24428 24364 0
-24428 -24364 0
24551 24338 0
-24551 -24338 0
23762 24344 0
-23762 -24344 0
24574 24130 0
-24574 -24130 0
23769 24362 0
-23769 -24362 0
24566 24365 0
-24566 -24365 0
23937 24008 0
-23937 -24008 0
23815 24371 0
-23815 -24371 0
24289 24612 0
-24289 -24612 0
24147 24543 0
-24147 -24543 0
23919 24038 0
-23919 -24038 0
24607 24383 0
-24607 -24383 0
23910 24047 0
-23910 -24047 0
24492 24445 0
-24492 -24445 0
23783 24389 0
-23783 -24389 0
23918 24056 0
-23918 -24056 0
23921 24065 0
-23921 -24065 0
24603 24395 0
-24603 -24395 0
23925 24071 0
-23925 -24071 0
23998 24401 0
-23998 -24401 0
23850 24414 0
-23850 -24414 0
23986 24097 0
-23986 -24097 0
23793 24421 0
-23793 -24421 0
23796 24427 0
-23796 -24427 0
23812 24437 0
-23812 -24437 0
23938 24718 0
-23938 -24718 0
23872 24114 0
-23872 -24114 0
24750 24121 0
-24750 -24121 0
23821 24307 0
-23821 -24307 0
24252 24644 0
-24252 -24644 0
24243 24149 0
-24243 -24149 0
24681 24273 0
-24681 -24273 0
23836 24476 0
-23836 -24476 0
23848 24482 0
-23848 -24482 0
23979 24163 0
-23979 -24163 0
23946 24485 0
-23946 -24485 0
23838 24172 0
-23838 -24172 0
24584 24253 0
-24584 -24253 0
23847 24519 0
-23847 -24519 0
23968 24184 0
-23968 -24184 0
23971 24187 0
-23971 -24187 0
23851 24522 0
-23851 -24522 0
24306 24525 0
-24306 -24525 0
24256 24528 0
-24256 -24528 0
23853 24532 0
-23853 -24532 0
24591 24190 0
-24591 -24190 0
23859 24248 0
-23859 -24248 0
24724 24545 0
-24724 -24545 0
24596 24282 0
-24596 -24282 0
24309 24538 0
-24309 -24538 0
24680 24312 0
-24680 -24312 0
23878 24568 0
-23878 -24568 0
24286 24238 0
-24286 -24238 0
24605 24541 0
-24605 -24541 0
24280 24244 0
-24280 -24244 0
23976 24547 0
-23976 -24547 0
24279 24550 0
-24279 -24550 0
24631 24553 0
-24631 -24553 0
24686 24582 0
-24686 -24582 0
23988 24585 0
-23988 -24585 0
24708 24592 0
-24708 -24592 0
24663 24276 0
-24663 -24276 0
23994 24261 0
-23994 -24261 0
24667 24264 0
-24667 -24264 0
24318 24600 0
-24318 -24600 0
23885 24614 0
-23885 -24614 0
24710 24617 0
-24710 -24617 0
24671 24625 0
-24671 -24625 0
24676 24632 0
-24676 -24632 0
24714 24636 0
-24714 -24636 0
24728 24641 0
-24728 -24641 0
23997 24646 0
-23997 -24646 0
24738 24656 0
-24738 -24656 0
24744 24660 0
-24744 -24660 0
24685 24665 0
-24685 -24665 0
24694 24669 0
-24694 -24669 0
24324 24297 0
-24324 -24297 0
24726 24677 0
-24726 -24677 0
24333 24313 0
-24333 -24313 0
24712 24692 0
-24712 -24692 0
-24405 24436 0
-24405 23738 0
24405 -24436 -23738 0
-24406 23740 0
-24406 23741 0
24406 -23740 -23741 0
-24423 24500 0
-24423 24379 0
24423 -24500 -24379 0
-24531 24586 0
-24531 24379 0
24531 -24586 -24379 0
-24438 24236 0
-24438 24436 0
-24438 24379 0
24438 -24236 -24436 -24379 0
-24615 24475 0
-24615 24452 0
24615 -24475 -24452 0
-24527 24379 0
-24527 24497 0
24527 -24379 -24497 0
-24506 24379 0
-24506 24020 0
24506 -24379 -24020 0
-24478 23762 0
-24478 24053 0
24478 -23762 -24053 0
-24484 24041 0
-24484 24074 0
24484 -24041 -24074 0
-24487 24500 0
-24487 23769 0
24487 -24500 -23769 0
-24590 24577 0
-24590 24407 0
24590 -24577 -24407 0
-24503 24379 0
-24503 24094 0
24503 -24379 -24094 0
-24563 24104 0
-24563 24086 0
24563 -24104 -24086 0
-24642 24407 0
-24642 24607 0
24642 -24407 -24607 0
-24521 23783 0
-24521 24111 0
24521 -23783 -24111 0
-24679 24718 0
-24679 24586 0
24679 -24718 -24586 0
-24569 24165 0
-24569 24114 0
24569 -24165 -24114 0
-24537 24494 0
-24537 23793 0
24537 -24494 -23793 0
-24540 24449 0
-24540 23796 0
24540 -24449 -23796 0
-24593 24340 0
-24593 24463 0
24593 -24340 -24463 0
-24693 24574 0
-24693 24338 0
-24693 24463 0
24693 -24574 -24338 -24463 0
-24594 24466 0
-24594 24374 0
24594 -24466 -24374 0
-24688 24367 0
-24688 24466 0
24688 -24367 -24466 0
-24598 24359 0
-24598 23812 0
24598 -24359 -23812 0
-24623 24488 0
-24623 23815 0
24623 -24488 -23815 0
-24589 24488 0
-24589 24473 0
24589 -24488 -24473 0
-24635 24497 0
-24635 23821 0
24635 -24497 -23821 0
-24675 24383 0
-24675 24495 0
24675 -24383 -24495 0
-24683 24495 0
-24683 24395 0
24683 -24495 -24395 0
-24668 24507 0
-24668 24473 0
24668 -24507 -24473 0
-24552 24169 0
-24552 24101 0
24552 -24169 -24101 0
-24587 24181 0
-24587 23836 0
24587 -24181 -23836 0
-24599 23838 0
-24599 24560 0
24599 -23838 -24560 0
-24637 24541 0
-24637 24534 0
24637 -24541 -24534 0
-24672 24533 0
-24672 24541 0
24672 -24533 -24541 0
-24610 23847 0
-24610 23848 0
24610 -23847 -23848 0
-24613 23850 0
-24613 23851 0
24613 -23850 -23851 0
-24616 23853 0
-24616 24440 0
24616 -23853 -24440 0
-24618 24629 0
-24618 23859 0
24618 -24629 -23859 0
-24662 23859 0
-24662 24296 0
24662 -23859 -24296 0
-24624 24724 0
-24624 24436 0
24624 -24724 -24436 0
-24626 24547 0
-24626 24303 0
-24626 24267 0
24626 -24547 -24303 -24267 0
-24651 24553 0
-24651 24434 0
24651 -24553 -24434 0
-24655 23872 0
-24655 24553 0
24655 -23872 -24553 0
-24674 24068 0
-24674 24556 0
24674 -24068 -24556 0
-24661 23878 0
-24661 24434 0
24661 -23878 -24434 0
-24648 23976 0
-24648 24215 0
24648 -23976 -24215 0
-24678 24431 0
-24678 23885 0
24678 -24431 -23885 0
24185 -24267 0
24185 -24577 0
24185 -24119 0
-24185 24267 24577 24119 0
24098 -24577 0
24098 -24341 0
-24098 24577 24341 0
24242 -24260 0
24242 -24368 0
-24242 24260 24368 0
24265 -24115 0
24265 -24580 0
-24265 24115 24580 0
24164 -24579 0
24164 -24436 0
-24164 24579 24436 0
24167 -24452 0
24167 -24424 0
-24167 24452 24424 0
24170 -24377 0
24170 -24424 0
-24170 24377 24424 0
24173 -24577 0
24173 -23910 0
-24173 24577 23910 0
24176 -24529 0
24176 -24440 0
-24176 24529 24440 0
24179 -24465 0
24179 -24443 0
-24179 24465 24443 0
24182 -23918 0
24182 -23919 0
-24182 23918 23919 0
24186 -23921 0
24186 -24579 0
-24186 23921 24579 0
24191 -24340 0
24191 -23925 0
-24191 24340 23925 0
24194 -24374 0
24194 -24457 0
-24194 24374 24457 0
24292 -24416 0
24292 -24515 0
-24292 24416 24515 0
24239 -24475 0
24239 -24529 0
24239 -24518 0
-24239 24475 24529 24518 0
24329 -23937 0
24329 -23938 0
-24329 23937 23938 0
24245 -24523 0
24245 -24496 0
-24245 24523 24496 0
24270 -24296 0
24270 -24252 0
-24270 24296 24252 0
24251 -23946 0
24251 -24416 0
-24251 23946 24416 0
24255 -24545 0
24255 -24009 0
-24255 24545 24009 0
24315 -24545 0
24315 -24296 0
-24315 24545 24296 0
24298 -24193 0
24298 -24549 0
-24298 24193 24549 0
24275 -24565 0
24275 -24086 0
-24275 24565 24086 0
24269 -23979 0
24269 -24568 0
-24269 23979 24568 0
24272 -24114 0
24272 -24573 0
-24272 24114 24573 0
24322 -24149 0
24322 -23968 0
-24322 24149 23968 0
24314 -24499 0
24314 -23971 0
-24314 24499 23971 0
24278 -24605 0
24278 -24532 0
-24278 24605 24532 0
24323 -23976 0
24323 -24398 0
-24323 23976 24398 0
24326 -23979 0
24326 -24631 0
-24326 23979 24631 0
24285 -24612 0
24285 -24597 0
-24285 24612 24597 0
24288 -24608 0
24288 -23986 0
-24288 24608 23986 0
24291 -23988 0
24291 -24511 0
-24291 23988 24511 0
24295 -24643 0
24295 -24544 0
-24295 24643 24544 0
24302 -23994 0
24302 -24575 0
-24302 23994 24575 0
24332 -23997 0
24332 -23998 0
-24332 23997 23998 0
24236 24459 0
24236 24367 0
-24236 -24459 -24367 0
24130 24369 0
24130 24514 0
-24130 -24369 -24514 0
24446 24045 0
24446 24084 0
-24446 -24045 -24084 0
24008 24009 0
24008 24475 0
-24008 -24009 -24475 0
24630 24369 0
24630 24456 0
-24630 -24369 -24456 0
24539 24465 0
24539 24338 0
-24539 -24465 -24338 0
24497 24475 0
24497 24126 0
-24497 -24475 -24126 0
24020 24373 0
24020 24126 0
-24020 -24373 -24126 0
24517 24126 0
24517 24340 0
-24517 -24126 -24340 0
24448 24426 0
24448 24028 0
-24448 -24426 -24028 0
24612 24426 0
24612 24340 0
-24612 -24426 -24340 0
24494 24379 0
24494 24577 0
-24494 -24379 -24577 0
24543 24379 0
24543 24426 0
-24543 -24379 -24426 0
24038 24382 0
24038 24045 0
-24038 -24382 -24045 0
24041 24430 0
24041 24586 0
-24041 -24430 -24586 0
24602 24045 0
24602 24145 0
-24602 -24045 -24145 0
24047 24341 0
24047 24236 0
-24047 -24341 -24236 0
24445 24390 0
24445 24382 0
-24445 -24390 -24382 0
24053 24390 0
24053 24369 0
-24053 -24390 -24369 0
24056 24390 0
24056 24145 0
-24056 -24390 -24145 0
24559 24586 0
24559 24390 0
-24559 -24586 -24390 0
24449 24452 0
24449 24609 0
-24449 -24452 -24609 0
24065 24416 0
24065 24267 0
-24065 -24416 -24267 0
24068 24572 0
24068 24267 0
-24068 -24572 -24267 0
24071 24126 0
24071 24130 0
-24071 -24126 -24130 0
24074 24436 0
24074 24130 0
-24074 -24436 -24130 0
24455 24500 0
24455 24359 0
-24455 -24500 -24359 0
24115 24560 0
24115 24145 0
-24115 -24560 -24145 0
24579 24084 0
24579 24560 0
-24579 -24084 -24560 0
24086 24629 0
24086 24580 0
24086 24365 0
24086 24267 0
-24086 -24629 -24580 -24365 -24267 0
24165 24368 0
24165 24436 0
-24165 -24368 -24436 0
24094 24446 0
24094 24497 0
-24094 -24446 -24497 0
24097 24098 0
24097 24430 0
24097 24446 0
-24097 -24098 -24430 -24446 0
24101 24377 0
24101 24448 0
-24101 -24377 -24448 0
24104 24456 0
24104 24380 0
24104 24436 0
-24104 -24456 -24380 -24436 0
24464 24383 0
24464 24609 0
-24464 -24383 -24609 0
24111 24445 0
24111 24577 0
-24111 -24445 -24577 0
24114 24115 0
24114 24629 0
24114 24446 0
-24114 -24115 -24629 -24446 0
24303 24119 0
24303 24579 0
-24303 -24119 -24579 0
24121 24407 0
24121 24452 0
-24121 -24407 -24452 0
24493 24418 0
24493 24126 0
-24493 -24418 -24126 0
24307 24416 0
24307 24418 0
24307 24130 0
-24307 -24416 -24418 -24130 0
24496 24289 0
24496 24133 0
-24496 -24289 -24133 0
24499 24289 0
24499 24529 0
-24499 -24289 -24529 0
24509 24395 0
24509 24289 0
-24509 -24395 -24289 0
24511 24289 0
24511 24350 0
-24511 -24289 -24350 0
24515 24431 0
24515 24145 0
-24515 -24431 -24145 0
24518 24147 0
24518 24452 0
-24518 -24147 -24452 0
24149 24440 0
24149 24430 0
24149 24431 0
-24149 -24440 -24430 -24431 0
24273 24410 0
24273 24426 0
24273 24443 0
-24273 -24410 -24426 -24443 0
24523 24451 0
24523 24609 0
-24523 -24451 -24609 0
24530 24289 0
24530 24451 0
-24530 -24289 -24451 0
24163 24164 0
24163 24165 0
-24163 -24164 -24165 0
24293 24167 0
24293 24338 0
-24293 -24167 -24338 0
24169 24170 0
24169 24500 0
-24169 -24170 -24500 0
24172 24173 0
24172 24430 0
-24172 -24173 -24430 0
24542 24176 0
24542 24340 0
-24542 -24176 -24340 0
24253 24179 0
24253 24410 0
-24253 -24179 -24410 0
24181 24182 0
24181 24629 0
-24181 -24182 -24629 0
24184 24185 0
24184 24186 0
-24184 -24185 -24186 0
24187 24523 0
24187 24455 0
-24187 -24523 -24455 0
24190 24191 0
24190 24463 0
-24190 -24191 -24463 0
24193 24194 0
24193 24430 0
-24193 -24194 -24430 0
24248 24379 0
24248 24475 0
24248 24488 0
-24248 -24379 -24475 -24488 0
24545 24350 0
24545 24498 0
-24545 -24350 -24498 0
24334 24577 0
24334 24498 0
24334 24560 0
-24334 -24577 -24498 -24560 0
24282 24374 0
24282 24379 0
24282 24507 0
-24282 -24374 -24379 -24507 0
24549 24510 0
24549 24382 0
24549 24368 0
-24549 -24510 -24382 -24368 0
24215 24260 0
24215 24510 0
24215 24440 0
-24215 -24260 -24510 -24440 0
24312 24492 0
24312 24690 0
24312 24453 0
-24312 -24492 -24690 -24453 0
24557 24516 0
24557 24382 0
-24557 -24516 -24382 0
24565 24516 0
24565 24390 0
24565 24369 0
-24565 -24516 -24390 -24369 0
24568 24390 0
24568 24516 0
24568 24380 0
-24568 -24390 -24516 -24380 0
24573 24475 0
24573 24236 0
24573 24516 0
-24573 -24475 -24236 -24516 0
24238 24239 0
24238 24293 0
-24238 -24239 -24293 0
24581 24242 0
24581 24243 0
-24581 -24242 -24243 0
24244 24245 0
24244 24273 0
-24244 -24245 -24273 0
24730 24248 0
24730 24545 0
-24730 -24248 -24545 0
24700 24251 0
24700 24252 0
24700 24253 0
-24700 -24251 -24252 -24253 0
24722 24255 0
24722 24256 0
-24722 -24255 -24256 0
24276 24556 0
24276 24647 0
24276 24260 0
-24276 -24556 -24647 -24260 0
24261 24564 0
24261 24436 0
-24261 -24564 -24436 0
24264 24265 0
24264 24564 0
24264 24267 0
-24264 -24265 -24564 -24267 0
24634 24269 0
24634 24270 0
-24634 -24269 -24270 0
24640 24272 0
24640 24273 0
-24640 -24272 -24273 0
24752 24275 0
24752 24276 0
-24752 -24275 -24276 0
24702 24278 0
24702 24279 0
24702 24280 0
-24702 -24278 -24279 -24280 0
24720 24282 0
24720 24622 0
-24720 -24282 -24622 0
24732 24285 0
24732 24286 0
-24732 -24285 -24286 0
24305 24288 0
24305 24289 0
-24305 -24288 -24289 0
24734 24291 0
24734 24292 0
24734 24293 0
-24734 -24291 -24292 -24293 0
24310 24295 0
24310 24296 0
-24310 -24295 -24296 0
24297 24298 0
24297 24309 0
24297 24652 0
-24297 -24298 -24309 -24652 0
24316 24302 0
24316 24303 0
-24316 -24302 -24303 0
24689 24305 0
24689 24306 0
24689 24307 0
-24689 -24305 -24306 -24307 0
24742 24309 0
24742 24310 0
24742 24649 0
24742 24312 0
-24742 -24309 -24310 -24649 -24312 0
24313 24314 0
24313 24315 0
24313 24316 0
-24313 -24314 -24315 -24316 0
24704 24318 0
24704 24588 0
24704 24673 0
-24704 -24318 -24588 -24673 0
24736 24322 0
24736 24323 0
24736 24324 0
-24736 -24322 -24323 -24324 0
24706 24326 0
24706 24682 0
-24706 -24326 -24682 0
24696 24329 0
24696 24687 0
-24696 -24329 -24687 0
24698 24332 0
24698 24333 0
24698 24334 0
-24698 -24332 -24333 -24334 0
-24373 -24586 0
-24373 -24436 0
24373 24586 24436 0
-24338 -24529 0
-24338 -24340 0
24338 24529 24340 0
-24341 -24436 0
-24341 -24609 0
24341 24436 24609 0
-24344 -24367 0
-24344 -24514 0
24344 24367 24514 0
-24452 -24577 0
-24452 -24500 0
24452 24577 24500 0
-24350 -24609 0
-24350 -24577 0
24350 24609 24577 0
-24748 -24459 0
-24748 -24472 0
24748 24459 24472 0
-24572 -24369 0
-24572 -24514 0
24572 24369 24514 0
-24359 -24577 0
-24359 -24369 0
24359 24577 24369 0
-24362 -24609 0
-24362 -24364 0
24362 24609 24364 0
-24365 -24475 0
-24365 -24367 0
24365 24475 24367 0
-24368 -24369 0
-24368 -24456 0
24368 24369 24456 0
-24371 -24609 0
-24371 -24373 0
24371 24609 24373 0
-24374 -24586 0
-24374 -24629 0
24374 24586 24629 0
-24377 -24577 0
-24377 -24379 0
24377 24577 24379 0
-24380 -24586 0
-24380 -24382 0
24380 24586 24382 0
-24383 -24577 0
-24383 -24430 0
24383 24577 24430 0
-24746 -24390 0
-24746 -24472 0
24746 24390 24472 0
-24389 -24390 0
-24389 -24430 0
24389 24390 24430 0
-24453 -24430 0
-24453 -24416 0
24453 24430 24416 0
-24395 -24416 0
-24395 -24500 0
24395 24416 24500 0
-24398 -24500 0
-24398 -24580 0
24398 24500 24580 0
-24401 -24560 0
-24401 -24500 0
24401 24560 24500 0
-24647 -24405 0
-24647 -24406 0
24647 24405 24406 0
-24407 -24539 0
-24407 -24609 0
24407 24539 24609 0
-24410 -24500 0
-24410 -24551 0
-24410 -24609 0
24410 24500 24551 24609 0
-24414 -24497 0
-24414 -24416 0
-24414 -24500 0
24414 24497 24416 24500 0
-24418 -24612 0
-24418 -24430 0
24418 24612 24430 0
-24421 -24577 0
-24421 -24423 0
24421 24577 24423 0
-24424 -24494 0
-24424 -24426 0
24424 24494 24426 0
-24427 -24428 0
-24427 -24494 0
-24427 -24430 0
24427 24428 24494 24430 0
-24431 -24517 0
-24431 -24543 0
24431 24517 24543 0
-24434 -24602 0
-24434 -24436 0
24434 24602 24436 0
-24437 -24438 0
-24437 -24500 0
24437 24438 24500 0
-24440 -24445 0
-24440 -24475 0
24440 24445 24475 0
-24443 -24577 0
-24443 -24445 0
-24443 -24446 0
24443 24577 24445 24446 0
-24718 -24448 0
-24718 -24449 0
-24718 -24551 0
24718 24448 24449 24551 0
-24451 -24452 0
-24451 -24453 0
24451 24452 24453 0
-24533 -24455 0
-24533 -24456 0
24533 24455 24456 0
-24457 -24579 0
-24457 -24459 0
24457 24579 24459 0
-24644 -24464 0
-24644 -24539 0
24644 24464 24539 0
-24463 -24464 0
-24463 -24465 0
24463 24464 24465 0
-24466 -24529 0
-24466 -24607 0
-24466 -24612 0
24466 24529 24607 24612 0
-24740 -24492 0
-24740 -24472 0
24740 24492 24472 0
-24473 -24492 0
-24473 -24475 0
24473 24492 24475 0
-24476 -24629 0
-24476 -24478 0
24476 24629 24478 0
-24534 -24603 0
-24534 -24579 0
24534 24603 24579 0
-24482 -24577 0
-24482 -24484 0
24482 24577 24484 0
-24485 -24539 0
-24485 -24487 0
24485 24539 24487 0
-24488 -24577 0
-24488 -24493 0
24488 24577 24493 0
-24633 -24492 0
-24633 -24493 0
-24633 -24494 0
24633 24492 24493 24494 0
-24495 -24496 0
-24495 -24497 0
24495 24496 24497 0
-24498 -24499 0
-24498 -24500 0
24498 24499 24500 0
-24666 -24509 0
-24666 -24503 0
24666 24509 24503 0
-24621 -24509 0
-24621 -24506 0
24621 24509 24506 0
-24507 -24529 0
-24507 -24509 0
24507 24529 24509 0
-24510 -24511 0
-24510 -24529 0
24510 24511 24529 0
-24690 -24514 0
-24690 -24515 0
24690 24514 24515 0
-24516 -24517 0
-24516 -24518 0
24516 24517 24518 0
-24519 -24529 0
-24519 -24521 0
24519 24529 24521 0
-24522 -24523 0
-24522 -24529 0
24522 24523 24529 0
-24525 -24530 0
-24525 -24527 0
24525 24530 24527 0
-24528 -24529 0
-24528 -24530 0
-24528 -24531 0
24528 24529 24530 24531 0
-24532 -24533 0
-24532 -24534 0
24532 24533 24534 0
-24716 -24539 0
-24716 -24537 0
24716 24539 24537 0
-24538 -24539 0
-24538 -24540 0
24538 24539 24540 0
-24541 -24542 0
-24541 -24543 0
24541 24542 24543 0
-24544 -24545 0
-24544 -24546 0
24544 24545 24546 0
-24547 -24559 0
-24547 -24549 0
24547 24559 24549 0
-24550 -24551 0
-24550 -24552 0
24550 24551 24552 0
-24553 -24557 0
-24553 -24586 0
24553 24557 24586 0
-24556 -24557 0
-24556 -24580 0
-24556 -24559 0
-24556 -24560 0
24556 24557 24580 24559 24560 0
-24664 -24565 0
-24664 -24563 0
24664 24565 24563 0
-24564 -24565 0
-24564 -24566 0
24564 24565 24566 0
-24659 -24568 0
-24659 -24569 0
24659 24568 24569 0
-24670 -24629 0
-24670 -24572 0
-24670 -24573 0
-24670 -24574 0
24670 24629 24572 24573 24574 0
-24575 -24581 0
-24575 -24577 0
24575 24581 24577 0
-24639 -24579 0
-24639 -24580 0
-24639 -24581 0
24639 24579 24580 24581 0
-24582 -24633 0
-24582 -24584 0
24582 24633 24584 0
-24585 -24586 0
-24585 -24587 0
24585 24586 24587 0
-24588 -24589 0
-24588 -24590 0
-24588 -24591 0
24588 24589 24590 24591 0
-24592 -24593 0
-24592 -24594 0
-24592 -24724 0
-24592 -24596 0
24592 24593 24594 24724 24596 0
-24597 -24598 0
-24597 -24599 0
24597 24598 24599 0
-24600 -24605 0
-24600 -24602 0
-24600 -24603 0
24600 24605 24602 24603 0
-24684 -24605 0
-24684 -24630 0
-24684 -24607 0
24684 24605 24630 24607 0
-24608 -24609 0
-24608 -24610 0
24608 24609 24610 0
-24643 -24612 0
-24643 -24613 0
24643 24612 24613 0
-24614 -24615 0
-24614 -24616 0
24614 24615 24616 0
-24617 -24618 0
-24617 -24724 0
-24617 -24716 0
-24617 -24621 0
24617 24618 24724 24716 24621 0
-24622 -24623 0
-24622 -24624 0
24622 24623 24624 0
-24625 -24626 0
-24625 -24680 0
24625 24626 24680 0
-24653 -24629 0
-24653 -24630 0
-24653 -24631 0
24653 24629 24630 24631 0
-24632 -24633 0
-24632 -24634 0
-24632 -24635 0
24632 24633 24634 24635 0
-24636 -24637 0
-24636 -24680 0
-24636 -24639 0
-24636 -24640 0
24636 24637 24680 24639 24640 0
-24641 -24642 0
-24641 -24643 0
-24641 -24644 0
-24641 -24724 0
24641 24642 24643 24644 24724 0
-24646 -24647 0
-24646 -24648 0
24646 24647 24648 0
-24649 -24653 0
-24649 -24651 0
24649 24653 24651 0
-24652 -24653 0
-24652 -24680 0
-24652 -24655 0
24652 24653 24680 24655 0
-24656 -24664 0
-24656 -24663 0
-24656 -24659 0
24656 24664 24663 24659 0
-24660 -24661 0
-24660 -24662 0
-24660 -24663 0
-24660 -24664 0
24660 24661 24662 24663 24664 0
-24665 -24666 0
-24665 -24667 0
-24665 -24668 0
24665 24666 24667 24668 0
-24669 -24670 0
-24669 -24671 0
-24669 -24672 0
24669 24670 24671 24672 0
-24673 -24674 0
-24673 -24675 0
-24673 -24676 0
24673 24674 24675 24676 0
-24677 -24678 0
-24677 -24679 0
-24677 -24680 0
-24677 -24681 0
24677 24678 24679 24680 24681 0
-24682 -24683 0
-24682 -24684 0
-24682 -24685 0
-24682 -24686 0
24682 24683 24684 24685 24686 0
-24687 -24688 0
-24687 -24689 0
-24687 -24690 0
-24687 -24724 0
24687 24688 24689 24690 24724 0
-24692 -24693 0
-24692 -24694 0
24692 24693 24694 0
-24696 25555 0
24696 -25555 0
-24698 25744 0
24698 -25744 0
-24700 25680 0
24700 -25680 0
-24702 25824 0
24702 -25824 0
-24704 25715 0
24704 -25715 0
-24706 25792 0
24706 -25792 0
-24708 24707 0
24708 -24707 0
-24710 24709 0
24710 -24709 0
-24712 24711 0
24712 -24711 0
-24714 24713 0
24714 -24713 0
-24716 24715 0
24716 -24715 0
-24718 24717 0
24718 -24717 0
-24720 24719 0
24720 -24719 0
-24722 24721 0
24722 -24721 0
-24724 24723 0
24724 -24723 0
-24726 24725 0
24726 -24725 0
-24728 24727 0
24728 -24727 0
-24730 24729 0
24730 -24729 0
-24732 24731 0
24732 -24731 0
-24734 24733 0
24734 -24733 0
-24736 24735 0
24736 -24735 0
-24738 24737 0
24738 -24737 0
-24740 24739 0
24740 -24739 0
-24742 24741 0
24742 -24741 0
-24744 24743 0
24744 -24743 0
-24746 24745 0
24746 -24745 0
-24748 24747 0
24748 -24747 0
-24750 24749 0
24750 -24749 0
-24752 24751 0
24752 -24751 0
25690 25801 0
-25690 -25801 0
25761 24756 0
-25761 -24756 0
24953 24956 0
-24953 -24956 0
25224 24956 0
-25224 -24956 0
25671 25729 0
-25671 -25729 0
24955 25651 0
-24955 -25651 0
25844 25651 0
-25844 -25651 0
25341 25744 0
-25341 -25744 0
25641 25680 0
-25641 -25680 0
25594 25824 0
-25594 -25824 0
25348 25511 0
-25348 -25511 0
25597 25582 0
-25597 -25582 0
25645 25715 0
-25645 -25715 0
25360 25299 0
-25360 -25299 0
25605 25674 0
-25605 -25674 0
25631 25792 0
-25631 -25792 0
25795 25334 0
-25795 -25334 0
25775 25260 0
-25775 -25260 0
25475 25482 0
-25475 -25482 0
25643 25579 0
-25643 -25579 0
25766 25553 0
-25766 -25553 0
24977 25559 0
-24977 -25559 0
25789 25345 0
-25789 -25345 0
24984 25577 0
-24984 -25577 0
25781 25580 0
-25781 -25580 0
25152 25223 0
-25152 -25223 0
25030 25586 0
-25030 -25586 0
25504 25827 0
-25504 -25827 0
25362 25758 0
-25362 -25758 0
25134 25253 0
-25134 -25253 0
25822 25598 0
-25822 -25598 0
25125 25262 0
-25125 -25262 0
25707 25660 0
-25707 -25660 0
24998 25604 0
-24998 -25604 0
25133 25271 0
-25133 -25271 0
25136 25280 0
-25136 -25280 0
25818 25610 0
-25818 -25610 0
25140 25286 0
-25140 -25286 0
25213 25616 0
-25213 -25616 0
25065 25629 0
-25065 -25629 0
25201 25312 0
-25201 -25312 0
25008 25636 0
-25008 -25636 0
25011 25642 0
-25011 -25642 0
25027 25652 0
-25027 -25652 0
25153 25933 0
-25153 -25933 0
25087 25329 0
-25087 -25329 0
25965 25336 0
-25965 -25336 0
25036 25522 0
-25036 -25522 0
25467 25859 0
-25467 -25859 0
25458 25364 0
-25458 -25364 0
25896 25488 0
-25896 -25488 0
25051 25691 0
-25051 -25691 0
25063 25697 0
-25063 -25697 0
25194 25378 0
-25194 -25378 0
25161 25700 0
-25161 -25700 0
25053 25387 0
-25053 -25387 0
25799 25468 0
-25799 -25468 0
25062 25734 0
-25062 -25734 0
25183 25399 0
-25183 -25399 0
25186 25402 0
-25186 -25402 0
25066 25737 0
-25066 -25737 0
25521 25740 0
-25521 -25740 0
25471 25743 0
-25471 -25743 0
25068 25747 0
-25068 -25747 0
25806 25405 0
-25806 -25405 0
25074 25463 0
-25074 -25463 0
25939 25760 0
-25939 -25760 0
25811 25497 0
-25811 -25497 0
25524 25753 0
-25524 -25753 0
25895 25527 0
-25895 -25527 0
25093 25783 0
-25093 -25783 0
25501 25453 0
-25501 -25453 0
25820 25756 0
-25820 -25756 0
25495 25459 0
-25495 -25459 0
25191 25762 0
-25191 -25762 0
25494 25765 0
-25494 -25765 0
25846 25768 0
-25846 -25768 0
25901 25797 0
-25901 -25797 0
25203 25800 0
-25203 -25800 0
25923 25807 0
-25923 -25807 0
25878 25491 0
-25878 -25491 0
25209 25476 0
-25209 -25476 0
25882 25479 0
-25882 -25479 0
25533 25815 0
-25533 -25815 0
25100 25829 0
-25100 -25829 0
25925 25832 0
-25925 -25832 0
25886 25840 0
-25886 -25840 0
25891 25847 0
-25891 -25847 0
25929 25851 0
-25929 -25851 0
25943 25856 0
-25943 -25856 0
25212 25861 0
-25212 -25861 0
25953 25871 0
-25953 -25871 0
25959 25875 0
-25959 -25875 0
25900 25880 0
-25900 -25880 0
25909 25884 0
-25909 -25884 0
25539 25512 0
-25539 -25512 0
25941 25892 0
-25941 -25892 0
25548 25528 0
-25548 -25528 0
25927 25907 0
-25927 -25907 0
-25620 25651 0
-25620 24953 0
25620 -25651 -24953 0
-25621 24955 0
-25621 24956 0
25621 -24955 -24956 0
-25638 25715 0
-25638 25594 0
25638 -25715 -25594 0
-25746 25801 0
-25746 25594 0
25746 -25801 -25594 0
-25653 25451 0
-25653 25651 0
-25653 25594 0
25653 -25451 -25651 -25594 0
-25830 25690 0
-25830 25667 0
25830 -25690 -25667 0
-25742 25594 0
-25742 25712 0
25742 -25594 -25712 0
-25721 25594 0
-25721 25235 0
25721 -25594 -25235 0
-25693 24977 0
-25693 25268 0
25693 -24977 -25268 0
-25699 25256 0
-25699 25289 0
25699 -25256 -25289 0
-25702 25715 0
-25702 24984 0
25702 -25715 -24984 0
-25805 25792 0
-25805 25622 0
25805 -25792 -25622 0
-25718 25594 0
-25718 25309 0
25718 -25594 -25309 0
-25778 25319 0
-25778 25301 0
25778 -25319 -25301 0
-25857 25622 0
-25857 25822 0
25857 -25622 -25822 0
-25736 24998 0
-25736 25326 0
25736 -24998 -25326 0
-25894 25933 0
-25894 25801 0
25894 -25933 -25801 0
-25784 25380 0
-25784 25329 0
25784 -25380 -25329 0
-25752 25709 0
-25752 25008 0
25752 -25709 -25008 0
-25755 25664 0
-25755 25011 0
25755 -25664 -25011 0
-25808 25555 0
-25808 25678 0
25808 -25555 -25678 0
-25908 25789 0
-25908 25553 0
-25908 25678 0
25908 -25789 -25553 -25678 0
-25809 25681 0
-25809 25589 0
25809 -25681 -25589 0
-25903 25582 0
-25903 25681 0
25903 -25582 -25681 0
-25813 25574 0
-25813 25027 0
25813 -25574 -25027 0
-25838 25703 0
-25838 25030 0
25838 -25703 -25030 0
-25804 25703 0
-25804 25688 0
25804 -25703 -25688 0
-25850 25712 0
-25850 25036 0
25850 -25712 -25036 0
-25890 25598 0
-25890 25710 0
25890 -25598 -25710 0
-25898 25710 0
-25898 25610 0
25898 -25710 -25610 0
-25883 25722 0
-25883 25688 0
25883 -25722 -25688 0
-25767 25384 0
-25767 25316 0
25767 -25384 -25316 0
-25802 25396 0
-25802 25051 0
25802 -25396 -25051 0
-25814 25053 0
-25814 25775 0
25814 -25053 -25775 0
-25852 25756 0
-25852 25749 0
25852 -25756 -25749 0
-25887 25748 0
-25887 25756 0
25887 -25748 -25756 0
-25825 25062 0
-25825 25063 0
25825 -25062 -25063 0
-25828 25065 0
-25828 25066 0
25828 -25065 -25066 0
-25831 25068 0
-25831 25655 0
25831 -25068 -25655 0
-25833 25844 0
-25833 25074 0
25833 -25844 -25074 0
-25877 25074 0
-25877 25511 0
25877 -25074 -25511 0
-25839 25939 0
-25839 25651 0
25839 -25939 -25651 0
-25841 25762 0
-25841 25518 0
-25841 25482 0
25841 -25762 -25518 -25482 0
-25866 25768 0
-25866 25649 0
25866 -25768 -25649 0
-25870 25087 0
-25870 25768 0
25870 -25087 -25768 0
-25889 25283 0
-25889 25771 0
25889 -25283 -25771 0
-25876 25093 0
-25876 25649 0
25876 -25093 -25649 0
-25863 25191 0
-25863 25430 0
25863 -25191 -25430 0
-25893 25646 0
-25893 25100 0
25893 -25646 -25100 0
25400 -25482 0
25400 -25792 0
25400 -25334 0
-25400 25482 25792 25334 0
25313 -25792 0
25313 -25556 0
-25313 25792 25556 0
25457 -25475 0
25457 -25583 0
-25457 25475 25583 0
25480 -25330 0
25480 -25795 0
-25480 25330 25795 0
25379 -25794 0
25379 -25651 0
-25379 25794 25651 0
25382 -25667 0
25382 -25639 0
-25382 25667 25639 0
25385 -25592 0
25385 -25639 0
-25385 25592 25639 0
25388 -25792 0
25388 -25125 0
-25388 25792 25125 0
25391 -25744 0
25391 -25655 0
-25391 25744 25655 0
25394 -25680 0
25394 -25658 0
-25394 25680 25658 0
25397 -25133 0
25397 -25134 0
-25397 25133 25134 0
25401 -25136 0
25401 -25794 0
-25401 25136 25794 0
25406 -25555 0
25406 -25140 0
-25406 25555 25140 0
25409 -25589 0
25409 -25672 0
-25409 25589 25672 0
25507 -25631 0
25507 -25730 0
-25507 25631 25730 0
25454 -25690 0
25454 -25744 0
25454 -25733 0
-25454 25690 25744 25733 0
25544 -25152 0
25544 -25153 0
-25544 25152 25153 0
25460 -25738 0
25460 -25711 0
-25460 25738 25711 0
25485 -25511 0
25485 -25467 0
-25485 25511 25467 0
25466 -25161 0
25466 -25631 0
-25466 25161 25631 0
25470 -25760 0
25470 -25224 0
-25470 25760 25224 0
25530 -25760 0
25530 -25511 0
-25530 25760 25511 0
25513 -25408 0
25513 -25764 0
-25513 25408 25764 0
25490 -25780 0
25490 -25301 0
-25490 25780 25301 0
25484 -25194 0
25484 -25783 0
-25484 25194 25783 0
25487 -25329 0
25487 -25788 0
-25487 25329 25788 0
25537 -25364 0
25537 -25183 0
-25537 25364 25183 0
25529 -25714 0
25529 -25186 0
-25529 25714 25186 0
25493 -25820 0
25493 -25747 0
-25493 25820 25747 0
25538 -25191 0
25538 -25613 0
-25538 25191 25613 0
25541 -25194 0
25541 -25846 0
-25541 25194 25846 0
25500 -25827 0
25500 -25812 0
-25500 25827 25812 0
25503 -25823 0
25503 -25201 0
-25503 25823 25201 0
25506 -25203 0
25506 -25726 0
-25506 25203 25726 0
25510 -25858 0
25510 -25759 0
-25510 25858 25759 0
25517 -25209 0
25517 -25790 0
-25517 25209 25790 0
25547 -25212 0
25547 -25213 0
-25547 25212 25213 0
25451 25674 0
25451 25582 0
-25451 -25674 -25582 0
25345 25584 0
25345 25729 0
-25345 -25584 -25729 0
25661 25260 0
25661 25299 0
-25661 -25260 -25299 0
25223 25224 0
25223 25690 0
-25223 -25224 -25690 0
25845 25584 0
25845 25671 0
-25845 -25584 -25671 0
25754 25680 0
25754 25553 0
-25754 -25680 -25553 0
25712 25690 0
25712 25341 0
-25712 -25690 -25341 0
25235 25588 0
25235 25341 0
-25235 -25588 -25341 0
25732 25341 0
25732 25555 0
-25732 -25341 -25555 0
25663 25641 0
25663 25243 0
-25663 -25641 -25243 0
25827 25641 0
25827 25555 0
-25827 -25641 -25555 0
25709 25594 0
25709 25792 0
-25709 -25594 -25792 0
25758 25594 0
25758 25641 0
-25758 -25594 -25641 0
25253 25597 0
25253 25260 0
-25253 -25597 -25260 0
25256 25645 0
25256 25801 0
-25256 -25645 -25801 0
25817 25260 0
25817 25360 0
-25817 -25260 -25360 0
25262 25556 0
25262 25451 0
-25262 -25556 -25451 0
25660 25605 0
25660 25597 0
-25660 -25605 -25597 0
25268 25605 0
25268 25584 0
-25268 -25605 -25584 0
25271 25605 0
25271 25360 0
-25271 -25605 -25360 0
25774 25801 0
25774 25605 0
-25774 -25801 -25605 0
25664 25667 0
25664 25824 0
-25664 -25667 -25824 0
25280 25631 0
25280 25482 0
-25280 -25631 -25482 0
25283 25787 0
25283 25482 0
-25283 -25787 -25482 0
25286 25341 0
25286 25345 0
-25286 -25341 -25345 0
25289 25651 0
25289 25345 0
-25289 -25651 -25345 0
25670 25715 0
25670 25574 0
-25670 -25715 -25574 0
25330 25775 0
25330 25360 0
-25330 -25775 -25360 0
25794 25299 0
25794 25775 0
-25794 -25299 -25775 0
25301 25844 0
25301 25795 0
25301 25580 0
25301 25482 0
-25301 -25844 -25795 -25580 -25482 0
25380 25583 0
25380 25651 0
-25380 -25583 -25651 0
25309 25661 0
25309 25712 0
-25309 -25661 -25712 0
25312 25313 0
25312 25645 0
25312 25661 0
-25312 -25313 -25645 -25661 0
25316 25592 0
25316 25663 0
-25316 -25592 -25663 0
25319 25671 0
25319 25595 0
25319 25651 0
-25319 -25671 -25595 -25651 0
25679 25598 0
25679 25824 0
-25679 -25598 -25824 0
25326 25660 0
25326 25792 0
-25326 -25660 -25792 0
25329 25330 0
25329 25844 0
25329 25661 0
-25329 -25330 -25844 -25661 0
25518 25334 0
25518 25794 0
-25518 -25334 -25794 0
25336 25622 0
25336 25667 0
-25336 -25622 -25667 0
25708 25633 0
25708 25341 0
-25708 -25633 -25341 0
25522 25631 0
25522 25633 0
25522 25345 0
-25522 -25631 -25633 -25345 0
25711 25504 0
25711 25348 0
-25711 -25504 -25348 0
25714 25504 0
25714 25744 0
-25714 -25504 -25744 0
25724 25610 0
25724 25504 0
-25724 -25610 -25504 0
25726 25504 0
25726 25565 0
-25726 -25504 -25565 0
25730 25646 0
25730 25360 0
-25730 -25646 -25360 0
25733 25362 0
25733 25667 0
-25733 -25362 -25667 0
25364 25655 0
25364 25645 0
25364 25646 0
-25364 -25655 -25645 -25646 0
25488 25625 0
25488 25641 0
25488 25658 0
-25488 -25625 -25641 -25658 0
25738 25666 0
25738 25824 0
-25738 -25666 -25824 0
25745 25504 0
25745 25666 0
-25745 -25504 -25666 0
25378 25379 0
25378 25380 0
-25378 -25379 -25380 0
25508 25382 0
25508 25553 0
-25508 -25382 -25553 0
25384 25385 0
25384 25715 0
-25384 -25385 -25715 0
25387 25388 0
25387 25645 0
-25387 -25388 -25645 0
25757 25391 0
25757 25555 0
-25757 -25391 -25555 0
25468 25394 0
25468 25625 0
-25468 -25394 -25625 0
25396 25397 0
25396 25844 0
-25396 -25397 -25844 0
25399 25400 0
25399 25401 0
-25399 -25400 -25401 0
25402 25738 0
25402 25670 0
-25402 -25738 -25670 0
25405 25406 0
25405 25678 0
-25405 -25406 -25678 0
25408 25409 0
25408 25645 0
-25408 -25409 -25645 0
25463 25594 0
25463 25690 0
25463 25703 0
-25463 -25594 -25690 -25703 0
25760 25565 0
25760 25713 0
-25760 -25565 -25713 0
25549 25792 0
25549 25713 0
25549 25775 0
-25549 -25792 -25713 -25775 0
25497 25589 0
25497 25594 0
25497 25722 0
-25497 -25589 -25594 -25722 0
25764 25725 0
25764 25597 0
25764 25583 0
-25764 -25725 -25597 -25583 0
25430 25475 0
25430 25725 0
25430 25655 0
-25430 -25475 -25725 -25655 0
25527 25707 0
25527 25905 0
25527 25668 0
-25527 -25707 -25905 -25668 0
25772 25731 0
25772 25597 0
-25772 -25731 -25597 0
25780 25731 0
25780 25605 0
25780 25584 0
-25780 -25731 -25605 -25584 0
25783 25605 0
25783 25731 0
25783 25595 0
-25783 -25605 -25731 -25595 0
25788 25690 0
25788 25451 0
25788 25731 0
-25788 -25690 -25451 -25731 0
25453 25454 0
25453 25508 0
-25453 -25454 -25508 0
25796 25457 0
25796 25458 0
-25796 -25457 -25458 0
25459 25460 0
25459 25488 0
-25459 -25460 -25488 0
25945 25463 0
25945 25760 0
-25945 -25463 -25760 0
25915 25466 0
25915 25467 0
25915 25468 0
-25915 -25466 -25467 -25468 0
25937 25470 0
25937 25471 0
-25937 -25470 -25471 0
25491 25771 0
25491 25862 0
25491 25475 0
-25491 -25771 -25862 -25475 0
25476 25779 0
25476 25651 0
-25476 -25779 -25651 0
25479 25480 0
25479 25779 0
25479 25482 0
-25479 -25480 -25779 -25482 0
25849 25484 0
25849 25485 0
-25849 -25484 -25485 0
25855 25487 0
25855 25488 0
-25855 -25487 -25488 0
25967 25490 0
25967 25491 0
-25967 -25490 -25491 0
25917 25493 0
25917 25494 0
25917 25495 0
-25917 -25493 -25494 -25495 0
25935 25497 0
25935 25837 0
-25935 -25497 -25837 0
25947 25500 0
25947 25501 0
-25947 -25500 -25501 0
25520 25503 0
25520 25504 0
-25520 -25503 -25504 0
25949 25506 0
25949 25507 0
25949 25508 0
-25949 -25506 -25507 -25508 0
25525 25510 0
25525 25511 0
-25525 -25510 -25511 0
25512 25513 0
25512 25524 0
25512 25867 0
-25512 -25513 -25524 -25867 0
25531 25517 0
25531 25518 0
-25531 -25517 -25518 0
25904 25520 0
25904 25521 0
25904 25522 0
-25904 -25520 -25521 -25522 0
25957 25524 0
25957 25525 0
25957 25864 0
25957 25527 0
-25957 -25524 -25525 -25864 -25527 0
25528 25529 0
25528 25530 0
25528 25531 0
-25528 -25529 -25530 -25531 0
25919 25533 0
25919 25803 0
25919 25888 0
-25919 -25533 -25803 -25888 0
25951 25537 0
25951 25538 0
25951 25539 0
-25951 -25537 -25538 -25539 0
25921 25541 0
25921 25897 0
-25921 -25541 -25897 0
25911 25544 0
25911 25902 0
-25911 -25544 -25902 0
25913 25547 0
25913 25548 0
25913 25549 0
-25913 -25547 -25548 -25549 0
-25588 -25801 0
-25588 -25651 0
25588 25801 25651 0
-25553 -25744 0
-25553 -25555 0
25553 25744 25555 0
-25556 -25651 0
-25556 -25824 0
25556 25651 25824 0
-25559 -25582 0
-25559 -25729 0
25559 25582 25729 0
-25667 -25792 0
-25667 -25715 0
25667 25792 25715 0
-25565 -25824 0
-25565 -25792 0
25565 25824 25792 0
-25963 -25674 0
-25963 -25687 0
25963 25674 25687 0
-25787 -25584 0
-25787 -25729 0
25787 25584 25729 0
-25574 -25792 0
-25574 -25584 0
25574 25792 25584 0
-25577 -25824 0
-25577 -25579 0
25577 25824 25579 0
-25580 -25690 0
-25580 -25582 0
25580 25690 25582 0
-25583 -25584 0
-25583 -25671 0
25583 25584 25671 0
-25586 -25824 0
-25586 -25588 0
25586 25824 25588 0
-25589 -25801 0
-25589 -25844 0
25589 25801 25844 0
-25592 -25792 0
-25592 -25594 0
25592 25792 25594 0
-25595 -25801 0
-25595 -25597 0
25595 25801 25597 0
-25598 -25792 0
-25598 -25645 0
25598 25792 25645 0
-25961 -25605 0
-25961 -25687 0
25961 25605 25687 0
-25604 -25605 0
-25604 -25645 0
25604 25605 25645 0
-25668 -25645 0
-25668 -25631 0
25668 25645 25631 0
-25610 -25631 0
-25610 -25715 0
25610 25631 25715 0
-25613 -25715 0
-25613 -25795 0
25613 25715 25795 0
-25616 -25775 0
-25616 -25715 0
25616 25775 25715 0
-25862 -25620 0
-25862 -25621 0
25862 25620 25621 0
-25622 -25754 0
-25622 -25824 0
25622 25754 25824 0
-25625 -25715 0
-25625 -25766 0
-25625 -25824 0
25625 25715 25766 25824 0
-25629 -25712 0
-25629 -25631 0
-25629 -25715 0
25629 25712 25631 25715 0
-25633 -25827 0
-25633 -25645 0
25633 25827 25645 0
-25636 -25792 0
-25636 -25638 0
25636 25792 25638 0
-25639 -25709 0
-25639 -25641 0
25639 25709 25641 0
-25642 -25643 0
-25642 -25709 0
-25642 -25645 0
25642 25643 25709 25645 0
-25646 -25732 0
-25646 -25758 0
25646 25732 25758 0
-25649 -25817 0
-25649 -25651 0
25649 25817 25651 0
-25652 -25653 0
-25652 -25715 0
25652 25653 25715 0
-25655 -25660 0
-25655 -25690 0
25655 25660 25690 0
-25658 -25792 0
-25658 -25660 0
-25658 -25661 0
25658 25792 25660 25661 0
-25933 -25663 0
-25933 -25664 0
-25933 -25766 0
25933 25663 25664 25766 0
-25666 -25667 0
-25666 -25668 0
25666 25667 25668 0
-25748 -25670 0
-25748 -25671 0
25748 25670 25671 0
-25672 -25794 0
-25672 -25674 0
25672 25794 25674 0
-25859 -25679 0
-25859 -25754 0
25859 25679 25754 0
-25678 -25679 0
-25678 -25680 0
25678 25679 25680 0
-25681 -25744 0
-25681 -25822 0
-25681 -25827 0
25681 25744 25822 25827 0
-25955 -25707 0
-25955 -25687 0
25955 25707 25687 0
-25688 -25707 0
-25688 -25690 0
25688 25707 25690 0
-25691 -25844 0
-25691 -25693 0
25691 25844 25693 0
-25749 -25818 0
-25749 -25794 0
25749 25818 25794 0
-25697 -25792 0
-25697 -25699 0
25697 25792 25699 0
-25700 -25754 0
-25700 -25702 0
25700 25754 25702 0
-25703 -25792 0
-25703 -25708 0
25703 25792 25708 0
-25848 -25707 0
-25848 -25708 0
-25848 -25709 0
25848 25707 25708 25709 0
-25710 -25711 0
-25710 -25712 0
25710 25711 25712 0
-25713 -25714 0
-25713 -25715 0
25713 25714 25715 0
-25881 -25724 0
-25881 -25718 0
25881 25724 25718 0
-25836 -25724 0
-25836 -25721 0
25836 25724 25721 0
-25722 -25744 0
-25722 -25724 0
25722 25744 25724 0
-25725 -25726 0
-25725 -25744 0
25725 25726 25744 0
-25905 -25729 0
-25905 -25730 0
25905 25729 25730 0
-25731 -25732 0
-25731 -25733 0
25731 25732 25733 0
-25734 -25744 0
-25734 -25736 0
25734 25744 25736 0
-25737 -25738 0
-25737 -25744 0
25737 25738 25744 0
-25740 -25745 0
-25740 -25742 0
25740 25745 25742 0
-25743 -25744 0
-25743 -25745 0
-25743 -25746 0
25743 25744 25745 25746 0
-25747 -25748 0
-25747 -25749 0
25747 25748 25749 0
-25931 -25754 0
-25931 -25752 0
25931 25754 25752 0
-25753 -25754 0
-25753 -25755 0
25753 25754 25755 0
-25756 -25757 0
-25756 -25758 0
25756 25757 25758 0
-25759 -25760 0
-25759 -25761 0
25759 25760 25761 0
-25762 -25774 0
-25762 -25764 0
25762 25774 25764 0
-25765 -25766 0
-25765 -25767 0
25765 25766 25767 0
-25768 -25772 0
-25768 -25801 0
25768 25772 25801 0
-25771 -25772 0
-25771 -25795 0
-25771 -25774 0
-25771 -25775 0
25771 25772 25795 25774 25775 0
-25879 -25780 0
-25879 -25778 0
25879 25780 25778 0
-25779 -25780 0
-25779 -25781 0
25779 25780 25781 0
-25874 -25783 0
-25874 -25784 0
25874 25783 25784 0
-25885 -25844 0
-25885 -25787 0
-25885 -25788 0
-25885 -25789 0
25885 25844 25787 25788 25789 0
-25790 -25796 0
-25790 -25792 0
25790 25796 25792 0
-25854 -25794 0
-25854 -25795 0
-25854 -25796 0
25854 25794 25795 25796 0
-25797 -25848 0
-25797 -25799 0
25797 25848 25799 0
-25800 -25801 0
-25800 -25802 0
25800 25801 25802 0
-25803 -25804 0
-25803 -25805 0
-25803 -25806 0
25803 25804 25805 25806 0
-25807 -25808 0
-25807 -25809 0
-25807 -25939 0
-25807 -25811 0
25807 25808 25809 25939 25811 0
-25812 -25813 0
-25812 -25814 0
25812 25813 25814 0
-25815 -25820 0
-25815 -25817 0
-25815 -25818 0
25815 25820 25817 25818 0
-25899 -25820 0
-25899 -25845 0
-25899 -25822 0
25899 25820 25845 25822 0
-25823 -25824 0
-25823 -25825 0
25823 25824 25825 0
-25858 -25827 0
-25858 -25828 0
25858 25827 25828 0
-25829 -25830 0
-25829 -25831 0
25829 25830 25831 0
-25832 -25833 0
-25832 -25939 0
-25832 -25931 0
-25832 -25836 0
25832 25833 25939 25931 25836 0
-25837 -25838 0
-25837 -25839 0
25837 25838 25839 0
-25840 -25841 0
-25840 -25895 0
25840 25841 25895 0
-25868 -25844 0
-25868 -25845 0
-25868 -25846 0
25868 25844 25845 25846 0
-25847 -25848 0
-25847 -25849 0
-25847 -25850 0
25847 25848 25849 25850 0
-25851 -25852 0
-25851 -25895 0
-25851 -25854 0
-25851 -25855 0
25851 25852 25895 25854 25855 0
-25856 -25857 0
-25856 -25858 0
-25856 -25859 0
-25856 -25939 0
25856 25857 25858 25859 25939 0
-25861 -25862 0
-25861 -25863 0
25861 25862 25863 0
-25864 -25868 0
-25864 -25866 0
25864 25868 25866 0
-25867 -25868 0
-25867 -25895 0
-25867 -25870 0
25867 25868 25895 25870 0
-25871 -25879 0
-25871 -25878 0
-25871 -25874 0
25871 25879 25878 25874 0
-25875 -25876 0
-25875 -25877 0
-25875 -25878 0
-25875 -25879 0
25875 25876 25877 25878 25879 0
-25880 -25881 0
-25880 -25882 0
-25880 -25883 0
25880 25881 25882 25883 0
-25884 -25885 0
-25884 -25886 0
-25884 -25887 0
25884 25885 25886 25887 0
-25888 -25889 0
-25888 -25890 0
-25888 -25891 0
25888 25889 25890 25891 0
-25892 -25893 0
-25892 -25894 0
-25892 -25895 0
-25892 -25896 0
25892 25893 25894 25895 25896 0
-25897 -25898 0
-25897 -25899 0
-25897 -25900 0
-25897 -25901 0
25897 25898 25899 25900 25901 0
-25902 -25903 0
-25902 -25904 0
-25902 -25905 0
-25902 -25939 0
25902 25903 25904 25905 25939 0
-25907 -25908 0
-25907 -25909 0
25907 25908 25909 0
-25911 26770 0
25911 -26770 0
-25913 26959 0
25913 -26959 0
-25915 26895 0
25915 -26895 0
-25917 27039 0
25917 -27039 0
-25919 26930 0
25919 -26930 0
-25921 27007 0
25921 -27007 0
-25923 25922 0
25923 -25922 0
-25925 25924 0
25925 -25924 0
-25927 25926 0
25927 -25926 0
-25929 25928 0
25929 -25928 0
-25931 25930 0
25931 -25930 0
-25933 25932 0
25933 -25932 0
-25935 25934 0
25935 -25934 0
-25937 25936 0
25937 -25936 0
-25939 25938 0
25939 -25938 0
-25941 25940 0
25941 -25940 0
-25943 25942 0
25943 -25942 0
-25945 25944 0
25945 -25944 0
-25947 25946 0
25947 -25946 0
-25949 25948 0
25949 -25948 0
-25951 25950 0
25951 -25950 0
-25953 25952 0
25953 -25952 0
-25955 25954 0
25955 -25954 0
-25957 25956 0
25957 -25956 0
-25959 25958 0
25959 -25958 0
-25961 25960 0
25961 -25960 0
-25963 25962 0
25963 -25962 0
-25965 25964 0
25965 -25964 0
-25967 25966 0
25967 -25966 0
26905 27016 0
-26905 -27016 0
26976 25971 0
-26976 -25971 0
26168 26171 0
-26168 -26171 0
26439 26171 0
-26439 -26171 0
26886 26944 0
-26886 -26944 0
26170 26866 0
-26170 -26866 0
27059 26866 0
-27059 -26866 0
26556 26959 0
-26556 -26959 0
26856 26895 0
-26856 -26895 0
26809 27039 0
-26809 -27039 0
26563 26726 0
-26563 -26726 0
26812 26797 0
-26812 -26797 0
26860 26930 0
-26860 -26930 0
26575 26514 0
-26575 -26514 0
26820 26889 0
-26820 -26889 0
26846 27007 0
-26846 -27007 0
27010 26549 0
-27010 -26549 0
26990 26475 0
-26990 -26475 0
26690 26697 0
-26690 -26697 0
26858 26794 0
-26858 -26794 0
26981 26768 0
-26981 -26768 0
26192 26774 0
-26192 -26774 0
27004 26560 0
-27004 -26560 0
26199 26792 0
-26199 -26792 0
26996 26795 0
-26996 -26795 0
26367 26438 0
-26367 -26438 0
26245 26801 0
-26245 -26801 0
26719 27042 0
-26719 -27042 0
26577 26973 0
-26577 -26973 0
26349 26468 0
-26349 -26468 0
27037 26813 0
-27037 -26813 0
26340 26477 0
-26340 -26477 0
26922 26875 0
-26922 -26875 0
26213 26819 0
-26213 -26819 0
26348 26486 0
-26348 -26486 0
26351 26495 0
-26351 -26495 0
27033 26825 0
-27033 -26825 0
26355 26501 0
-26355 -26501 0
26428 26831 0
-26428 -26831 0
26280 26844 0
-26280 -26844 0
26416 26527 0
-26416 -26527 0
26223 26851 0
-26223 -26851 0
26226 26857 0
-26226 -26857 0
26242 26867 0
-26242 -26867 0
26368 27148 0
-26368 -27148 0
26302 26544 0
-26302 -26544 0
27180 26551 0
-27180 -26551 0
26251 26737 0
-26251 -26737 0
26682 27074 0
-26682 -27074 0
26673 26579 0
-26673 -26579 0
27111 26703 0
-27111 -26703 0
26266 26906 0
-26266 -26906 0
26278 26912 0
-26278 -26912 0
26409 26593 0
-26409 -26593 0
26376 26915 0
-26376 -26915 0
26268 26602 0
-26268 -26602 0
27014 26683 0
-27014 -26683 0
26277 26949 0
-26277 -26949 0
26398 26614 0
-26398 -26614 0
26401 26617 0
-26401 -26617 0
26281 26952 0
-26281 -26952 0
26736 26955 0
-26736 -26955 0
26686 26958 0
-26686 -26958 0
26283 26962 0
-26283 -26962 0
27021 26620 0
-27021 -26620 0
26289 26678 0
-26289 -26678 0
27154 26975 0
-27154 -26975 0
27026 26712 0
-27026 -26712 0
26739 26968 0
-26739 -26968 0
27110 26742 0
-27110 -26742 0
26308 26998 0
-26308 -26998 0
26716 26668 0
-26716 -26668 0
27035 26971 0
-27035 -26971 0
26710 26674 0
-26710 -26674 0
26406 26977 0
-26406 -26977 0
26709 26980 0
-26709 -26980 0
27061 26983 0
-27061 -26983 0
27116 27012 0
-27116 -27012 0
26418 27015 0
-26418 -27015 0
27138 27022 0
-27138 -27022 0
27093 26706 0
-27093 -26706 0
26424 26691 0
-26424 -26691 0
27097 26694 0
-27097 -26694 0
26748 27030 0
-26748 -27030 0
26315 27044 0
-26315 -27044 0
27140 27047 0
-27140 -27047 0
27101 27055 0
-27101 -27055 0
27106 27062 0
-27106 -27062 0
27144 27066 0
-27144 -27066 0
27158 27071 0
-27158 -27071 0
26427 27076 0
-26427 -27076 0
27168 27086 0
-27168 -27086 0
27174 27090 0
-27174 -27090 0
27115 27095 0
-27115 -27095 0
27124 27099 0
-27124 -27099 0
26754 26727 0
-26754 -26727 0
27156 27107 0
-27156 -27107 0
26763 26743 0
-26763 -26743 0
27142 27122 0
-27142 -27122 0
-26835 26866 0
-26835 26168 0
26835 -26866 -26168 0
-26836 26170 0
-26836 26171 0
26836 -26170 -26171 0
-26853 26930 0
-26853 26809 0
26853 -26930 -26809 0
-26961 27016 0
-26961 26809 0
26961 -27016 -26809 0
-26868 26666 0
-26868 26866 0
-26868 26809 0
26868 -26666 -26866 -26809 0
-27045 26905 0
-27045 26882 0
27045 -26905 -26882 0
-26957 26809 0
-26957 26927 0
26957 -26809 -26927 0
-26936 26809 0
-26936 26450 0
26936 -26809 -26450 0
-26908 26192 0
-26908 26483 0
26908 -26192 -26483 0
-26914 26471 0
-26914 26504 0
26914 -26471 -26504 0
-26917 26930 0
-26917 26199 0
26917 -26930 -26199 0
-27020 27007 0
-27020 26837 0
27020 -27007 -26837 0
-26933 26809 0
-26933 26524 0
26933 -26809 -26524 0
-26993 26534 0
-26993 26516 0
26993 -26534 -26516 0
-27072 26837 0
-27072 27037 0
27072 -26837 -27037 0
-26951 26213 0
-26951 26541 0
26951 -26213 -26541 0
-27109 27148 0
-27109 27016 0
27109 -27148 -27016 0
-26999 26595 0
-26999 26544 0
26999 -26595 -26544 0
-26967 26924 0
-26967 26223 0
26967 -26924 -26223 0
-26970 26879 0
-26970 26226 0
26970 -26879 -26226 0
-27023 26770 0
-27023 26893 0
27023 -26770 -26893 0
-27123 27004 0
-27123 26768 0
-27123 26893 0
27123 -27004 -26768 -26893 0
-27024 26896 0
-27024 26804 0
27024 -26896 -26804 0
-27118 26797 0
-27118 26896 0
27118 -26797 -26896 0
-27028 26789 0
-27028 26242 0
27028 -26789 -26242 0
-27053 26918 0
-27053 26245 0
27053 -26918 -26245 0
-27019 26918 0
-27019 26903 0
27019 -26918 -26903 0
-27065 26927 0
-27065 26251 0
27065 -26927 -26251 0
-27105 26813 0
-27105 26925 0
27105 -26813 -26925 0
-27113 26925 0
-27113 26825 0
27113 -26925 -26825 0
-27098 26937 0
-27098 26903 0
27098 -26937 -26903 0
-26982 26599 0
-26982 26531 0
26982 -26599 -26531 0
-27017 26611 0
-27017 26266 0
27017 -26611 -26266 0
-27029 26268 0
-27029 26990 0
27029 -26268 -26990 0
-27067 26971 0
-27067 26964 0
27067 -26971 -26964 0
-27102 26963 0
-27102 26971 0
27102 -26963 -26971 0
-27040 26277 0
-27040 26278 0
27040 -26277 -26278 0
-27043 26280 0
-27043 26281 0
27043 -26280 -26281 0
-27046 26283 0
-27046 26870 0
27046 -26283 -26870 0
-27048 27059 0
-27048 26289 0
27048 -27059 -26289 0
-27092 26289 0
-27092 26726 0
27092 -26289 -26726 0
-27054 27154 0
-27054 26866 0
27054 -27154 -26866 0
-27056 26977 0
-27056 26733 0
-27056 26697 0
27056 -26977 -26733 -26697 0
-27081 26983 0
-27081 26864 0
27081 -26983 -26864 0
-27085 26302 0
-27085 26983 0
27085 -26302 -26983 0
-27104 26498 0
-27104 26986 0
27104 -26498 -26986 0
-27091 26308 0
-27091 26864 0
27091 -26308 -26864 0
-27078 26406 0
-27078 26645 0
27078 -26406 -26645 0
-27108 26861 0
-27108 26315 0
27108 -26861 -26315 0
26615 -26697 0
26615 -27007 0
26615 -26549 0
-26615 26697 27007 26549 0
26528 -27007 0
26528 -26771 0
-26528 27007 26771 0
26672 -26690 0
26672 -26798 0
-26672 26690 26798 0
26695 -26545 0
26695 -27010 0
-26695 26545 27010 0
26594 -27009 0
26594 -26866 0
-26594 27009 26866 0
26597 -26882 0
26597 -26854 0
-26597 26882 26854 0
26600 -26807 0
26600 -26854 0
-26600 26807 26854 0
26603 -27007 0
26603 -26340 0
-26603 27007 26340 0
26606 -26959 0
26606 -26870 0
-26606 26959 26870 0
26609 -26895 0
26609 -26873 0
-26609 26895 26873 0
26612 -26348 0
26612 -26349 0
-26612 26348 26349 0
26616 -26351 0
26616 -27009 0
-26616 26351 27009 0
26621 -26770 0
26621 -26355 0
-26621 26770 26355 0
26624 -26804 0
26624 -26887 0
-26624 26804 26887 0
26722 -26846 0
26722 -26945 0
-26722 26846 26945 0
26669 -26905 0
26669 -26959 0
26669 -26948 0
-26669 26905 26959 26948 0
26759 -26367 0
26759 -26368 0
-26759 26367 26368 0
26675 -26953 0
26675 -26926 0
-26675 26953 26926 0
26700 -26726 0
26700 -26682 0
-26700 26726 26682 0
26681 -26376 0
26681 -26846 0
-26681 26376 26846 0
26685 -26975 0
26685 -26439 0
-26685 26975 26439 0
26745 -26975 0
26745 -26726 0
-26745 26975 26726 0
26728 -26623 0
26728 -26979 0
-26728 26623 26979 0
26705 -26995 0
26705 -26516 0
-26705 26995 26516 0
26699 -26409 0
26699 -26998 0
-26699 26409 26998 0
26702 -26544 0
26702 -27003 0
-26702 26544 27003 0
26752 -26579 0
26752 -26398 0
-26752 26579 26398 0
26744 -26929 0
26744 -26401 0
-26744 26929 26401 0
26708 -27035 0
26708 -26962 0
-26708 27035 26962 0
26753 -26406 0
26753 -26828 0
-26753 26406 26828 0
26756 -26409 0
26756 -27061 0
-26756 26409 27061 0
26715 -27042 0
26715 -27027 0
-26715 27042 27027 0
26718 -27038 0
26718 -26416 0
-26718 27038 26416 0
26721 -26418 0
26721 -26941 0
-26721 26418 26941 0
26725 -27073 0
26725 -26974 0
-26725 27073 26974 0
26732 -26424 0
26732 -27005 0
-26732 26424 27005 0
26762 -26427 0
26762 -26428 0
-26762 26427 26428 0
26666 26889 0
26666 26797 0
-26666 -26889 -26797 0
26560 26799 0
26560 26944 0
-26560 -26799 -26944 0
26876 26475 0
26876 26514 0
-26876 -26475 -26514 0
26438 26439 0
26438 26905 0
-26438 -26439 -26905 0
27060 26799 0
27060 26886 0
-27060 -26799 -26886 0
26969 26895 0
26969 26768 0
-26969 -26895 -26768 0
26927 26905 0
26927 26556 0
-26927 -26905 -26556 0
26450 26803 0
26450 26556 0
-26450 -26803 -26556 0
26947 26556 0
26947 26770 0
-26947 -26556 -26770 0
26878 26856 0
26878 26458 0
-26878 -26856 -26458 0
27042 26856 0
27042 26770 0
-27042 -26856 -26770 0
26924 26809 0
26924 27007 0
-26924 -26809 -27007 0
26973 26809 0
26973 26856 0
-26973 -26809 -26856 0
26468 26812 0
26468 26475 0
-26468 -26812 -26475 0
26471 26860 0
26471 27016 0
-26471 -26860 -27016 0
27032 26475 0
27032 26575 0
-27032 -26475 -26575 0
26477 26771 0
26477 26666 0
-26477 -26771 -26666 0
26875 26820 0
26875 26812 0
-26875 -26820 -26812 0
26483 26820 0
26483 26799 0
-26483 -26820 -26799 0
26486 26820 0
26486 26575 0
-26486 -26820 -26575 0
26989 27016 0
26989 26820 0
-26989 -27016 -26820 0
26879 26882 0
26879 27039 0
-26879 -26882 -27039 0
26495 26846 0
26495 26697 0
-26495 -26846 -26697 0
26498 27002 0
26498 26697 0
-26498 -27002 -26697 0
26501 26556 0
26501 26560 0
-26501 -26556 -26560 0
26504 26866 0
26504 26560 0
-26504 -26866 -26560 0
26885 26930 0
26885 26789 0
-26885 -26930 -26789 0
26545 26990 0
26545 26575 0
-26545 -26990 -26575 0
27009 26514 0
27009 26990 0
-27009 -26514 -26990 0
26516 27059 0
26516 27010 0
26516 26795 0
26516 26697 0
-26516 -27059 -27010 -26795 -26697 0
26595 26798 0
26595 26866 0
-26595 -26798 -26866 0
26524 26876 0
26524 26927 0
-26524 -26876 -26927 0
26527 26528 0
26527 26860 0
26527 26876 0
-26527 -26528 -26860 -26876 0
26531 26807 0
26531 26878 0
-26531 -26807 -26878 0
26534 26886 0
26534 26810 0
26534 26866 0
-26534 -26886 -26810 -26866 0
26894 26813 0
26894 27039 0
-26894 -26813 -27039 0
26541 26875 0
26541 27007 0
-26541 -26875 -27007 0
26544 26545 0
26544 27059 0
26544 26876 0
-26544 -26545 -27059 -26876 0
26733 26549 0
26733 27009 0
-26733 -26549 -27009 0
26551 26837 0
26551 26882 0
-26551 -26837 -26882 0
26923 26848 0
26923 26556 0
-26923 -26848 -26556 0
26737 26846 0
26737 26848 0
26737 26560 0
-26737 -26846 -26848 -26560 0
26926 26719 0
26926 26563 0
-26926 -26719 -26563 0
26929 26719 0
26929 26959 0
-26929 -26719 -26959 0
26939 26825 0
26939 26719 0
-26939 -26825 -26719 0
26941 26719 0
26941 26780 0
-26941 -26719 -26780 0
26945 26861 0
26945 26575 0
-26945 -26861 -26575 0
26948 26577 0
26948 26882 0
-26948 -26577 -26882 0
26579 26870 0
26579 26860 0
26579 26861 0
-26579 -26870 -26860 -26861 0
26703 26840 0
26703 26856 0
26703 26873 0
-26703 -26840 -26856 -26873 0
26953 26881 0
26953 27039 0
-26953 -26881 -27039 0
26960 26719 0
26960 26881 0
-26960 -26719 -26881 0
26593 26594 0
26593 26595 0
-26593 -26594 -26595 0
26723 26597 0
26723 26768 0
-26723 -26597 -26768 0
26599 26600 0
26599 26930 0
-26599 -26600 -26930 0
26602 26603 0
26602 26860 0
-26602 -26603 -26860 0
26972 26606 0
26972 26770 0
-26972 -26606 -26770 0
26683 26609 0
26683 26840 0
-26683 -26609 -26840 0
26611 26612 0
26611 27059 0
-26611 -26612 -27059 0
26614 26615 0
26614 26616 0
-26614 -26615 -26616 0
26617 26953 0
26617 26885 0
-26617 -26953 -26885 0
26620 26621 0
26620 26893 0
-26620 -26621 -26893 0
26623 26624 0
26623 26860 0
-26623 -26624 -26860 0
26678 26809 0
26678 26905 0
26678 26918 0
-26678 -26809 -26905 -26918 0
26975 26780 0
26975 26928 0
-26975 -26780 -26928 0
26764 27007 0
26764 26928 0
26764 26990 0
-26764 -27007 -26928 -26990 0
26712 26804 0
26712 26809 0
26712 26937 0
-26712 -26804 -26809 -26937 0
26979 26940 0
26979 26812 0
26979 26798 0
-26979 -26940 -26812 -26798 0
26645 26690 0
26645 26940 0
26645 26870 0
-26645 -26690 -26940 -26870 0
26742 26922 0
26742 27120 0
26742 26883 0
-26742 -26922 -27120 -26883 0
26987 26946 0
26987 26812 0
-26987 -26946 -26812 0
26995 26946 0
26995 26820 0
26995 26799 0
-26995 -26946 -26820 -26799 0
26998 26820 0
26998 26946 0
26998 26810 0
-26998 -26820 -26946 -26810 0
27003 26905 0
27003 26666 0
27003 26946 0
-27003 -26905 -26666 -26946 0
26668 26669 0
26668 26723 0
-26668 -26669 -26723 0
27011 26672 0
27011 26673 0
-27011 -26672 -26673 0
26674 26675 0
26674 26703 0
-26674 -26675 -26703 0
27160 26678 0
27160 26975 0
-27160 -26678 -26975 0
27130 26681 0
27130 26682 0
27130 26683 0
-27130 -26681 -26682 -26683 0
27152 26685 0
27152 26686 0
-27152 -26685 -26686 0
26706 26986 0
26706 27077 0
26706 26690 0
-26706 -26986 -27077 -26690 0
26691 26994 0
26691 26866 0
-26691 -26994 -26866 0
26694 26695 0
26694 26994 0
26694 26697 0
-26694 -26695 -26994 -26697 0
27064 26699 0
27064 26700 0
-27064 -26699 -26700 0
27070 26702 0
27070 26703 0
-27070 -26702 -26703 0
27182 26705 0
27182 26706 0
-27182 -26705 -26706 0
27132 26708 0
27132 26709 0
27132 26710 0
-27132 -26708 -26709 -26710 0
27150 26712 0
27150 27052 0
-27150 -26712 -27052 0
27162 26715 0
27162 26716 0
-27162 -26715 -26716 0
26735 26718 0
26735 26719 0
-26735 -26718 -26719 0
27164 26721 0
27164 26722 0
27164 26723 0
-27164 -26721 -26722 -26723 0
26740 26725 0
26740 26726 0
-26740 -26725 -26726 0
26727 26728 0
26727 26739 0
26727 27082 0
-26727 -26728 -26739 -27082 0
26746 26732 0
26746 26733 0
-26746 -26732 -26733 0
27119 26735 0
27119 26736 0
27119 26737 0
-27119 -26735 -26736 -26737 0
27172 26739 0
27172 26740 0
27172 27079 0
27172 26742 0
-27172 -26739 -26740 -27079 -26742 0
26743 26744 0
26743 26745 0
26743 26746 0
-26743 -26744 -26745 -26746 0
27134 26748 0
27134 27018 0
27134 27103 0
-27134 -26748 -27018 -27103 0
27166 26752 0
27166 26753 0
27166 26754 0
-27166 -26752 -26753 -26754 0
27136 26756 0
27136 27112 0
-27136 -26756 -27112 0
27126 26759 0
27126 27117 0
-27126 -26759 -27117 0
27128 26762 0
27128 26763 0
27128 26764 0
-27128 -26762 -26763 -26764 0
-26803 -27016 0
-26803 -26866 0
26803 27016 26866 0
-26768 -26959 0
-26768 -26770 0
26768 26959 26770 0
-26771 -26866 0
-26771 -27039 0
26771 26866 27039 0
-26774 -26797 0
-26774 -26944 0
26774 26797 26944 0
-26882 -27007 0
-26882 -26930 0
26882 27007 26930 0
-26780 -27039 0
-26780 -27007 0
26780 27039 27007 0
-27178 -26889 0
-27178 -26902 0
27178 26889 26902 0
-27002 -26799 0
-27002 -26944 0
27002 26799 26944 0
-26789 -27007 0
-26789 -26799 0
26789 27007 26799 0
-26792 -27039 0
-26792 -26794 0
26792 27039 26794 0
-26795 -26905 0
-26795 -26797 0
26795 26905 26797 0
-26798 -26799 0
-26798 -26886 0
26798 26799 26886 0
-26801 -27039 0
-26801 -26803 0
26801 27039 26803 0
-26804 -27016 0
-26804 -27059 0
26804 27016 27059 0
-26807 -27007 0
-26807 -26809 0
26807 27007 26809 0
-26810 -27016 0
-26810 -26812 0
26810 27016 26812 0
-26813 -27007 0
-26813 -26860 0
26813 27007 26860 0
-27176 -26820 0
-27176 -26902 0
27176 26820 26902 0
-26819 -26820 0
-26819 -26860 0
26819 26820 26860 0
-26883 -26860 0
-26883 -26846 0
26883 26860 26846 0
-26825 -26846 0
-26825 -26930 0
26825 26846 26930 0
-26828 -26930 0
-26828 -27010 0
26828 26930 27010 0
-26831 -26990 0
-26831 -26930 0
26831 26990 26930 0
-27077 -26835 0
-27077 -26836 0
27077 26835 26836 0
-26837 -26969 0
-26837 -27039 0
26837 26969 27039 0
-26840 -26930 0
-26840 -26981 0
-26840 -27039 0
26840 26930 26981 27039 0
-26844 -26927 0
-26844 -26846 0
-26844 -26930 0
26844 26927 26846 26930 0
-26848 -27042 0
-26848 -26860 0
26848 27042 26860 0
-26851 -27007 0
-26851 -26853 0
26851 27007 26853 0
-26854 -26924 0
-26854 -26856 0
26854 26924 26856 0
-26857 -26858 0
-26857 -26924 0
-26857 -26860 0
26857 26858 26924 26860 0
-26861 -26947 0
-26861 -26973 0
26861 26947 26973 0
-26864 -27032 0
-26864 -26866 0
26864 27032 26866 0
-26867 -26868 0
-26867 -26930 0
26867 26868 26930 0
-26870 -26875 0
-26870 -26905 0
26870 26875 26905 0
-26873 -27007 0
-26873 -26875 0
-26873 -26876 0
26873 27007 26875 26876 0
-27148 -26878 0
-27148 -26879 0
-27148 -26981 0
27148 26878 26879 26981 0
-26881 -26882 0
-26881 -26883 0
26881 26882 26883 0
-26963 -26885 0
-26963 -26886 0
26963 26885 26886 0
-26887 -27009 0
-26887 -26889 0
26887 27009 26889 0
-27074 -26894 0
-27074 -26969 0
27074 26894 26969 0
-26893 -26894 0
-26893 -26895 0
26893 26894 26895 0
-26896 -26959 0
-26896 -27037 0
-26896 -27042 0
26896 26959 27037 27042 0
-27170 -26922 0
-27170 -26902 0
27170 26922 26902 0
-26903 -26922 0
-26903 -26905 0
26903 26922 26905 0
-26906 -27059 0
-26906 -26908 0
26906 27059 26908 0
-26964 -27033 0
-26964 -27009 0
26964 27033 27009 0
-26912 -27007 0
-26912 -26914 0
26912 27007 26914 0
-26915 -26969 0
-26915 -26917 0
26915 26969 26917 0
-26918 -27007 0
-26918 -26923 0
26918 27007 26923 0
-27063 -26922 0
-27063 -26923 0
-27063 -26924 0
27063 26922 26923 26924 0
-26925 -26926 0
-26925 -26927 0
26925 26926 26927 0
-26928 -26929 0
-26928 -26930 0
26928 26929 26930 0
-27096 -26939 0
-27096 -26933 0
27096 26939 26933 0
-27051 -26939 0
-27051 -26936 0
27051 26939 26936 0
-26937 -26959 0
-26937 -26939 0
26937 26959 26939 0
-26940 -26941 0
-26940 -26959 0
26940 26941 26959 0
-27120 -26944 0
-27120 -26945 0
27120 26944 26945 0
-26946 -26947 0
-26946 -26948 0
26946 26947 26948 0
-26949 -26959 0
-26949 -26951 0
26949 26959 26951 0
-26952 -26953 0
-26952 -26959 0
26952 26953 26959 0
-26955 -26960 0
-26955 -26957 0
26955 26960 26957 0
-26958 -26959 0
-26958 -26960 0
-26958 -26961 0
26958 26959 26960 26961 0
-26962 -26963 0
-26962 -26964 0
26962 26963 26964 0
-27146 -26969 0
-27146 -26967 0
27146 26969 26967 0
-26968 -26969 0
-26968 -26970 0
26968 26969 26970 0
-26971 -26972 0
-26971 -26973 0
26971 26972 26973 0
-26974 -26975 0
-26974 -26976 0
26974 26975 26976 0
-26977 -26989 0
-26977 -26979 0
26977 26989 26979 0
-26980 -26981 0
-26980 -26982 0
26980 26981 26982 0
-26983 -26987 0
-26983 -27016 0
26983 26987 27016 0
-26986 -26987 0
-26986 -27010 0
-26986 -26989 0
-26986 -26990 0
26986 26987 27010 26989 26990 0
-27094 -26995 0
-27094 -26993 0
27094 26995 26993 0
-26994 -26995 0
-26994 -26996 0
26994 26995 26996 0
-27089 -26998 0
-27089 -26999 0
27089 26998 26999 0
-27100 -27059 0
-27100 -27002 0
-27100 -27003 0
-27100 -27004 0
27100 27059 27002 27003 27004 0
-27005 -27011 0
-27005 -27007 0
27005 27011 27007 0
-27069 -27009 0
-27069 -27010 0
-27069 -27011 0
27069 27009 27010 27011 0
-27012 -27063 0
-27012 -27014 0
27012 27063 27014 0
-27015 -27016 0
-27015 -27017 0
27015 27016 27017 0
-27018 -27019 0
-27018 -27020 0
-27018 -27021 0
27018 27019 27020 27021 0
-27022 -27023 0
-27022 -27024 0
-27022 -27154 0
-27022 -27026 0
27022 27023 27024 27154 27026 0
-27027 -27028 0
-27027 -27029 0
27027 27028 27029 0
-27030 -27035 0
-27030 -27032 0
-27030 -27033 0
27030 27035 27032 27033 0
-27114 -27035 0
-27114 -27060 0
-27114 -27037 0
27114 27035 27060 27037 0
-27038 -27039 0
-27038 -27040 0
27038 27039 27040 0
-27073 -27042 0
-27073 -27043 0
27073 27042 27043 0
-27044 -27045 0
-27044 -27046 0
27044 27045 27046 0
-27047 -27048 0
-27047 -27154 0
-27047 -27146 0
-27047 -27051 0
27047 27048 27154 27146 27051 0
-27052 -27053 0
-27052 -27054 0
27052 27053 27054 0
-27055 -27056 0
-27055 -27110 0
27055 27056 27110 0
-27083 -27059 0
-27083 -27060 0
-27083 -27061 0
27083 27059 27060 27061 0
-27062 -27063 0
-27062 -27064 0
-27062 -27065 0
27062 27063 27064 27065 0
-27066 -27067 0
-27066 -27110 0
-27066 -27069 0
-27066 -27070 0
27066 27067 27110 27069 27070 0
-27071 -27072 0
-27071 -27073 0
-27071 -27074 0
-27071 -27154 0
27071 27072 27073 27074 27154 0
-27076 -27077 0
-27076 -27078 0
27076 27077 27078 0
-27079 -27083 0
-27079 -27081 0
27079 27083 27081 0
-27082 -27083 0
-27082 -27110 0
-27082 -27085 0
27082 27083 27110 27085 0
-27086 -27094 0
-27086 -27093 0
-27086 -27089 0
27086 27094 27093 27089 0
-27090 -27091 0
-27090 -27092 0
-27090 -27093 0
-27090 -27094 0
27090 27091 27092 27093 27094 0
-27095 -27096 0
-27095 -27097 0
-27095 -27098 0
27095 27096 27097 27098 0
-27099 -27100 0
-27099 -27101 0
-27099 -27102 0
27099 27100 27101 27102 0
-27103 -27104 0
-27103 -27105 0
-27103 -27106 0
27103 27104 27105 27106 0
-27107 -27108 0
-27107 -27109 0
-27107 -27110 0
-27107 -27111 0
27107 27108 27109 27110 27111 0
-27112 -27113 0
-27112 -27114 0
-27112 -27115 0
-27112 -27116 0
27112 27113 27114 27115 27116 0
-27117 -27118 0
-27117 -27119 0
-27117 -27120 0
-27117 -27154 0
27117 27118 27119 27120 27154 0
-27122 -27123 0
-27122 -27124 0
27122 27123 27124 0
-27126 27985 0
27126 -27985 0
-27128 28174 0
27128 -28174 0
-27130 28110 0
27130 -28110 0
-27132 28254 0
27132 -28254 0
-27134 28145 0
27134 -28145 0
-27136 28222 0
27136 -28222 0
-27138 27137 0
27138 -27137 0
-27140 27139 0
27140 -27139 0
-27142 27141 0
27142 -27141 0
-27144 27143 0
27144 -27143 0
-27146 27145 0
27146 -27145 0
-27148 27147 0
27148 -27147 0
-27150 27149 0
27150 -27149 0
-27152 27151 0
27152 -27151 0
-27154 27153 0
27154 -27153 0
-27156 27155 0
27156 -27155 0
-27158 27157 0
27158 -27157 0
-27160 27159 0
27160 -27159 0
-27162 27161 0
27162 -27161 0
-27164 27163 0
27164 -27163 0
-27166 27165 0
27166 -27165 0
-27168 27167 0
27168 -27167 0
-27170 27169 0
27170 -27169 0
-27172 27171 0
27172 -27171 0
-27174 27173 0
27174 -27173 0
-27176 27175 0
27176 -27175 0
-27178 27177 0
27178 -27177 0
-27180 27179 0
27180 -27179 0
-27182 27181 0
27182 -27181 0
28120 28231 0
-28120 -28231 0
28191 27186 0
-28191 -27186 0
27383 27386 0
-27383 -27386 0
27654 27386 0
-27654 -27386 0
28101 28159 0
-28101 -28159 0
27385 28081 0
-27385 -28081 0
28274 28081 0
-28274 -28081 0
27771 28174 0
-27771 -28174 0
28071 28110 0
-28071 -28110 0
28024 28254 0
-28024 -28254 0
27778 27941 0
-27778 -27941 0
28027 28012 0
-28027 -28012 0
28075 28145 0
-28075 -28145 0
27790 27729 0
-27790 -27729 0
28035 28104 0
-28035 -28104 0
28061 28222 0
-28061 -28222 0
28225 27764 0
-28225 -27764 0
28205 27690 0
-28205 -27690 0
27905 27912 0
-27905 -27912 0
28073 28009 0
-28073 -28009 0
28196 27983 0
-28196 -27983 0
27407 27989 0
-27407 -27989 0
28219 27775 0
-28219 -27775 0
27414 28007 0
-27414 -28007 0
28211 28010 0
-28211 -28010 0
27582 27653 0
-27582 -27653 0
27460 28016 0
-27460 -28016 0
27934 28257 0
-27934 -28257 0
27792 28188 0
-27792 -28188 0
27564 27683 0
-27564 -27683 0
28252 28028 0
-28252 -28028 0
27555 27692 0
-27555 -27692 0
28137 28090 0
-28137 -28090 0
27428 28034 0
-27428 -28034 0
27563 27701 0
-27563 -27701 0
27566 27710 0
-27566 -27710 0
28248 28040 0
-28248 -28040 0
27570 27716 0
-27570 -27716 0
27643 28046 0
-27643 -28046 0
27495 28059 0
-27495 -28059 0
27631 27742 0
-27631 -27742 0
27438 28066 0
-27438 -28066 0
27441 28072 0
-27441 -28072 0
27457 28082 0
-27457 -28082 0
27583 28363 0
-27583 -28363 0
27517 27759 0
-27517 -27759 0
28395 27766 0
-28395 -27766 0
27466 27952 0
-27466 -27952 0
27897 28289 0
-27897 -28289 0
27888 27794 0
-27888 -27794 0
28326 27918 0
-28326 -27918 0
27481 28121 0
-27481 -28121 0
27493 28127 0
-27493 -28127 0
27624 27808 0
-27624 -27808 0
27591 28130 0
-27591 -28130 0
27483 27817 0
-27483 -27817 0
28229 27898 0
-28229 -27898 0
27492 28164 0
-27492 -28164 0
27613 27829 0
-27613 -27829 0
27616 27832 0
-27616 -27832 0
27496 28167 0
-27496 -28167 0
27951 28170 0
-27951 -28170 0
27901 28173 0
-27901 -28173 0
27498 28177 0
-27498 -28177 0
28236 27835 0
-28236 -27835 0
27504 27893 0
-27504 -27893 0
28369 28190 0
-28369 -28190 0
28241 27927 0
-28241 -27927 0
27954 28183 0
-27954 -28183 0
28325 27957 0
-28325 -27957 0
27523 28213 0
-27523 -28213 0
27931 27883 0
-27931 -27883 0
28250 28186 0
-28250 -28186 0
27925 27889 0
-27925 -27889 0
27621 28192 0
-27621 -28192 0
27924 28195 0
-27924 -28195 0
28276 28198 0
-28276 -28198 0
28331 28227 0
-28331 -28227 0
27633 28230 0
-27633 -28230 0
28353 28237 0
-28353 -28237 0
28308 27921 0
-28308 -27921 0
27639 27906 0
-27639 -27906 0
28312 27909 0
-28312 -27909 0
27963 28245 0
-27963 -28245 0
27530 28259 0
-27530 -28259 0
28355 28262 0
-28355 -28262 0
28316 28270 0
-28316 -28270 0
28321 28277 0
-28321 -28277 0
28359 28281 0
-28359 -28281 0
28373 28286 0
-28373 -28286 0
27642 28291 0
-27642 -28291 0
28383 28301 0
-28383 -28301 0
28389 28305 0
-28389 -28305 0
28330 28310 0
-28330 -28310 0
28339 28314 0
-28339 -28314 0
27969 27942 0
-27969 -27942 0
28371 28322 0
-28371 -28322 0
27978 27958 0
-27978 -27958 0
28357 28337 0
-28357 -28337 0
-28050 28081 0
-28050 27383 0
28050 -28081 -27383 0
-28051 27385 0
-28051 27386 0
28051 -27385 -27386 0
-28068 28145 0
-28068 28024 0
28068 -28145 -28024 0
-28176 28231 0
-28176 28024 0
28176 -28231 -28024 0
-28083 27881 0
-28083 28081 0
-28083 28024 0
28083 -27881 -28081 -28024 0
-28260 28120 0
-28260 28097 0
28260 -28120 -28097 0
-28172 28024 0
-28172 28142 0
28172 -28024 -28142 0
-28151 28024 0
-28151 27665 0
28151 -28024 -27665 0
-28123 27407 0
-28123 27698 0
28123 -27407 -27698 0
-28129 27686 0
-28129 27719 0
28129 -27686 -27719 0
-28132 28145 0
-28132 27414 0
28132 -28145 -27414 0
-28235 28222 0
-28235 28052 0
28235 -28222 -28052 0
-28148 28024 0
-28148 27739 0
28148 -28024 -27739 0
-28208 27749 0
-28208 27731 0
28208 -27749 -27731 0
-28287 28052 0
-28287 28252 0
28287 -28052 -28252 0
-28166 27428 0
-28166 27756 0
28166 -27428 -27756 0
-28324 28363 0
-28324 28231 0
28324 -28363 -28231 0
-28214 27810 0
-28214 27759 0
28214 -27810 -27759 0
-28182 28139 0
-28182 27438 0
28182 -28139 -27438 0
-28185 28094 0
-28185 27441 0
28185 -28094 -27441 0
-28238 27985 0
-28238 28108 0
28238 -27985 -28108 0
-28338 28219 0
-28338 27983 0
-28338 28108 0
28338 -28219 -27983 -28108 0
-28239 28111 0
-28239 28019 0
28239 -28111 -28019 0
-28333 28012 0
-28333 28111 0
28333 -28012 -28111 0
-28243 28004 0
-28243 27457 0
28243 -28004 -27457 0
-28268 28133 0
-28268 27460 0
28268 -28133 -27460 0
-28234 28133 0
-28234 28118 0
28234 -28133 -28118 0
-28280 28142 0
-28280 27466 0
28280 -28142 -27466 0
-28320 28028 0
-28320 28140 0
28320 -28028 -28140 0
-28328 28140 0
-28328 28040 0
28328 -28140 -28040 0
-28313 28152 0
-28313 28118 0
28313 -28152 -28118 0
-28197 27814 0
-28197 27746 0
28197 -27814 -27746 0
-28232 27826 0
-28232 27481 0
28232 -27826 -27481 0
-28244 27483 0
-28244 28205 0
28244 -27483 -28205 0
-28282 28186 0
-28282 28179 0
28282 -28186 -28179 0
-28317 28178 0
-28317 28186 0
28317 -28178 -28186 0
-28255 27492 0
-28255 27493 0
28255 -27492 -27493 0
-28258 27495 0
-28258 27496 0
28258 -27495 -27496 0
-28261 27498 0
-28261 28085 0
28261 -27498 -28085 0
-28263 28274 0
-28263 27504 0
28263 -28274 -27504 0
-28307 27504 0
-28307 27941 0
28307 -27504 -27941 0
-28269 28369 0
-28269 28081 0
28269 -28369 -28081 0
-28271 28192 0
-28271 27948 0
-28271 27912 0
28271 -28192 -27948 -27912 0
-28296 28198 0
-28296 28079 0
28296 -28198 -28079 0
-28300 27517 0
-28300 28198 0
28300 -27517 -28198 0
-28319 27713 0
-28319 28201 0
28319 -27713 -28201 0
-28306 27523 0
-28306 28079 0
28306 -27523 -28079 0
-28293 27621 0
-28293 27860 0
28293 -27621 -27860 0
-28323 28076 0
-28323 27530 0
28323 -28076 -27530 0
27830 -27912 0
27830 -28222 0
27830 -27764 0
-27830 27912 28222 27764 0
27743 -28222 0
27743 -27986 0
-27743 28222 27986 0
27887 -27905 0
27887 -28013 0
-27887 27905 28013 0
27910 -27760 0
27910 -28225 0
-27910 27760 28225 0
27809 -28224 0
27809 -28081 0
-27809 28224 28081 0
27812 -28097 0
27812 -28069 0
-27812 28097 28069 0
27815 -28022 0
27815 -28069 0
-27815 28022 28069 0
27818 -28222 0
27818 -27555 0
-27818 28222 27555 0
27821 -28174 0
27821 -28085 0
-27821 28174 28085 0
27824 -28110 0
27824 -28088 0
-27824 28110 28088 0
27827 -27563 0
27827 -27564 0
-27827 27563 27564 0
27831 -27566 0
27831 -28224 0
-27831 27566 28224 0
27836 -27985 0
27836 -27570 0
-27836 27985 27570 0
27839 -28019 0
27839 -28102 0
-27839 28019 28102 0
27937 -28061 0
27937 -28160 0
-27937 28061 28160 0
27884 -28120 0
27884 -28174 0
27884 -28163 0
-27884 28120 28174 28163 0
27974 -27582 0
27974 -27583 0
-27974 27582 27583 0
27890 -28168 0
27890 -28141 0
-27890 28168 28141 0
27915 -27941 0
27915 -27897 0
-27915 27941 27897 0
27896 -27591 0
27896 -28061 0
-27896 27591 28061 0
27900 -28190 0
27900 -27654 0
-27900 28190 27654 0
27960 -28190 0
27960 -27941 0
-27960 28190 27941 0
27943 -27838 0
27943 -28194 0
-27943 27838 28194 0
27920 -28210 0
27920 -27731 0
-27920 28210 27731 0
27914 -27624 0
27914 -28213 0
-27914 27624 28213 0
27917 -27759 0
27917 -28218 0
-27917 27759 28218 0
27967 -27794 0
27967 -27613 0
-27967 27794 27613 0
27959 -28144 0
27959 -27616 0
-27959 28144 27616 0
27923 -28250 0
27923 -28177 0
-27923 28250 28177 0
27968 -27621 0
27968 -28043 0
-27968 27621 28043 0
27971 -27624 0
27971 -28276 0
-27971 27624 28276 0
27930 -28257 0
27930 -28242 0
-27930 28257 28242 0
27933 -28253 0
27933 -27631 0
-27933 28253 27631 0
27936 -27633 0
27936 -28156 0
-27936 27633 28156 0
27940 -28288 0
27940 -28189 0
-27940 28288 28189 0
27947 -27639 0
27947 -28220 0
-27947 27639 28220 0
27977 -27642 0
27977 -27643 0
-27977 27642 27643 0
27881 28104 0
27881 28012 0
-27881 -28104 -28012 0
27775 28014 0
27775 28159 0
-27775 -28014 -28159 0
28091 27690 0
28091 27729 0
-28091 -27690 -27729 0
27653 27654 0
27653 28120 0
-27653 -27654 -28120 0
28275 28014 0
28275 28101 0
-28275 -28014 -28101 0
28184 28110 0
28184 27983 0
-28184 -28110 -27983 0
28142 28120 0
28142 27771 0
-28142 -28120 -27771 0
27665 28018 0
27665 27771 0
-27665 -28018 -27771 0
28162 27771 0
28162 27985 0
-28162 -27771 -27985 0
28093 28071 0
28093 27673 0
-28093 -28071 -27673 0
28257 28071 0
28257 27985 0
-28257 -28071 -27985 0
28139 28024 0
28139 28222 0
-28139 -28024 -28222 0
28188 28024 0
28188 28071 0
-28188 -28024 -28071 0
27683 28027 0
27683 27690 0
-27683 -28027 -27690 0
27686 28075 0
27686 28231 0
-27686 -28075 -28231 0
28247 27690 0
28247 27790 0
-28247 -27690 -27790 0
27692 27986 0
27692 27881 0
-27692 -27986 -27881 0
28090 28035 0
28090 28027 0
-28090 -28035 -28027 0
27698 28035 0
27698 28014 0
-27698 -28035 -28014 0
27701 28035 0
27701 27790 0
-27701 -28035 -27790 0
28204 28231 0
28204 28035 0
-28204 -28231 -28035 0
28094 28097 0
28094 28254 0
-28094 -28097 -28254 0
27710 28061 0
27710 27912 0
-27710 -28061 -27912 0
27713 28217 0
27713 27912 0
-27713 -28217 -27912 0
27716 27771 0
27716 27775 0
-27716 -27771 -27775 0
27719 28081 0
27719 27775 0
-27719 -28081 -27775 0
28100 28145 0
28100 28004 0
-28100 -28145 -28004 0
27760 28205 0
27760 27790 0
-27760 -28205 -27790 0
28224 27729 0
28224 28205 0
-28224 -27729 -28205 0
27731 28274 0
27731 28225 0
27731 28010 0
27731 27912 0
-27731 -28274 -28225 -28010 -27912 0
27810 28013 0
27810 28081 0
-27810 -28013 -28081 0
27739 28091 0
27739 28142 0
-27739 -28091 -28142 0
27742 27743 0
27742 28075 0
27742 28091 0
-27742 -27743 -28075 -28091 0
27746 28022 0
27746 28093 0
-27746 -28022 -28093 0
27749 28101 0
27749 28025 0
27749 28081 0
-27749 -28101 -28025 -28081 0
28109 28028 0
28109 28254 0
-28109 -28028 -28254 0
27756 28090 0
27756 28222 0
-27756 -28090 -28222 0
27759 27760 0
27759 28274 0
27759 28091 0
-27759 -27760 -28274 -28091 0
27948 27764 0
27948 28224 0
-27948 -27764 -28224 0
27766 28052 0
27766 28097 0
-27766 -28052 -28097 0
28138 28063 0
28138 27771 0
-28138 -28063 -27771 0
27952 28061 0
27952 28063 0
27952 27775 0
-27952 -28061 -28063 -27775 0
28141 27934 0
28141 27778 0
-28141 -27934 -27778 0
28144 27934 0
28144 28174 0
-28144 -27934 -28174 0
28154 28040 0
28154 27934 0
-28154 -28040 -27934 0
28156 27934 0
28156 27995 0
-28156 -27934 -27995 0
28160 28076 0
28160 27790 0
-28160 -28076 -27790 0
28163 27792 0
28163 28097 0
-28163 -27792 -28097 0
27794 28085 0
27794 28075 0
27794 28076 0
-27794 -28085 -28075 -28076 0
27918 28055 0
27918 28071 0
27918 28088 0
-27918 -28055 -28071 -28088 0
28168 28096 0
28168 28254 0
-28168 -28096 -28254 0
28175 27934 0
28175 28096 0
-28175 -27934 -28096 0
27808 27809 0
27808 27810 0
-27808 -27809 -27810 0
27938 27812 0
27938 27983 0
-27938 -27812 -27983 0
27814 27815 0
27814 28145 0
-27814 -27815 -28145 0
27817 27818 0
27817 28075 0
-27817 -27818 -28075 0
28187 27821 0
28187 27985 0
-28187 -27821 -27985 0
27898 27824 0
27898 28055 0
-27898 -27824 -28055 0
27826 27827 0
27826 28274 0
-27826 -27827 -28274 0
27829 27830 0
27829 27831 0
-27829 -27830 -27831 0
27832 28168 0
27832 28100 0
-27832 -28168 -28100 0
27835 27836 0
27835 28108 0
-27835 -27836 -28108 0
27838 27839 0
27838 28075 0
-27838 -27839 -28075 0
27893 28024 0
27893 28120 0
27893 28133 0
-27893 -28024 -28120 -28133 0
28190 27995 0
28190 28143 0
-28190 -27995 -28143 0
27979 28222 0
27979 28143 0
27979 28205 0
-27979 -28222 -28143 -28205 0
27927 28019 0
27927 28024 0
27927 28152 0
-27927 -28019 -28024 -28152 0
28194 28155 0
28194 28027 0
28194 28013 0
-28194 -28155 -28027 -28013 0
27860 27905 0
27860 28155 0
27860 28085 0
-27860 -27905 -28155 -28085 0
27957 28137 0
27957 28335 0
27957 28098 0
-27957 -28137 -28335 -28098 0
28202 28161 0
28202 28027 0
-28202 -28161 -28027 0
28210 28161 0
28210 28035 0
28210 28014 0
-28210 -28161 -28035 -28014 0
28213 28035 0
28213 28161 0
28213 28025 0
-28213 -28035 -28161 -28025 0
28218 28120 0
28218 27881 0
28218 28161 0
-28218 -28120 -27881 -28161 0
27883 27884 0
27883 27938 0
-27883 -27884 -27938 0
28226 27887 0
28226 27888 0
-28226 -27887 -27888 0
27889 27890 0
27889 27918 0
-27889 -27890 -27918 0
28375 27893 0
28375 28190 0
-28375 -27893 -28190 0
28345 27896 0
28345 27897 0
28345 27898 0
-28345 -27896 -27897 -27898 0
28367 27900 0
28367 27901 0
-28367 -27900 -27901 0
27921 28201 0
27921 28292 0
27921 27905 0
-27921 -28201 -28292 -27905 0
27906 28209 0
27906 28081 0
-27906 -28209 -28081 0
27909 27910 0
27909 28209 0
27909 27912 0
-27909 -27910 -28209 -27912 0
28279 27914 0
28279 27915 0
-28279 -27914 -27915 0
28285 27917 0
28285 27918 0
-28285 -27917 -27918 0
28397 27920 0
28397 27921 0
-28397 -27920 -27921 0
28347 27923 0
28347 27924 0
28347 27925 0
-28347 -27923 -27924 -27925 0
28365 27927 0
28365 28267 0
-28365 -27927 -28267 0
28377 27930 0
28377 27931 0
-28377 -27930 -27931 0
27950 27933 0
27950 27934 0
-27950 -27933 -27934 0
28379 27936 0
28379 27937 0
28379 27938 0
-28379 -27936 -27937 -27938 0
27955 27940 0
27955 27941 0
-27955 -27940 -27941 0
27942 27943 0
27942 27954 0
27942 28297 0
-27942 -27943 -27954 -28297 0
27961 27947 0
27961 27948 0
-27961 -27947 -27948 0
28334 27950 0
28334 27951 0
28334 27952 0
-28334 -27950 -27951 -27952 0
28387 27954 0
28387 27955 0
28387 28294 0
28387 27957 0
-28387 -27954 -27955 -28294 -27957 0
27958 27959 0
27958 27960 0
27958 27961 0
-27958 -27959 -27960 -27961 0
28349 27963 0
28349 28233 0
28349 28318 0
-28349 -27963 -28233 -28318 0
28381 27967 0
28381 27968 0
28381 27969 0
-28381 -27967 -27968 -27969 0
28351 27971 0
28351 28327 0
-28351 -27971 -28327 0
28341 27974 0
28341 28332 0
-28341 -27974 -28332 0
28343 27977 0
28343 27978 0
28343 27979 0
-28343 -27977 -27978 -27979 0
-28018 -28231 0
-28018 -28081 0
28018 28231 28081 0
-27983 -28174 0
-27983 -27985 0
27983 28174 27985 0
-27986 -28081 0
-27986 -28254 0
27986 28081 28254 0
-27989 -28012 0
-27989 -28159 0
27989 28012 28159 0
-28097 -28222 0
-28097 -28145 0
28097 28222 28145 0
-27995 -28254 0
-27995 -28222 0
27995 28254 28222 0
-28393 -28104 0
-28393 -28117 0
28393 28104 28117 0
-28217 -28014 0
-28217 -28159 0
28217 28014 28159 0
-28004 -28222 0
-28004 -28014 0
28004 28222 28014 0
-28007 -28254 0
-28007 -28009 0
28007 28254 28009 0
-28010 -28120 0
-28010 -28012 0
28010 28120 28012 0
-28013 -28014 0
-28013 -28101 0
28013 28014 28101 0
-28016 -28254 0
-28016 -28018 0
28016 28254 28018 0
-28019 -28231 0
-28019 -28274 0
28019 28231 28274 0
-28022 -28222 0
-28022 -28024 0
28022 28222 28024 0
-28025 -28231 0
-28025 -28027 0
28025 28231 28027 0
-28028 -28222 0
-28028 -28075 0
28028 28222 28075 0
-28391 -28035 0
-28391 -28117 0
28391 28035 28117 0
-28034 -28035 0
-28034 -28075 0
28034 28035 28075 0
-28098 -28075 0
-28098 -28061 0
28098 28075 28061 0
-28040 -28061 0
-28040 -28145 0
28040 28061 28145 0
-28043 -28145 0
-28043 -28225 0
28043 28145 28225 0
-28046 -28205 0
-28046 -28145 0
28046 28205 28145 0
-28292 -28050 0
-28292 -28051 0
28292 28050 28051 0
-28052 -28184 0
-28052 -28254 0
28052 28184 28254 0
-28055 -28145 0
-28055 -28196 0
-28055 -28254 0
28055 28145 28196 28254 0
-28059 -28142 0
-28059 -28061 0
-28059 -28145 0
28059 28142 28061 28145 0
-28063 -28257 0
-28063 -28075 0
28063 28257 28075 0
-28066 -28222 0
-28066 -28068 0
28066 28222 28068 0
-28069 -28139 0
-28069 -28071 0
28069 28139 28071 0
-28072 -28073 0
-28072 -28139 0
-28072 -28075 0
28072 28073 28139 28075 0
-28076 -28162 0
-28076 -28188 0
28076 28162 28188 0
-28079 -28247 0
-28079 -28081 0
28079 28247 28081 0
-28082 -28083 0
-28082 -28145 0
28082 28083 28145 0
-28085 -28090 0
-28085 -28120 0
28085 28090 28120 0
-28088 -28222 0
-28088 -28090 0
-28088 -28091 0
28088 28222 28090 28091 0
-28363 -28093 0
-28363 -28094 0
-28363 -28196 0
28363 28093 28094 28196 0
-28096 -28097 0
-28096 -28098 0
28096 28097 28098 0
-28178 -28100 0
-28178 -28101 0
28178 28100 28101 0
-28102 -28224 0
-28102 -28104 0
28102 28224 28104 0
-28289 -28109 0
-28289 -28184 0
28289 28109 28184 0
-28108 -28109 0
-28108 -28110 0
28108 28109 28110 0
-28111 -28174 0
-28111 -28252 0
-28111 -28257 0
28111 28174 28252 28257 0
-28385 -28137 0
-28385 -28117 0
28385 28137 28117 0
-28118 -28137 0
-28118 -28120 0
28118 28137 28120 0
-28121 -28274 0
-28121 -28123 0
28121 28274 28123 0
-28179 -28248 0
-28179 -28224 0
28179 28248 28224 0
-28127 -28222 0
-28127 -28129 0
28127 28222 28129 0
-28130 -28184 0
-28130 -28132 0
28130 28184 28132 0
-28133 -28222 0
-28133 -28138 0
28133 28222 28138 0
-28278 -28137 0
-28278 -28138 0
-28278 -28139 0
28278 28137 28138 28139 0
-28140 -28141 0
-28140 -28142 0
28140 28141 28142 0
-28143 -28144 0
-28143 -28145 0
28143 28144 28145 0
-28311 -28154 0
-28311 -28148 0
28311 28154 28148 0
-28266 -28154 0
-28266 -28151 0
28266 28154 28151 0
-28152 -28174 0
-28152 -28154 0
28152 28174 28154 0
-28155 -28156 0
-28155 -28174 0
28155 28156 28174 0
-28335 -28159 0
-28335 -28160 0
28335 28159 28160 0
-28161 -28162 0
-28161 -28163 0
28161 28162 28163 0
-28164 -28174 0
-28164 -28166 0
28164 28174 28166 0
-28167 -28168 0
-28167 -28174 0
28167 28168 28174 0
-28170 -28175 0
-28170 -28172 0
28170 28175 28172 0
-28173 -28174 0
-28173 -28175 0
-28173 -28176 0
28173 28174 28175 28176 0
-28177 -28178 0
-28177 -28179 0
28177 28178 28179 0
-28361 -28184 0
-28361 -28182 0
28361 28184 28182 0
-28183 -28184 0
-28183 -28185 0
28183 28184 28185 0
-28186 -28187 0
-28186 -28188 0
28186 28187 28188 0
-28189 -28190 0
-28189 -28191 0
28189 28190 28191 0
-28192 -28204 0
-28192 -28194 0
28192 28204 28194 0
-28195 -28196 0
-28195 -28197 0
28195 28196 28197 0
-28198 -28202 0
-28198 -28231 0
28198 28202 28231 0
-28201 -28202 0
-28201 -28225 0
-28201 -28204 0
-28201 -28205 0
28201 28202 28225 28204 28205 0
-28309 -28210 0
-28309 -28208 0
28309 28210 28208 0
-28209 -28210 0
-28209 -28211 0
28209 28210 28211 0
-28304 -28213 0
-28304 -28214 0
28304 28213 28214 0
-28315 -28274 0
-28315 -28217 0
-28315 -28218 0
-28315 -28219 0
28315 28274 28217 28218 28219 0
-28220 -28226 0
-28220 -28222 0
28220 28226 28222 0
-28284 -28224 0
-28284 -28225 0
-28284 -28226 0
28284 28224 28225 28226 0
-28227 -28278 0
-28227 -28229 0
28227 28278 28229 0
-28230 -28231 0
-28230 -28232 0
28230 28231 28232 0
-28233 -28234 0
-28233 -28235 0
-28233 -28236 0
28233 28234 28235 28236 0
-28237 -28238 0
-28237 -28239 0
-28237 -28369 0
-28237 -28241 0
28237 28238 28239 28369 28241 0
-28242 -28243 0
-28242 -28244 0
28242 28243 28244 0
-28245 -28250 0
-28245 -28247 0
-28245 -28248 0
28245 28250 28247 28248 0
-28329 -28250 0
-28329 -28275 0
-28329 -28252 0
28329 28250 28275 28252 0
-28253 -28254 0
-28253 -28255 0
28253 28254 28255 0
-28288 -28257 0
-28288 -28258 0
28288 28257 28258 0
-28259 -28260 0
-28259 -28261 0
28259 28260 28261 0
-28262 -28263 0
-28262 -28369 0
-28262 -28361 0
-28262 -28266 0
28262 28263 28369 28361 28266 0
-28267 -28268 0
-28267 -28269 0
28267 28268 28269 0
-28270 -28271 0
-28270 -28325 0
28270 28271 28325 0
-28298 -28274 0
-28298 -28275 0
-28298 -28276 0
28298 28274 28275 28276 0
-28277 -28278 0
-28277 -28279 0
-28277 -28280 0
28277 28278 28279 28280 0
-28281 -28282 0
-28281 -28325 0
-28281 -28284 0
-28281 -28285 0
28281 28282 28325 28284 28285 0
-28286 -28287 0
-28286 -28288 0
-28286 -28289 0
-28286 -28369 0
28286 28287 28288 28289 28369 0
-28291 -28292 0
-28291 -28293 0
28291 28292 28293 0
-28294 -28298 0
-28294 -28296 0
28294 28298 28296 0
-28297 -28298 0
-28297 -28325 0
-28297 -28300 0
28297 28298 28325 28300 0
-28301 -28309 0
-28301 -28308 0
-28301 -28304 0
28301 28309 28308 28304 0
-28305 -28306 0
-28305 -28307 0
-28305 -28308 0
-28305 -28309 0
28305 28306 28307 28308 28309 0
-28310 -28311 0
-28310 -28312 0
-28310 -28313 0
28310 28311 28312 28313 0
-28314 -28315 0
-28314 -28316 0
-28314 -28317 0
28314 28315 28316 28317 0
-28318 -28319 0
-28318 -28320 0
-28318 -28321 0
28318 28319 28320 28321 0
-28322 -28323 0
-28322 -28324 0
-28322 -28325 0
-28322 -28326 0
28322 28323 28324 28325 28326 0
-28327 -28328 0
-28327 -28329 0
-28327 -28330 0
-28327 -28331 0
28327 28328 28329 28330 28331 0
-28332 -28333 0
-28332 -28334 0
-28332 -28335 0
-28332 -28369 0
28332 28333 28334 28335 28369 0
-28337 -28338 0
-28337 -28339 0
28337 28338 28339 0
-28341 29200 0
28341 -29200 0
-28343 29389 0
28343 -29389 0
-28345 29325 0
28345 -29325 0
-28347 29469 0
28347 -29469 0
-28349 29360 0
28349 -29360 0
-28351 29437 0
28351 -29437 0
-28353 28352 0
28353 -28352 0
-28355 28354 0
28355 -28354 0
-28357 28356 0
28357 -28356 0
-28359 28358 0
28359 -28358 0
-28361 28360 0
28361 -28360 0
-28363 28362 0
28363 -28362 0
-28365 28364 0
28365 -28364 0
-28367 28366 0
28367 -28366 0
-28369 28368 0
28369 -28368 0
-28371 28370 0
28371 -28370 0
-28373 28372 0
28373 -28372 0
-28375 28374 0
28375 -28374 0
-28377 28376 0
28377 -28376 0
-28379 28378 0
28379 -28378 0
-28381 28380 0
28381 -28380 0
-28383 28382 0
28383 -28382 0
-28385 28384 0
28385 -28384 0
-28387 28386 0
28387 -28386 0
-28389 28388 0
28389 -28388 0
-28391 28390 0
28391 -28390 0
-28393 28392 0
28393 -28392 0
-28395 28394 0
28395 -28394 0
-28397 28396 0
28397 -28396 0
29335 29446 0
-29335 -29446 0
29406 28401 0
-29406 -28401 0
28598 28601 0
-28598 -28601 0
28869 28601 0
-28869 -28601 0
29316 29374 0
-29316 -29374 0
28600 29296 0
-28600 -29296 0
29489 29296 0
-29489 -29296 0
28986 29389 0
-28986 -29389 0
29286 29325 0
-29286 -29325 0
29239 29469 0
-29239 -29469 0
28993 29156 0
-28993 -29156 0
29242 29227 0
-29242 -29227 0
29290 29360 0
-29290 -29360 0
29005 28944 0
-29005 -28944 0
29250 29319 0
-29250 -29319 0
29276 29437 0
-29276 -29437 0
29440 28979 0
-29440 -28979 0
29420 28905 0
-29420 -28905 0
29120 29127 0
-29120 -29127 0
29288 29224 0
-29288 -29224 0
29411 29198 0
-29411 -29198 0
28622 29204 0
-28622 -29204 0
29434 28990 0
-29434 -28990 0
28629 29222 0
-28629 -29222 0
29426 29225 0
-29426 -29225 0
28797 28868 0
-28797 -28868 0
28675 29231 0
-28675 -29231 0
29149 29472 0
-29149 -29472 0
29007 29403 0
-29007 -29403 0
28779 28898 0
-28779 -28898 0
29467 29243 0
-29467 -29243 0
28770 28907 0
-28770 -28907 0
29352 29305 0
-29352 -29305 0
28643 29249 0
-28643 -29249 0
28778 28916 0
-28778 -28916 0
28781 28925 0
-28781 -28925 0
29463 29255 0
-29463 -29255 0
28785 28931 0
-28785 -28931 0
28858 29261 0
-28858 -29261 0
28710 29274 0
-28710 -29274 0
28846 28957 0
-28846 -28957 0
28653 29281 0
-28653 -29281 0
28656 29287 0
-28656 -29287 0
28672 29297 0
-28672 -29297 0
28798 29578 0
-28798 -29578 0
28732 28974 0
-28732 -28974 0
29610 28981 0
-29610 -28981 0
28681 29167 0
-28681 -29167 0
29112 29504 0
-29112 -29504 0
29103 29009 0
-29103 -29009 0
29541 29133 0
-29541 -29133 0
28696 29336 0
-28696 -29336 0
28708 29342 0
-28708 -29342 0
28839 29023 0
-28839 -29023 0
28806 29345 0
-28806 -29345 0
28698 29032 0
-28698 -29032 0
29444 29113 0
-29444 -29113 0
28707 29379 0
-28707 -29379 0
28828 29044 0
-28828 -29044 0
28831 29047 0
-28831 -29047 0
28711 29382 0
-28711 -29382 0
29166 29385 0
-29166 -29385 0
29116 29388 0
-29116 -29388 0
28713 29392 0
-28713 -29392 0
29451 29050 0
-29451 -29050 0
28719 29108 0
-28719 -29108 0
29584 29405 0
-29584 -29405 0
29456 29142 0
-29456 -29142 0
29169 29398 0
-29169 -29398 0
29540 29172 0
-29540 -29172 0
28738 29428 0
-28738 -29428 0
29146 29098 0
-29146 -29098 0
29465 29401 0
-29465 -29401 0
29140 29104 0
-29140 -29104 0
28836 29407 0
-28836 -29407 0
29139 29410 0
-29139 -29410 0
29491 29413 0
-29491 -29413 0
29546 29442 0
-29546 -29442 0
28848 29445 0
-28848 -29445 0
29568 29452 0
-29568 -29452 0
29523 29136 0
-29523 -29136 0
28854 29121 0
-28854 -29121 0
29527 29124 0
-29527 -29124 0
29178 29460 0
-29178 -29460 0
28745 29474 0
-28745 -29474 0
29570 29477 0
-29570 -29477 0
29531 29485 0
-29531 -29485 0
29536 29492 0
-29536 -29492 0
29574 29496 0
-29574 -29496 0
29588 29501 0
-29588 -29501 0
28857 29506 0
-28857 -29506 0
29598 29516 0
-29598 -29516 0
29604 29520 0
-29604 -29520 0
29545 29525 0
-29545 -29525 0
29554 29529 0
-29554 -29529 0
29184 29157 0
-29184 -29157 0
29586 29537 0
-29586 -29537 0
29193 29173 0
-29193 -29173 0
29572 29552 0
-29572 -29552 0
-29265 29296 0
-29265 28598 0
29265 -29296 -28598 0
-29266 28600 0
-29266 28601 0
29266 -28600 -28601 0
-29283 29360 0
-29283 29239 0
29283 -29360 -29239 0
-29391 29446 0
-29391 29239 0
29391 -29446 -29239 0
-29298 29096 0
-29298 29296 0
-29298 29239 0
29298 -29096 -29296 -29239 0
-29475 29335 0
-29475 29312 0
29475 -29335 -29312 0
-29387 29239 0
-29387 29357 0
29387 -29239 -29357 0
-29366 29239 0
-29366 28880 0
29366 -29239 -28880 0
-29338 28622 0
-29338 28913 0
29338 -28622 -28913 0
-29344 28901 0
-29344 28934 0
29344 -28901 -28934 0
-29347 29360 0
-29347 28629 0
29347 -29360 -28629 0
-29450 29437 0
-29450 29267 0
29450 -29437 -29267 0
-29363 29239 0
-29363 28954 0
29363 -29239 -28954 0
-29423 28964 0
-29423 28946 0
29423 -28964 -28946 0
-29502 29267 0
-29502 29467 0
29502 -29267 -29467 0
-29381 28643 0
-29381 28971 0
29381 -28643 -28971 0
-29539 29578 0
-29539 29446 0
29539 -29578 -29446 0
-29429 29025 0
-29429 28974 0
29429 -29025 -28974 0
-29397 29354 0
-29397 28653 0
29397 -29354 -28653 0
-29400 29309 0
-29400 28656 0
29400 -29309 -28656 0
-29453 29200 0
-29453 29323 0
29453 -29200 -29323 0
-29553 29434 0
-29553 29198 0
-29553 29323 0
29553 -29434 -29198 -29323 0
-29454 29326 0
-29454 29234 0
29454 -29326 -29234 0
-29548 29227 0
-29548 29326 0
29548 -29227 -29326 0
-29458 29219 0
-29458 28672 0
29458 -29219 -28672 0
-29483 29348 0
-29483 28675 0
29483 -29348 -28675 0
-29449 29348 0
-29449 29333 0
29449 -29348 -29333 0
-29495 29357 0
-29495 28681 0
29495 -29357 -28681 0
-29535 29243 0
-29535 29355 0
29535 -29243 -29355 0
-29543 29355 0
-29543 29255 0
29543 -29355 -29255 0
-29528 29367 0
-29528 29333 0
29528 -29367 -29333 0
-29412 29029 0
-29412 28961 0
29412 -29029 -28961 0
-29447 29041 0
-29447 28696 0
29447 -29041 -28696 0
-29459 28698 0
-29459 29420 0
29459 -28698 -29420 0
-29497 29401 0
-29497 29394 0
29497 -29401 -29394 0
-29532 29393 0
-29532 29401 0
29532 -29393 -29401 0
-29470 28707 0
-29470 28708 0
29470 -28707 -28708 0
-29473 28710 0
-29473 28711 0
29473 -28710 -28711 0
-29476 28713 0
-29476 29300 0
29476 -28713 -29300 0
-29478 29489 0
-29478 28719 0
29478 -29489 -28719 0
-29522 28719 0
-29522 29156 0
29522 -28719 -29156 0
-29484 29584 0
-29484 29296 0
29484 -29584 -29296 0
-29486 29407 0
-29486 29163 0
-29486 29127 0
29486 -29407 -29163 -29127 0
-29511 29413 0
-29511 29294 0
29511 -29413 -29294 0
-29515 28732 0
-29515 29413 0
29515 -28732 -29413 0
-29534 28928 0
-29534 29416 0
29534 -28928 -29416 0
-29521 28738 0
-29521 29294 0
29521 -28738 -29294 0
-29508 28836 0
-29508 29075 0
29508 -28836 -29075 0
-29538 29291 0
-29538 28745 0
29538 -29291 -28745 0
29045 -29127 0
29045 -29437 0
29045 -28979 0
-29045 29127 29437 28979 0
28958 -29437 0
28958 -29201 0
-28958 29437 29201 0
29102 -29120 0
29102 -29228 0
-29102 29120 29228 0
29125 -28975 0
29125 -29440 0
-29125 28975 29440 0
29024 -29439 0
29024 -29296 0
-29024 29439 29296 0
29027 -29312 0
29027 -29284 0
-29027 29312 29284 0
29030 -29237 0
29030 -29284 0
-29030 29237 29284 0
29033 -29437 0
29033 -28770 0
-29033 29437 28770 0
29036 -29389 0
29036 -29300 0
-29036 29389 29300 0
29039 -29325 0
29039 -29303 0
-29039 29325 29303 0
29042 -28778 0
29042 -28779 0
-29042 28778 28779 0
29046 -28781 0
29046 -29439 0
-29046 28781 29439 0
29051 -29200 0
29051 -28785 0
-29051 29200 28785 0
29054 -29234 0
29054 -29317 0
-29054 29234 29317 0
29152 -29276 0
29152 -29375 0
-29152 29276 29375 0
29099 -29335 0
29099 -29389 0
29099 -29378 0
-29099 29335 29389 29378 0
29189 -28797 0
29189 -28798 0
-29189 28797 28798 0
29105 -29383 0
29105 -29356 0
-29105 29383 29356 0
29130 -29156 0
29130 -29112 0
-29130 29156 29112 0
29111 -28806 0
29111 -29276 0
-29111 28806 29276 0
29115 -29405 0
29115 -28869 0
-29115 29405 28869 0
29175 -29405 0
29175 -29156 0
-29175 29405 29156 0
29158 -29053 0
29158 -29409 0
-29158 29053 29409 0
29135 -29425 0
29135 -28946 0
-29135 29425 28946 0
29129 -28839 0
29129 -29428 0
-29129 28839 29428 0
29132 -28974 0
29132 -29433 0
-29132 28974 29433 0
29182 -29009 0
29182 -28828 0
-29182 29009 28828 0
29174 -29359 0
29174 -28831 0
-29174 29359 28831 0
29138 -29465 0
29138 -29392 0
-29138 29465 29392 0
29183 -28836 0
29183 -29258 0
-29183 28836 29258 0
29186 -28839 0
29186 -29491 0
-29186 28839 29491 0
29145 -29472 0
29145 -29457 0
-29145 29472 29457 0
29148 -29468 0
29148 -28846 0
-29148 29468 28846 0
29151 -28848 0
29151 -29371 0
-29151 28848 29371 0
29155 -29503 0
29155 -29404 0
-29155 29503 29404 0
29162 -28854 0
29162 -29435 0
-29162 28854 29435 0
29192 -28857 0
29192 -28858 0
-29192 28857 28858 0
29096 29319 0
29096 29227 0
-29096 -29319 -29227 0
28990 29229 0
28990 29374 0
-28990 -29229 -29374 0
29306 28905 0
29306 28944 0
-29306 -28905 -28944 0
28868 28869 0
28868 29335 0
-28868 -28869 -29335 0
29490 29229 0
29490 29316 0
-29490 -29229 -29316 0
29399 29325 0
29399 29198 0
-29399 -29325 -29198 0
29357 29335 0
29357 28986 0
-29357 -29335 -28986 0
28880 29233 0
28880 28986 0
-28880 -29233 -28986 0
29377 28986 0
29377 29200 0
-29377 -28986 -29200 0
29308 29286 0
29308 28888 0
-29308 -29286 -28888 0
29472 29286 0
29472 29200 0
-29472 -29286 -29200 0
29354 29239 0
29354 29437 0
-29354 -29239 -29437 0
29403 29239 0
29403 29286 0
-29403 -29239 -29286 0
28898 29242 0
28898 28905 0
-28898 -29242 -28905 0
28901 29290 0
28901 29446 0
-28901 -29290 -29446 0
29462 28905 0
29462 29005 0
-29462 -28905 -29005 0
28907 29201 0
28907 29096 0
-28907 -29201 -29096 0
29305 29250 0
29305 29242 0
-29305 -29250 -29242 0
28913 29250 0
28913 29229 0
-28913 -29250 -29229 0
28916 29250 0
28916 29005 0
-28916 -29250 -29005 0
29419 29446 0
29419 29250 0
-29419 -29446 -29250 0
29309 29312 0
29309 29469 0
-29309 -29312 -29469 0
28925 29276 0
28925 29127 0
-28925 -29276 -29127 0
28928 29432 0
28928 29127 0
-28928 -29432 -29127 0
28931 28986 0
28931 28990 0
-28931 -28986 -28990 0
28934 29296 0
28934 28990 0
-28934 -29296 -28990 0
29315 29360 0
29315 29219 0
-29315 -29360 -29219 0
28975 29420 0
28975 29005 0
-28975 -29420 -29005 0
29439 28944 0
29439 29420 0
-29439 -28944 -29420 0
28946 29489 0
28946 29440 0
28946 29225 0
28946 29127 0
-28946 -29489 -29440 -29225 -29127 0
29025 29228 0
29025 29296 0
-29025 -29228 -29296 0
28954 29306 0
28954 29357 0
-28954 -29306 -29357 0
28957 28958 0
28957 29290 0
28957 29306 0
-28957 -28958 -29290 -29306 0
28961 29237 0
28961 29308 0
-28961 -29237 -29308 0
28964 29316 0
28964 29240 0
28964 29296 0
-28964 -29316 -29240 -29296 0
29324 29243 0
29324 29469 0
-29324 -29243 -29469 0
28971 29305 0
28971 29437 0
-28971 -29305 -29437 0
28974 28975 0
28974 29489 0
28974 29306 0
-28974 -28975 -29489 -29306 0
29163 28979 0
29163 29439 0
-29163 -28979 -29439 0
28981 29267 0
28981 29312 0
-28981 -29267 -29312 0
29353 29278 0
29353 28986 0
-29353 -29278 -28986 0
29167 29276 0
29167 29278 0
29167 28990 0
-29167 -29276 -29278 -28990 0
29356 29149 0
29356 28993 0
-29356 -29149 -28993 0
29359 29149 0
29359 29389 0
-29359 -29149 -29389 0
29369 29255 0
29369 29149 0
-29369 -29255 -29149 0
29371 29149 0
29371 29210 0
-29371 -29149 -29210 0
29375 29291 0
29375 29005 0
-29375 -29291 -29005 0
29378 29007 0
29378 29312 0
-29378 -29007 -29312 0
29009 29300 0
29009 29290 0
29009 29291 0
-29009 -29300 -29290 -29291 0
29133 29270 0
29133 29286 0
29133 29303 0
-29133 -29270 -29286 -29303 0
29383 29311 0
29383 29469 0
-29383 -29311 -29469 0
29390 29149 0
29390 29311 0
-29390 -29149 -29311 0
29023 29024 0
29023 29025 0
-29023 -29024 -29025 0
29153 29027 0
29153 29198 0
-29153 -29027 -29198 0
29029 29030 0
29029 29360 0
-29029 -29030 -29360 0
29032 29033 0
29032 29290 0
-29032 -29033 -29290 0
29402 29036 0
29402 29200 0
-29402 -29036 -29200 0
29113 29039 0
29113 29270 0
-29113 -29039 -29270 0
29041 29042 0
29041 29489 0
-29041 -29042 -29489 0
29044 29045 0
29044 29046 0
-29044 -29045 -29046 0
29047 29383 0
29047 29315 0
-29047 -29383 -29315 0
29050 29051 0
29050 29323 0
-29050 -29051 -29323 0
29053 29054 0
29053 29290 0
-29053 -29054 -29290 0
29108 29239 0
29108 29335 0
29108 29348 0
-29108 -29239 -29335 -29348 0
29405 29210 0
29405 29358 0
-29405 -29210 -29358 0
29194 29437 0
29194 29358 0
29194 29420 0
-29194 -29437 -29358 -29420 0
29142 29234 0
29142 29239 0
29142 29367 0
-29142 -29234 -29239 -29367 0
29409 29370 0
29409 29242 0
29409 29228 0
-29409 -29370 -29242 -29228 0
29075 29120 0
29075 29370 0
29075 29300 0
-29075 -29120 -29370 -29300 0
29172 29352 0
29172 29550 0
29172 29313 0
-29172 -29352 -29550 -29313 0
29417 29376 0
29417 29242 0
-29417 -29376 -29242 0
29425 29376 0
29425 29250 0
29425 29229 0
-29425 -29376 -29250 -29229 0
29428 29250 0
29428 29376 0
29428 29240 0
-29428 -29250 -29376 -29240 0
29433 29335 0
29433 29096 0
29433 29376 0
-29433 -29335 -29096 -29376 0
29098 29099 0
29098 29153 0
-29098 -29099 -29153 0
29441 29102 0
29441 29103 0
-29441 -29102 -29103 0
29104 29105 0
29104 29133 0
-29104 -29105 -29133 0
29590 29108 0
29590 29405 0
-29590 -29108 -29405 0
29560 29111 0
29560 29112 0
29560 29113 0
-29560 -29111 -29112 -29113 0
29582 29115 0
29582 29116 0
-29582 -29115 -29116 0
29136 29416 0
29136 29507 0
29136 29120 0
-29136 -29416 -29507 -29120 0
29121 29424 0
29121 29296 0
-29121 -29424 -29296 0
29124 29125 0
29124 29424 0
29124 29127 0
-29124 -29125 -29424 -29127 0
29494 29129 0
29494 29130 0
-29494 -29129 -29130 0
29500 29132 0
29500 29133 0
-29500 -29132 -29133 0
29612 29135 0
29612 29136 0
-29612 -29135 -29136 0
29562 29138 0
29562 29139 0
29562 29140 0
-29562 -29138 -29139 -29140 0
29580 29142 0
29580 29482 0
-29580 -29142 -29482 0
29592 29145 0
29592 29146 0
-29592 -29145 -29146 0
29165 29148 0
29165 29149 0
-29165 -29148 -29149 0
29594 29151 0
29594 29152 0
29594 29153 0
-29594 -29151 -29152 -29153 0
29170 29155 0
29170 29156 0
-29170 -29155 -29156 0
29157 29158 0
29157 29169 0
29157 29512 0
-29157 -29158 -29169 -29512 0
29176 29162 0
29176 29163 0
-29176 -29162 -29163 0
29549 29165 0
29549 29166 0
29549 29167 0
-29549 -29165 -29166 -29167 0
29602 29169 0
29602 29170 0
29602 29509 0
29602 29172 0
-29602 -29169 -29170 -29509 -29172 0
29173 29174 0
29173 29175 0
29173 29176 0
-29173 -29174 -29175 -29176 0
29564 29178 0
29564 29448 0
29564 29533 0
-29564 -29178 -29448 -29533 0
29596 29182 0
29596 29183 0
29596 29184 0
-29596 -29182 -29183 -29184 0
29566 29186 0
29566 29542 0
-29566 -29186 -29542 0
29556 29189 0
29556 29547 0
-29556 -29189 -29547 0
29558 29192 0
29558 29193 0
29558 29194 0
-29558 -29192 -29193 -29194 0
-29233 -29446 0
-29233 -29296 0
29233 29446 29296 0
-29198 -29389 0
-29198 -29200 0
29198 29389 29200 0
-29201 -29296 0
-29201 -29469 0
29201 29296 29469 0
-29204 -29227 0
-29204 -29374 0
29204 29227 29374 0
-29312 -29437 0
-29312 -29360 0
29312 29437 29360 0
-29210 -29469 0
-29210 -29437 0
29210 29469 29437 0
-29608 -29319 0
-29608 -29332 0
29608 29319 29332 0
-29432 -29229 0
-29432 -29374 0
29432 29229 29374 0
-29219 -29437 0
-29219 -29229 0
29219 29437 29229 0
-29222 -29469 0
-29222 -29224 0
29222 29469 29224 0
-29225 -29335 0
-29225 -29227 0
29225 29335 29227 0
-29228 -29229 0
-29228 -29316 0
29228 29229 29316 0
-29231 -29469 0
-29231 -29233 0
29231 29469 29233 0
-29234 -29446 0
-29234 -29489 0
29234 29446 29489 0
-29237 -29437 0
-29237 -29239 0
29237 29437 29239 0
-29240 -29446 0
-29240 -29242 0
29240 29446 29242 0
-29243 -29437 0
-29243 -29290 0
29243 29437 29290 0
-29606 -29250 0
-29606 -29332 0
29606 29250 29332 0
-29249 -29250 0
-29249 -29290 0
29249 29250 29290 0
-29313 -29290 0
-29313 -29276 0
29313 29290 29276 0
-29255 -29276 0
-29255 -29360 0
29255 29276 29360 0
-29258 -29360 0
-29258 -29440 0
29258 29360 29440 0
-29261 -29420 0
-29261 -29360 0
29261 29420 29360 0
-29507 -29265 0
-29507 -29266 0
29507 29265 29266 0
-29267 -29399 0
-29267 -29469 0
29267 29399 29469 0
-29270 -29360 0
-29270 -29411 0
-29270 -29469 0
29270 29360 29411 29469 0
-29274 -29357 0
-29274 -29276 0
-29274 -29360 0
29274 29357 29276 29360 0
-29278 -29472 0
-29278 -29290 0
29278 29472 29290 0
-29281 -29437 0
-29281 -29283 0
29281 29437 29283 0
-29284 -29354 0
-29284 -29286 0
29284 29354 29286 0
-29287 -29288 0
-29287 -29354 0
-29287 -29290 0
29287 29288 29354 29290 0
-29291 -29377 0
-29291 -29403 0
29291 29377 29403 0
-29294 -29462 0
-29294 -29296 0
29294 29462 29296 0
-29297 -29298 0
-29297 -29360 0
29297 29298 29360 0
-29300 -29305 0
-29300 -29335 0
29300 29305 29335 0
-29303 -29437 0
-29303 -29305 0
-29303 -29306 0
29303 29437 29305 29306 0
-29578 -29308 0
-29578 -29309 0
-29578 -29411 0
29578 29308 29309 29411 0
-29311 -29312 0
-29311 -29313 0
29311 29312 29313 0
-29393 -29315 0
-29393 -29316 0
29393 29315 29316 0
-29317 -29439 0
-29317 -29319 0
29317 29439 29319 0
-29504 -29324 0
-29504 -29399 0
29504 29324 29399 0
-29323 -29324 0
-29323 -29325 0
29323 29324 29325 0
-29326 -29389 0
-29326 -29467 0
-29326 -29472 0
29326 29389 29467 29472 0
-29600 -29352 0
-29600 -29332 0
29600 29352 29332 0
-29333 -29352 0
-29333 -29335 0
29333 29352 29335 0
-29336 -29489 0
-29336 -29338 0
29336 29489 29338 0
-29394 -29463 0
-29394 -29439 0
29394 29463 29439 0
-29342 -29437 0
-29342 -29344 0
29342 29437 29344 0
-29345 -29399 0
-29345 -29347 0
29345 29399 29347 0
-29348 -29437 0
-29348 -29353 0
29348 29437 29353 0
-29493 -29352 0
-29493 -29353 0
-29493 -29354 0
29493 29352 29353 29354 0
-29355 -29356 0
-29355 -29357 0
29355 29356 29357 0
-29358 -29359 0
-29358 -29360 0
29358 29359 29360 0
-29526 -29369 0
-29526 -29363 0
29526 29369 29363 0
-29481 -29369 0
-29481 -29366 0
29481 29369 29366 0
-29367 -29389 0
-29367 -29369 0
29367 29389 29369 0
-29370 -29371 0
-29370 -29389 0
29370 29371 29389 0
-29550 -29374 0
-29550 -29375 0
29550 29374 29375 0
-29376 -29377 0
-29376 -29378 0
29376 29377 29378 0
-29379 -29389 0
-29379 -29381 0
29379 29389 29381 0
-29382 -29383 0
-29382 -29389 0
29382 29383 29389 0
-29385 -29390 0
-29385 -29387 0
29385 29390 29387 0
-29388 -29389 0
-29388 -29390 0
-29388 -29391 0
29388 29389 29390 29391 0
-29392 -29393 0
-29392 -29394 0
29392 29393 29394 0
-29576 -29399 0
-29576 -29397 0
29576 29399 29397 0
-29398 -29399 0
-29398 -29400 0
29398 29399 29400 0
-29401 -29402 0
-29401 -29403 0
29401 29402 29403 0
-29404 -29405 0
-29404 -29406 0
29404 29405 29406 0
-29407 -29419 0
-29407 -29409 0
29407 29419 29409 0
-29410 -29411 0
-29410 -29412 0
29410 29411 29412 0
-29413 -29417 0
-29413 -29446 0
29413 29417 29446 0
-29416 -29417 0
-29416 -29440 0
-29416 -29419 0
-29416 -29420 0
29416 29417 29440 29419 29420 0
-29524 -29425 0
-29524 -29423 0
29524 29425 29423 0
-29424 -29425 0
-29424 -29426 0
29424 29425 29426 0
-29519 -29428 0
-29519 -29429 0
29519 29428 29429 0
-29530 -29489 0
-29530 -29432 0
-29530 -29433 0
-29530 -29434 0
29530 29489 29432 29433 29434 0
-29435 -29441 0
-29435 -29437 0
29435 29441 29437 0
-29499 -29439 0
-29499 -29440 0
-29499 -29441 0
29499 29439 29440 29441 0
-29442 -29493 0
-29442 -29444 0
29442 29493 29444 0
-29445 -29446 0
-29445 -29447 0
29445 29446 29447 0
-29448 -29449 0
-29448 -29450 0
-29448 -29451 0
29448 29449 29450 29451 0
-29452 -29453 0
-29452 -29454 0
-29452 -29584 0
-29452 -29456 0
29452 29453 29454 29584 29456 0
-29457 -29458 0
-29457 -29459 0
29457 29458 29459 0
-29460 -29465 0
-29460 -29462 0
-29460 -29463 0
29460 29465 29462 29463 0
-29544 -29465 0
-29544 -29490 0
-29544 -29467 0
29544 29465 29490 29467 0
-29468 -29469 0
-29468 -29470 0
29468 29469 29470 0
-29503 -29472 0
-29503 -29473 0
29503 29472 29473 0
-29474 -29475 0
-29474 -29476 0
29474 29475 29476 0
-29477 -29478 0
-29477 -29584 0
-29477 -29576 0
-29477 -29481 0
29477 29478 29584 29576 29481 0
-29482 -29483 0
-29482 -29484 0
29482 29483 29484 0
-29485 -29486 0
-29485 -29540 0
29485 29486 29540 0
-29513 -29489 0
-29513 -29490 0
-29513 -29491 0
29513 29489 29490 29491 0
-29492 -29493 0
-29492 -29494 0
-29492 -29495 0
29492 29493 29494 29495 0
-29496 -29497 0
-29496 -29540 0
-29496 -29499 0
-29496 -29500 0
29496 29497 29540 29499 29500 0
-29501 -29502 0
-29501 -29503 0
-29501 -29504 0
-29501 -29584 0
29501 29502 29503 29504 29584 0
-29506 -29507 0
-29506 -29508 0
29506 29507 29508 0
-29509 -29513 0
-29509 -29511 0
29509 29513 29511 0
-29512 -29513 0
-29512 -29540 0
-29512 -29515 0
29512 29513 29540 29515 0
-29516 -29524 0
-29516 -29523 0
-29516 -29519 0
29516 29524 29523 29519 0
-29520 -29521 0
-29520 -29522 0
-29520 -29523 0
-29520 -29524 0
29520 29521 29522 29523 29524 0
-29525 -29526 0
-29525 -29527 0
-29525 -29528 0
29525 29526 29527 29528 0
-29529 -29530 0
-29529 -29531 0
-29529 -29532 0
29529 29530 29531 29532 0
-29533 -29534 0
-29533 -29535 0
-29533 -29536 0
29533 29534 29535 29536 0
-29537 -29538 0
-29537 -29539 0
-29537 -29540 0
-29537 -29541 0
29537 29538 29539 29540 29541 0
-29542 -29543 0
-29542 -29544 0
-29542 -29545 0
-29542 -29546 0
29542 29543 29544 29545 29546 0
-29547 -29548 0
-29547 -29549 0
-29547 -29550 0
-29547 -29584 0
29547 29548 29549 29550 29584 0
-29552 -29553 0
-29552 -29554 0
29552 29553 29554 0
-29556 30415 0
29556 -30415 0
-29558 30604 0
29558 -30604 0
-29560 30540 0
29560 -30540 0
-29562 30684 0
29562 -30684 0
-29564 30575 0
29564 -30575 0
-29566 30652 0
29566 -30652 0
-29568 29567 0
29568 -29567 0
-29570 29569 0
29570 -29569 0
-29572 29571 0
29572 -29571 0
-29574 29573 0
29574 -29573 0
-29576 29575 0
29576 -29575 0
-29578 29577 0
29578 -29577 0
-29580 29579 0
29580 -29579 0
-29582 29581 0
29582 -29581 0
-29584 29583 0
29584 -29583 0
-29586 29585 0
29586 -29585 0
-29588 29587 0
29588 -29587 0
-29590 29589 0
29590 -29589 0
-29592 29591 0
29592 -29591 0
-29594 29593 0
29594 -29593 0
-29596 29595 0
29596 -29595 0
-29598 29597 0
29598 -29597 0
-29600 29599 0
29600 -29599 0
-29602 29601 0
29602 -29601 0
-29604 29603 0
29604 -29603 0
-29606 29605 0
29606 -29605 0
-29608 29607 0
29608 -29607 0
-29610 29609 0
29610 -29609 0
-29612 29611 0
29612 -29611 0
30550 30661 0
-30550 -30661 0
30621 29616 0
-30621 -29616 0
29813 29816 0
-29813 -29816 0
30084 29816 0
-30084 -29816 0
30531 30589 0
-30531 -30589 0
29815 30511 0
-29815 -30511 0
30704 30511 0
-30704 -30511 0
30201 30604 0
-30201 -30604 0
30501 30540 0
-30501 -30540 0
30454 30684 0
-30454 -30684 0
30208 30371 0
-30208 -30371 0
30457 30442 0
-30457 -30442 0
30505 30575 0
-30505 -30575 0
30220 30159 0
-30220 -30159 0
30465 30534 0
-30465 -30534 0
30491 30652 0
-30491 -30652 0
30655 30194 0
-30655 -30194 0
30635 30120 0
-30635 -30120 0
30335 30342 0
-30335 -30342 0
30503 30439 0
-30503 -30439 0
30626 30413 0
-30626 -30413 0
29837 30419 0
-29837 -30419 0
30649 30205 0
-30649 -30205 0
29844 30437 0
-29844 -30437 0
30641 30440 0
-30641 -30440 0
30012 30083 0
-30012 -30083 0
29890 30446 0
-29890 -30446 0
30364 30687 0
-30364 -30687 0
30222 30618 0
-30222 -30618 0
29994 30113 0
-29994 -30113 0
30682 30458 0
-30682 -30458 0
29985 30122 0
-29985 -30122 0
30567 30520 0
-30567 -30520 0
29858 30464 0
-29858 -30464 0
29993 30131 0
-29993 -30131 0
29996 30140 0
-29996 -30140 0
30678 30470 0
-30678 -30470 0
30000 30146 0
-30000 -30146 0
30073 30476 0
-30073 -30476 0
29925 30489 0
-29925 -30489 0
30061 30172 0
-30061 -30172 0
29868 30496 0
-29868 -30496 0
29871 30502 0
-29871 -30502 0
29887 30512 0
-29887 -30512 0
30013 30522 0
-30013 -30522 0
29947 30189 0
-29947 -30189 0
29705 30196 0
-29705 -30196 0
29896 30382 0
-29896 -30382 0
30327 30719 0
-30327 -30719 0
30318 30224 0
-30318 -30224 0
30756 30348 0
-30756 -30348 0
29911 30551 0
-29911 -30551 0
29923 30557 0
-29923 -30557 0
30054 30238 0
-30054 -30238 0
30021 30560 0
-30021 -30560 0
29913 30247 0
-29913 -30247 0
30659 30328 0
-30659 -30328 0
29922 30594 0
-29922 -30594 0
30043 30259 0
-30043 -30259 0
30046 30262 0
-30046 -30262 0
29926 30597 0
-29926 -30597 0
30381 30600 0
-30381 -30600 0
30331 30603 0
-30331 -30603 0
29928 30607 0
-29928 -30607 0
30666 30265 0
-30666 -30265 0
29934 30323 0
-29934 -30323 0
30766 30620 0
-30766 -30620 0
30671 30357 0
-30671 -30357 0
30384 30613 0
-30384 -30613 0
30755 30387 0
-30755 -30387 0
29953 30643 0
-29953 -30643 0
30361 30313 0
-30361 -30313 0
30680 30616 0
-30680 -30616 0
30355 30319 0
-30355 -30319 0
30051 30622 0
-30051 -30622 0
30354 30625 0
-30354 -30625 0
30706 30628 0
-30706 -30628 0
30761 30657 0
-30761 -30657 0
30063 30660 0
-30063 -30660 0
29771 30667 0
-29771 -30667 0
30738 30351 0
-30738 -30351 0
30069 30336 0
-30069 -30336 0
30742 30339 0
-30742 -30339 0
30393 30675 0
-30393 -30675 0
29960 30689 0
-29960 -30689 0
29783 30692 0
-29783 -30692 0
30746 30700 0
-30746 -30700 0
30751 30707 0
-30751 -30707 0
29789 30711 0
-29789 -30711 0
29791 30716 0
-29791 -30716 0
30072 30721 0
-30072 -30721 0
29795 30731 0
-29795 -30731 0
29797 30735 0
-29797 -30735 0
30760 30740 0
-30760 -30740 0
30769 30744 0
-30769 -30744 0
30399 30372 0
-30399 -30372 0
29805 30752 0
-29805 -30752 0
30408 30388 0
-30408 -30388 0
29809 30767 0
-29809 -30767 0
-30480 30511 0
-30480 29813 0
30480 -30511 -29813 0
-30481 29815 0
-30481 29816 0
30481 -29815 -29816 0
-30498 30575 0
-30498 30454 0
30498 -30575 -30454 0
-30606 30661 0
-30606 30454 0
30606 -30661 -30454 0
-30513 30311 0
-30513 30511 0
-30513 30454 0
30513 -30311 -30511 -30454 0
-30690 30550 0
-30690 30527 0
30690 -30550 -30527 0
-30602 30454 0
-30602 30572 0
30602 -30454 -30572 0
-30581 30454 0
-30581 30095 0
30581 -30454 -30095 0
-30553 29837 0
-30553 30128 0
30553 -29837 -30128 0
-30559 30116 0
-30559 30149 0
30559 -30116 -30149 0
-30562 30575 0
-30562 29844 0
30562 -30575 -29844 0
-30665 30652 0
-30665 30482 0
30665 -30652 -30482 0
-30578 30454 0
-30578 30169 0
30578 -30454 -30169 0
-30638 30179 0
-30638 30161 0
30638 -30179 -30161 0
-30717 30482 0
-30717 30682 0
30717 -30482 -30682 0
-30596 29858 0
-30596 30186 0
30596 -29858 -30186 0
-30754 30522 0
-30754 30661 0
30754 -30522 -30661 0
-30644 30240 0
-30644 30189 0
30644 -30240 -30189 0
-30612 30569 0
-30612 29868 0
30612 -30569 -29868 0
-30615 30524 0
-30615 29871 0
30615 -30524 -29871 0
-30668 30415 0
-30668 30538 0
30668 -30415 -30538 0
-30768 30649 0
-30768 30413 0
-30768 30538 0
30768 -30649 -30413 -30538 0
-30669 30541 0
-30669 30449 0
30669 -30541 -30449 0
-30763 30442 0
-30763 30541 0
30763 -30442 -30541 0
-30673 30434 0
-30673 29887 0
30673 -30434 -29887 0
-30698 30563 0
-30698 29890 0
30698 -30563 -29890 0
-30664 30563 0
-30664 30548 0
30664 -30563 -30548 0
-30710 30572 0
-30710 29896 0
30710 -30572 -29896 0
-30750 30458 0
-30750 30570 0
30750 -30458 -30570 0
-30758 30570 0
-30758 30470 0
30758 -30570 -30470 0
-30743 30582 0
-30743 30548 0
30743 -30582 -30548 0
-30627 30244 0
-30627 30176 0
30627 -30244 -30176 0
-30662 30256 0
-30662 29911 0
30662 -30256 -29911 0
-30674 29913 0
-30674 30635 0
30674 -29913 -30635 0
-30712 30616 0
-30712 30609 0
30712 -30616 -30609 0
-30747 30608 0
-30747 30616 0
30747 -30608 -30616 0
-30685 29922 0
-30685 29923 0
30685 -29922 -29923 0
-30688 29925 0
-30688 29926 0
30688 -29925 -29926 0
-30691 29928 0
-30691 30515 0
30691 -29928 -30515 0
-30693 30704 0
-30693 29934 0
30693 -30704 -29934 0
-30737 29934 0
-30737 30371 0
30737 -29934 -30371 0
-30699 30766 0
-30699 30511 0
30699 -30766 -30511 0
-30701 30622 0
-30701 30378 0
-30701 30342 0
30701 -30622 -30378 -30342 0
-30726 30628 0
-30726 30509 0
30726 -30628 -30509 0
-30730 29947 0
-30730 30628 0
30730 -29947 -30628 0
-30749 30143 0
-30749 30631 0
30749 -30143 -30631 0
-30736 29953 0
-30736 30509 0
30736 -29953 -30509 0
-30723 30051 0
-30723 30290 0
30723 -30051 -30290 0
-30753 30506 0
-30753 29960 0
30753 -30506 -29960 0
30260 -30342 0
30260 -30652 0
30260 -30194 0
-30260 30342 30652 30194 0
30173 -30652 0
30173 -30416 0
-30173 30652 30416 0
30317 -30335 0
30317 -30443 0
-30317 30335 30443 0
30340 -30190 0
30340 -30655 0
-30340 30190 30655 0
30239 -30654 0
30239 -30511 0
-30239 30654 30511 0
30242 -30527 0
30242 -30499 0
-30242 30527 30499 0
30245 -30452 0
30245 -30499 0
-30245 30452 30499 0
30248 -30652 0
30248 -29985 0
-30248 30652 29985 0
30251 -30604 0
30251 -30515 0
-30251 30604 30515 0
30254 -30540 0
30254 -30518 0
-30254 30540 30518 0
30257 -29993 0
30257 -29994 0
-30257 29993 29994 0
30261 -29996 0
30261 -30654 0
-30261 29996 30654 0
30266 -30415 0
30266 -30000 0
-30266 30415 30000 0
30269 -30449 0
30269 -30532 0
-30269 30449 30532 0
30367 -30491 0
30367 -30590 0
-30367 30491 30590 0
30314 -30550 0
30314 -30604 0
30314 -30593 0
-30314 30550 30604 30593 0
30404 -30012 0
30404 -30013 0
-30404 30012 30013 0
30320 -30598 0
30320 -30571 0
-30320 30598 30571 0
30345 -30371 0
30345 -30327 0
-30345 30371 30327 0
30326 -30021 0
30326 -30491 0
-30326 30021 30491 0
30330 -30620 0
30330 -30084 0
-30330 30620 30084 0
30390 -30620 0
30390 -30371 0
-30390 30620 30371 0
30373 -30268 0
30373 -30624 0
-30373 30268 30624 0
30350 -30640 0
30350 -30161 0
-30350 30640 30161 0
30344 -30054 0
30344 -30643 0
-30344 30054 30643 0
30347 -30189 0
30347 -30648 0
-30347 30189 30648 0
30397 -30224 0
30397 -30043 0
-30397 30224 30043 0
30389 -30574 0
30389 -30046 0
-30389 30574 30046 0
30353 -30680 0
30353 -30607 0
-30353 30680 30607 0
30398 -30051 0
30398 -30473 0
-30398 30051 30473 0
30401 -30054 0
30401 -30706 0
-30401 30054 30706 0
30360 -30687 0
30360 -30672 0
-30360 30687 30672 0
30363 -30683 0
30363 -30061 0
-30363 30683 30061 0
30366 -30063 0
30366 -30586 0
-30366 30063 30586 0
30370 -30718 0
30370 -30619 0
-30370 30718 30619 0
30377 -30069 0
30377 -30650 0
-30377 30069 30650 0
30407 -30072 0
30407 -30073 0
-30407 30072 30073 0
30311 30534 0
30311 30442 0
-30311 -30534 -30442 0
30205 30444 0
30205 30589 0
-30205 -30444 -30589 0
30521 30120 0
30521 30159 0
-30521 -30120 -30159 0
30083 30084 0
30083 30550 0
-30083 -30084 -30550 0
30705 30444 0
30705 30531 0
-30705 -30444 -30531 0
30614 30540 0
30614 30413 0
-30614 -30540 -30413 0
30572 30550 0
30572 30201 0
-30572 -30550 -30201 0
30095 30448 0
30095 30201 0
-30095 -30448 -30201 0
30592 30201 0
30592 30415 0
-30592 -30201 -30415 0
30523 30501 0
30523 30103 0
-30523 -30501 -30103 0
30687 30501 0
30687 30415 0
-30687 -30501 -30415 0
30569 30454 0
30569 30652 0
-30569 -30454 -30652 0
30618 30454 0
30618 30501 0
-30618 -30454 -30501 0
30113 30457 0
30113 30120 0
-30113 -30457 -30120 0
30116 30505 0
30116 30661 0
-30116 -30505 -30661 0
30677 30120 0
30677 30220 0
-30677 -30120 -30220 0
30122 30416 0
30122 30311 0
-30122 -30416 -30311 0
30520 30465 0
30520 30457 0
-30520 -30465 -30457 0
30128 30465 0
30128 30444 0
-30128 -30465 -30444 0
30131 30465 0
30131 30220 0
-30131 -30465 -30220 0
30634 30661 0
30634 30465 0
-30634 -30661 -30465 0
30524 30527 0
30524 30684 0
-30524 -30527 -30684 0
30140 30491 0
30140 30342 0
-30140 -30491 -30342 0
30143 30647 0
30143 30342 0
-30143 -30647 -30342 0
30146 30201 0
30146 30205 0
-30146 -30201 -30205 0
30149 30511 0
30149 30205 0
-30149 -30511 -30205 0
30530 30575 0
30530 30434 0
-30530 -30575 -30434 0
30190 30635 0
30190 30220 0
-30190 -30635 -30220 0
30654 30159 0
30654 30635 0
-30654 -30159 -30635 0
30161 30704 0
30161 30655 0
30161 30440 0
30161 30342 0
-30161 -30704 -30655 -30440 -30342 0
30240 30443 0
30240 30511 0
-30240 -30443 -30511 0
30169 30521 0
30169 30572 0
-30169 -30521 -30572 0
30172 30173 0
30172 30505 0
30172 30521 0
-30172 -30173 -30505 -30521 0
30176 30452 0
30176 30523 0
-30176 -30452 -30523 0
30179 30531 0
30179 30455 0
30179 30511 0
-30179 -30531 -30455 -30511 0
30539 30458 0
30539 30684 0
-30539 -30458 -30684 0
30186 30520 0
30186 30652 0
-30186 -30520 -30652 0
30189 30190 0
30189 30704 0
30189 30521 0
-30189 -30190 -30704 -30521 0
30378 30194 0
30378 30654 0
-30378 -30194 -30654 0
30196 30482 0
30196 30527 0
-30196 -30482 -30527 0
30568 30493 0
30568 30201 0
-30568 -30493 -30201 0
30382 30491 0
30382 30493 0
30382 30205 0
-30382 -30491 -30493 -30205 0
30571 30364 0
30571 30208 0
-30571 -30364 -30208 0
30574 30364 0
30574 30604 0
-30574 -30364 -30604 0
30584 30470 0
30584 30364 0
-30584 -30470 -30364 0
30586 30364 0
30586 30425 0
-30586 -30364 -30425 0
30590 30506 0
30590 30220 0
-30590 -30506 -30220 0
30593 30222 0
30593 30527 0
-30593 -30222 -30527 0
30224 30515 0
30224 30505 0
30224 30506 0
-30224 -30515 -30505 -30506 0
30348 30485 0
30348 30501 0
30348 30518 0
-30348 -30485 -30501 -30518 0
30598 30526 0
30598 30684 0
-30598 -30526 -30684 0
30605 30364 0
30605 30526 0
-30605 -30364 -30526 0
30238 30239 0
30238 30240 0
-30238 -30239 -30240 0
30368 30242 0
30368 30413 0
-30368 -30242 -30413 0
30244 30245 0
30244 30575 0
-30244 -30245 -30575 0
30247 30248 0
30247 30505 0
-30247 -30248 -30505 0
30617 30251 0
30617 30415 0
-30617 -30251 -30415 0
30328 30254 0
30328 30485 0
-30328 -30254 -30485 0
30256 30257 0
30256 30704 0
-30256 -30257 -30704 0
30259 30260 0
30259 30261 0
-30259 -30260 -30261 0
30262 30598 0
30262 30530 0
-30262 -30598 -30530 0
30265 30266 0
30265 30538 0
-30265 -30266 -30538 0
30268 30269 0
30268 30505 0
-30268 -30269 -30505 0
30323 30454 0
30323 30550 0
30323 30563 0
-30323 -30454 -30550 -30563 0
30620 30425 0
30620 30573 0
-30620 -30425 -30573 0
30409 30652 0
30409 30573 0
30409 30635 0
-30409 -30652 -30573 -30635 0
30357 30449 0
30357 30454 0
30357 30582 0
-30357 -30449 -30454 -30582 0
30624 30585 0
30624 30457 0
30624 30443 0
-30624 -30585 -30457 -30443 0
30290 30335 0
30290 30585 0
30290 30515 0
-30290 -30335 -30585 -30515 0
30387 30567 0
30387 30765 0
30387 30528 0
-30387 -30567 -30765 -30528 0
30632 30591 0
30632 30457 0
-30632 -30591 -30457 0
30640 30591 0
30640 30465 0
30640 30444 0
-30640 -30591 -30465 -30444 0
30643 30465 0
30643 30591 0
30643 30455 0
-30643 -30465 -30591 -30455 0
30648 30550 0
30648 30311 0
30648 30591 0
-30648 -30550 -30311 -30591 0
30313 30314 0
30313 30368 0
-30313 -30314 -30368 0
30656 30317 0
30656 30318 0
-30656 -30317 -30318 0
30319 30320 0
30319 30348 0
-30319 -30320 -30348 0
30322 30323 0
30322 30620 0
-30322 -30323 -30620 0
30325 30326 0
30325 30327 0
30325 30328 0
-30325 -30326 -30327 -30328 0
30329 30330 0
30329 30331 0
-30329 -30330 -30331 0
30351 30631 0
30351 30722 0
30351 30335 0
-30351 -30631 -30722 -30335 0
30336 30639 0
30336 30511 0
-30336 -30639 -30511 0
30339 30340 0
30339 30639 0
30339 30342 0
-30339 -30340 -30639 -30342 0
30709 30344 0
30709 30345 0
-30709 -30344 -30345 0
30715 30347 0
30715 30348 0
-30715 -30347 -30348 0
30349 30350 0
30349 30351 0
-30349 -30350 -30351 0
30352 30353 0
30352 30354 0
30352 30355 0
-30352 -30353 -30354 -30355 0
30356 30357 0
30356 30697 0
-30356 -30357 -30697 0
30359 30360 0
30359 30361 0
-30359 -30360 -30361 0
30380 30363 0
30380 30364 0
-30380 -30363 -30364 0
30365 30366 0
30365 30367 0
30365 30368 0
-30365 -30366 -30367 -30368 0
30385 30370 0
30385 30371 0
-30385 -30370 -30371 0
30372 30373 0
30372 30384 0
30372 30727 0
-30372 -30373 -30384 -30727 0
30391 30377 0
30391 30378 0
-30391 -30377 -30378 0
30764 30380 0
30764 30381 0
30764 30382 0
-30764 -30380 -30381 -30382 0
30383 30384 0
30383 30385 0
30383 30724 0
30383 30387 0
-30383 -30384 -30385 -30724 -30387 0
30388 30389 0
30388 30390 0
30388 30391 0
-30388 -30389 -30390 -30391 0
30392 30393 0
30392 30663 0
30392 30748 0
-30392 -30393 -30663 -30748 0
30396 30397 0
30396 30398 0
30396 30399 0
-30396 -30397 -30398 -30399 0
30400 30401 0
30400 30757 0
-30400 -30401 -30757 0
30403 30404 0
30403 30762 0
-30403 -30404 -30762 0
30406 30407 0
30406 30408 0
30406 30409 0
-30406 -30407 -30408 -30409 0
-30448 -30661 0
-30448 -30511 0
30448 30661 30511 0
-30413 -30604 0
-30413 -30415 0
30413 30604 30415 0
-30416 -30511 0
-30416 -30684 0
30416 30511 30684 0
-30419 -30442 0
-30419 -30589 0
30419 30442 30589 0
-30527 -30652 0
-30527 -30575 0
30527 30652 30575 0
-30425 -30684 0
-30425 -30652 0
30425 30684 30652 0
-30428 -30534 0
-30428 -30547 0
30428 30534 30547 0
-30647 -30444 0
-30647 -30589 0
30647 30444 30589 0
-30434 -30652 0
-30434 -30444 0
30434 30652 30444 0
-30437 -30684 0
-30437 -30439 0
30437 30684 30439 0
-30440 -30550 0
-30440 -30442 0
30440 30550 30442 0
-30443 -30444 0
-30443 -30531 0
30443 30444 30531 0
-30446 -30684 0
-30446 -30448 0
30446 30684 30448 0
-30449 -30661 0
-30449 -30704 0
30449 30661 30704 0
-30452 -30652 0
-30452 -30454 0
30452 30652 30454 0
-30455 -30661 0
-30455 -30457 0
30455 30661 30457 0
-30458 -30652 0
-30458 -30505 0
30458 30652 30505 0
-30461 -30465 0
-30461 -30547 0
30461 30465 30547 0
-30464 -30465 0
-30464 -30505 0
30464 30465 30505 0
-30528 -30505 0
-30528 -30491 0
30528 30505 30491 0
-30470 -30491 0
-30470 -30575 0
30470 30491 30575 0
-30473 -30575 0
-30473 -30655 0
30473 30575 30655 0
-30476 -30635 0
-30476 -30575 0
30476 30635 30575 0
-30722 -30480 0
-30722 -30481 0
30722 30480 30481 0
-30482 -30614 0
-30482 -30684 0
30482 30614 30684 0
-30485 -30575 0
-30485 -30626 0
-30485 -30684 0
30485 30575 30626 30684 0
-30489 -30572 0
-30489 -30491 0
-30489 -30575 0
30489 30572 30491 30575 0
-30493 -30687 0
-30493 -30505 0
30493 30687 30505 0
-30496 -30652 0
-30496 -30498 0
30496 30652 30498 0
-30499 -30569 0
-30499 -30501 0
30499 30569 30501 0
-30502 -30503 0
-30502 -30569 0
-30502 -30505 0
30502 30503 30569 30505 0
-30506 -30592 0
-30506 -30618 0
30506 30592 30618 0
-30509 -30677 0
-30509 -30511 0
30509 30677 30511 0
-30512 -30513 0
-30512 -30575 0
30512 30513 30575 0
-30515 -30520 0
-30515 -30550 0
30515 30520 30550 0
-30518 -30652 0
-30518 -30520 0
-30518 -30521 0
30518 30652 30520 30521 0
-30522 -30523 0
-30522 -30524 0
-30522 -30626 0
30522 30523 30524 30626 0
-30526 -30527 0
-30526 -30528 0
30526 30527 30528 0
-30608 -30530 0
-30608 -30531 0
30608 30530 30531 0
-30532 -30654 0
-30532 -30534 0
30532 30654 30534 0
-30719 -30539 0
-30719 -30614 0
30719 30539 30614 0
-30538 -30539 0
-30538 -30540 0
30538 30539 30540 0
-30541 -30604 0
-30541 -30682 0
-30541 -30687 0
30541 30604 30682 30687 0
-30545 -30567 0
-30545 -30547 0
30545 30567 30547 0
-30548 -30567 0
-30548 -30550 0
30548 30567 30550 0
-30551 -30704 0
-30551 -30553 0
30551 30704 30553 0
-30609 -30678 0
-30609 -30654 0
30609 30678 30654 0
-30557 -30652 0
-30557 -30559 0
30557 30652 30559 0
-30560 -30614 0
-30560 -30562 0
30560 30614 30562 0
-30563 -30652 0
-30563 -30568 0
30563 30652 30568 0
-30708 -30567 0
-30708 -30568 0
-30708 -30569 0
30708 30567 30568 30569 0
-30570 -30571 0
-30570 -30572 0
30570 30571 30572 0
-30573 -30574 0
-30573 -30575 0
30573 30574 30575 0
-30741 -30584 0
-30741 -30578 0
30741 30584 30578 0
-30696 -30584 0
-30696 -30581 0
30696 30584 30581 0
-30582 -30604 0
-30582 -30584 0
30582 30604 30584 0
-30585 -30586 0
-30585 -30604 0
30585 30586 30604 0
-30765 -30589 0
-30765 -30590 0
30765 30589 30590 0
-30591 -30592 0
-30591 -30593 0
30591 30592 30593 0
-30594 -30604 0
-30594 -30596 0
30594 30604 30596 0
-30597 -30598 0
-30597 -30604 0
30597 30598 30604 0
-30600 -30605 0
-30600 -30602 0
30600 30605 30602 0
-30603 -30604 0
-30603 -30605 0
-30603 -30606 0
30603 30604 30605 30606 0
-30607 -30608 0
-30607 -30609 0
30607 30608 30609 0
-30695 -30614 0
-30695 -30612 0
30695 30614 30612 0
-30613 -30614 0
-30613 -30615 0
30613 30614 30615 0
-30616 -30617 0
-30616 -30618 0
30616 30617 30618 0
-30619 -30620 0
-30619 -30621 0
30619 30620 30621 0
-30622 -30634 0
-30622 -30624 0
30622 30634 30624 0
-30625 -30626 0
-30625 -30627 0
30625 30626 30627 0
-30628 -30632 0
-30628 -30661 0
30628 30632 30661 0
-30631 -30632 0
-30631 -30655 0
-30631 -30634 0
-30631 -30635 0
30631 30632 30655 30634 30635 0
-30739 -30640 0
-30739 -30638 0
30739 30640 30638 0
-30639 -30640 0
-30639 -30641 0
30639 30640 30641 0
-30734 -30643 0
-30734 -30644 0
30734 30643 30644 0
-30745 -30704 0
-30745 -30647 0
-30745 -30648 0
-30745 -30649 0
30745 30704 30647 30648 30649 0
-30650 -30656 0
-30650 -30652 0
30650 30656 30652 0
-30714 -30654 0
-30714 -30655 0
-30714 -30656 0
30714 30654 30655 30656 0
-30657 -30708 0
-30657 -30659 0
30657 30708 30659 0
-30660 -30661 0
-30660 -30662 0
30660 30661 30662 0
-30663 -30664 0
-30663 -30665 0
-30663 -30666 0
30663 30664 30665 30666 0
-30667 -30668 0
-30667 -30669 0
-30667 -30766 0
-30667 -30671 0
30667 30668 30669 30766 30671 0
-30672 -30673 0
-30672 -30674 0
30672 30673 30674 0
-30675 -30680 0
-30675 -30677 0
-30675 -30678 0
30675 30680 30677 30678 0
-30759 -30680 0
-30759 -30705 0
-30759 -30682 0
30759 30680 30705 30682 0
-30683 -30684 0
-30683 -30685 0
30683 30684 30685 0
-30718 -30687 0
-30718 -30688 0
30718 30687 30688 0
-30689 -30690 0
-30689 -30691 0
30689 30690 30691 0
-30692 -30693 0
-30692 -30766 0
-30692 -30695 0
-30692 -30696 0
30692 30693 30766 30695 30696 0
-30697 -30698 0
-30697 -30699 0
30697 30698 30699 0
-30700 -30701 0
-30700 -30755 0
30700 30701 30755 0
-30728 -30704 0
-30728 -30705 0
-30728 -30706 0
30728 30704 30705 30706 0
-30707 -30708 0
-30707 -30709 0
-30707 -30710 0
30707 30708 30709 30710 0
-30711 -30712 0
-30711 -30755 0
-30711 -30714 0
-30711 -30715 0
30711 30712 30755 30714 30715 0
-30716 -30717 0
-30716 -30718 0
-30716 -30719 0
-30716 -30766 0
30716 30717 30718 30719 30766 0
-30721 -30722 0
-30721 -30723 0
30721 30722 30723 0
-30724 -30728 0
-30724 -30726 0
30724 30728 30726 0
-30727 -30728 0
-30727 -30755 0
-30727 -30730 0
30727 30728 30755 30730 0
-30731 -30739 0
-30731 -30738 0
-30731 -30734 0
30731 30739 30738 30734 0
-30735 -30736 0
-30735 -30737 0
-30735 -30738 0
-30735 -30739 0
30735 30736 30737 30738 30739 0
-30740 -30741 0
-30740 -30742 0
-30740 -30743 0
30740 30741 30742 30743 0
-30744 -30745 0
-30744 -30746 0
-30744 -30747 0
30744 30745 30746 30747 0
-30748 -30749 0
-30748 -30750 0
-30748 -30751 0
30748 30749 30750 30751 0
-30752 -30753 0
-30752 -30754 0
-30752 -30755 0
-30752 -30756 0
30752 30753 30754 30755 30756 0
-30757 -30758 0
-30757 -30759 0
-30757 -30760 0
-30757 -30761 0
30757 30758 30759 30760 30761 0
-30762 -30763 0
-30762 -30764 0
-30762 -30765 0
-30762 -30766 0
30762 30763 30764 30765 30766 0
-30767 -30768 0
-30767 -30769 0
30767 30768 30769 0
401 0
-402 0